 vasp.5.3.5 31Mar14 (build Mar 02 2015 18:14:16) complex

 executed on             LinuxIFC date 2018.08.09  18:43:48

 INCAR:
 POTCAR:   PAW_PBE C 08Apr2002
 POTCAR:   PAW_PBE C 08Apr2002
   VRHFIN =C: s2p2

   TITEL  = PAW_PBE C 08Apr2002
   POMASS =   12.011; ZVAL   =    4.000    mass and valenz
   ENMAX  =  400.000; ENMIN  =  300.000 eV
   QCUT   =   -5.516; QGAM   =   11.032    optimization parameters

   Description
     l     E      TYP  RCUT    TYP  RCUT
     0   .000     23  1.200
     0   .000     23  1.200
     1   .000     23  1.500
     1  2.500     23  1.500
     2   .000      7  1.500

 PAW_PBE C 08Apr2002                    :

 POSCAR: MD-kMC export data
  positions in direct lattice
  velocities in cartesian coordinates
 exchange correlation table for  LEXCH =        8
   RHO(1)=    0.500       N(1)  =     2000
   RHO(2)=  100.500       N(2)  =     4000

 ion  position               nearest neighbor table
   1  0.000  0.000  0.000-   4 1.42   2 1.43   2 1.43
   2  0.167  0.500  0.000-   3 1.42   1 1.43   1 1.43
   3  0.500  0.500  0.000-   2 1.42   4 1.43   4 1.43
   4  0.667  0.000  0.000-   1 1.42   3 1.43   3 1.43

  LATTYP: Found a simple orthorhombic cell.
 ALAT       =     2.4797597491
 B/A-ratio  =     1.7216748790
 C/A-ratio  =     8.0309833033

  Lattice vectors:

 A1 = (   0.0000000000,  -2.4797597491,   0.0000000000)
 A2 = (  -4.2693400660,   0.0000000000,   0.0000000000)
 A3 = (   0.0000000000,   0.0000000000, -19.9149091414)

Analysis of symmetry for initial positions (statically):
 Subroutine PRICEL returns following result:

  LATTYP: Found a base centered orthorhombic cell.
 ALAT       =     2.4797597491
 B/A-ratio  =     1.7216748790
 C/A-ratio  =     8.0309833033

[...]

   2 primitive cells build up your supercell.

 Routine SETGRP: Setting up the symmetry group for a
 simple orthorhombic supercell.

 Subroutine GETGRP returns: Found  8 space group operations
 (whereof  4 operations were pure point group operations)
 out of a pool of  8 trial point group operations.

The static configuration has the point symmetry C_2v.
 The point group associated with its full space group is D_2h.

Analysis of symmetry for dynamics (positions and initial velocities):
 Subroutine PRICEL returns following result:

  LATTYP: Found a base centered orthorhombic cell.
 ALAT       =     2.4797597491
 B/A-ratio  =     1.7216748790
 C/A-ratio  =     8.0309833033

  Lattice vectors:

 A1 = (   2.1346700330,  -1.2398798746,   0.0000000000)
 A2 = (  -2.1346700330,  -1.2398798746,   0.0000000000)
 A3 = (   0.0000000000,   0.0000000000, -19.9149091414)

   2 primitive cells build up your supercell.

 Routine SETGRP: Setting up the symmetry group for a
 simple orthorhombic supercell.

 Subroutine GETGRP returns: Found  8 space group operations
 (whereof  4 operations were pure point group operations)
 out of a pool of  8 trial point group operations.

The dynamic configuration has the point symmetry C_2v.
 The point group associated with its full space group is D_2h.

 KPOINTS: Automatic mesh

Automatic generation of k-mesh.
Space group operators:
 irot       det(A)        alpha          n_x          n_y          n_z        tau_x        tau_y        tau_z
    1     1.000000     0.000000     1.000000     0.000000     0.000000     0.000000     0.000000     0.000000
    2    -1.000000   179.999999     0.000000     0.000000     1.000000     0.000000     0.000000     0.000000
    3     1.000000   180.000000     1.000000     0.000000     0.000000     0.000000     0.000000     0.000000
    4    -1.000000   180.000000     0.000000     1.000000     0.000000     0.000000     0.000000     0.000000
    5    -1.000000     0.000000     1.000000     0.000000     0.000000     0.166667    -0.500000     0.000000
    6     1.000000   179.999999     0.000000     0.000000     1.000000     0.166667    -0.500000     0.000000
    7    -1.000000   180.000000     1.000000     0.000000     0.000000     0.166667    -0.500000     0.000000
    8     1.000000   180.000000     0.000000     1.000000     0.000000     0.166667    -0.500000     0.000000

 Subroutine IBZKPT returns following result:

 Found    247 irreducible k-points:

 Following reciprocal coordinates:
            Coordinates               Weight
  0.000000  0.000000  0.000000      1.000000
  0.041667  0.000000  0.000000      2.000000
  0.083333  0.000000  0.000000      2.000000
  0.125000  0.000000  0.000000      2.000000
  0.166667  0.000000  0.000000      2.000000
  0.208333  0.000000  0.000000      2.000000
  0.250000  0.000000  0.000000      2.000000
  0.291667  0.000000  0.000000      2.000000
  0.333333  0.000000  0.000000      2.000000
  0.375000  0.000000  0.000000      2.000000
  0.416667  0.000000  0.000000      2.000000
  0.458333  0.000000  0.000000      2.000000
  0.500000  0.000000  0.000000      1.000000
  0.000000  0.027778  0.000000      2.000000
  0.041667  0.027778  0.000000      4.000000
  0.083333  0.027778  0.000000      4.000000
  0.125000  0.027778  0.000000      4.000000
  0.166667  0.027778  0.000000      4.000000
  0.208333  0.027778  0.000000      4.000000
  0.250000  0.027778  0.000000      4.000000
  0.291667  0.027778  0.000000      4.000000
  0.333333  0.027778  0.000000      4.000000
  0.375000  0.027778  0.000000      4.000000
  0.416667  0.027778  0.000000      4.000000
  0.458333  0.027778  0.000000      4.000000
  0.500000  0.027778  0.000000      2.000000
  0.000000  0.055556  0.000000      2.000000
  0.041667  0.055556  0.000000      4.000000
  0.083333  0.055556  0.000000      4.000000
  0.125000  0.055556  0.000000      4.000000
  0.166667  0.055556  0.000000      4.000000
  0.208333  0.055556  0.000000      4.000000
  0.250000  0.055556  0.000000      4.000000
  0.291667  0.055556  0.000000      4.000000
  0.333333  0.055556  0.000000      4.000000
  0.375000  0.055556  0.000000      4.000000
  0.416667  0.055556  0.000000      4.000000
  0.458333  0.055556  0.000000      4.000000
  0.500000  0.055556  0.000000      2.000000
  0.000000  0.083333  0.000000      2.000000
  0.041667  0.083333  0.000000      4.000000
  0.083333  0.083333  0.000000      4.000000
  0.125000  0.083333  0.000000      4.000000
  0.166667  0.083333  0.000000      4.000000
  0.208333  0.083333  0.000000      4.000000
  0.250000  0.083333  0.000000      4.000000
  0.291667  0.083333  0.000000      4.000000
  0.333333  0.083333  0.000000      4.000000
  0.375000  0.083333  0.000000      4.000000
  0.416667  0.083333  0.000000      4.000000
  0.458333  0.083333  0.000000      4.000000
  0.500000  0.083333  0.000000      2.000000
  0.000000  0.111111  0.000000      2.000000
  0.041667  0.111111  0.000000      4.000000
  0.083333  0.111111  0.000000      4.000000
  0.125000  0.111111  0.000000      4.000000
  0.166667  0.111111  0.000000      4.000000
  0.208333  0.111111  0.000000      4.000000
  0.250000  0.111111  0.000000      4.000000
  0.291667  0.111111  0.000000      4.000000
[...]
  0.458333  0.472222  0.000000      4.000000
  0.500000  0.472222  0.000000      2.000000
  0.000000  0.500000  0.000000      1.000000
  0.041667  0.500000  0.000000      2.000000
  0.083333  0.500000  0.000000      2.000000
  0.125000  0.500000  0.000000      2.000000
  0.166667  0.500000  0.000000      2.000000
  0.208333  0.500000  0.000000      2.000000
  0.250000  0.500000  0.000000      2.000000
  0.291667  0.500000  0.000000      2.000000
  0.333333  0.500000  0.000000      2.000000
  0.375000  0.500000  0.000000      2.000000
  0.416667  0.500000  0.000000      2.000000
  0.458333  0.500000  0.000000      2.000000
  0.500000  0.500000  0.000000      1.000000

 Following cartesian coordinates:
            Coordinates               Weight
  0.000000  0.000000  0.000000      1.000000
  0.009760  0.000000  0.000000      2.000000
  0.019519  0.000000  0.000000      2.000000
  0.029279  0.000000  0.000000      2.000000
  0.039038  0.000000  0.000000      2.000000
  0.048798  0.000000  0.000000      2.000000
  0.058557  0.000000  0.000000      2.000000
  0.068317  0.000000  0.000000      2.000000
  0.078076  0.000000  0.000000      2.000000
  0.087836  0.000000  0.000000      2.000000
  0.097595  0.000000  0.000000      2.000000
  0.107355  0.000000  0.000000      2.000000
  0.117114  0.000000  0.000000      1.000000
  0.000000  0.011202  0.000000      2.000000
  0.009760  0.011202  0.000000      4.000000
  0.019519  0.011202  0.000000      4.000000
  0.029279  0.011202  0.000000      4.000000
  0.039038  0.011202  0.000000      4.000000
  0.048798  0.011202  0.000000      4.000000
  0.058557  0.011202  0.000000      4.000000
  0.068317  0.011202  0.000000      4.000000
  0.078076  0.011202  0.000000      4.000000
  0.087836  0.011202  0.000000      4.000000
  0.097595  0.011202  0.000000      4.000000
  0.107355  0.011202  0.000000      4.000000
  0.117114  0.011202  0.000000      2.000000
  0.000000  0.022404  0.000000      2.000000
  0.009760  0.022404  0.000000      4.000000
  0.019519  0.022404  0.000000      4.000000
  0.029279  0.022404  0.000000      4.000000
  0.039038  0.022404  0.000000      4.000000
  0.048798  0.022404  0.000000      4.000000
  0.058557  0.022404  0.000000      4.000000
  0.068317  0.022404  0.000000      4.000000
  0.078076  0.022404  0.000000      4.000000
  0.087836  0.022404  0.000000      4.000000
  0.097595  0.022404  0.000000      4.000000
  0.107355  0.022404  0.000000      4.000000
  0.117114  0.022404  0.000000      2.000000
  0.000000  0.033605  0.000000      2.000000
  0.009760  0.033605  0.000000      4.000000
  0.019519  0.033605  0.000000      4.000000
  0.029279  0.033605  0.000000      4.000000
  0.039038  0.033605  0.000000      4.000000
  0.048798  0.033605  0.000000      4.000000
  0.058557  0.033605  0.000000      4.000000
  0.068317  0.033605  0.000000      4.000000
  0.078076  0.033605  0.000000      4.000000
  0.087836  0.033605  0.000000      4.000000
  0.097595  0.033605  0.000000      4.000000
  0.107355  0.033605  0.000000      4.000000
  0.117114  0.033605  0.000000      2.000000
  0.000000  0.044807  0.000000      2.000000
  0.009760  0.044807  0.000000      4.000000
  0.019519  0.044807  0.000000      4.000000
  0.029279  0.044807  0.000000      4.000000
  0.039038  0.044807  0.000000      4.000000
  0.048798  0.044807  0.000000      4.000000
  0.058557  0.044807  0.000000      4.000000
  0.068317  0.044807  0.000000      4.000000
[...]
  0.107355  0.190431  0.000000      4.000000
  0.117114  0.190431  0.000000      2.000000
  0.000000  0.201632  0.000000      1.000000
  0.009760  0.201632  0.000000      2.000000
  0.019519  0.201632  0.000000      2.000000
  0.029279  0.201632  0.000000      2.000000
  0.039038  0.201632  0.000000      2.000000
  0.048798  0.201632  0.000000      2.000000
  0.058557  0.201632  0.000000      2.000000
  0.068317  0.201632  0.000000      2.000000
  0.078076  0.201632  0.000000      2.000000
  0.087836  0.201632  0.000000      2.000000
  0.097595  0.201632  0.000000      2.000000
  0.107355  0.201632  0.000000      2.000000
  0.117114  0.201632  0.000000      1.000000

 I would recommend the setting:
   dimension x,y,z NGX =    62 NGY =   36 NGZ =  290
[...]
 k-point ** :   0.2917 0.2500 0.0000  plane waves:   42828
 k-point ** :   0.3333 0.2500 0.0000  plane waves:   42826
 k-point ** :   0.3750 0.2500 0.0000  plane waves:   42824
 k-point ** :   0.4167 0.2500 0.0000  plane waves:   42792
 k-point ** :   0.4583 0.2500 0.0000  plane waves:   42784
 k-point ** :   0.5000 0.2500 0.0000  plane waves:   42810
 k-point ** :   0.0000 0.2778 0.0000  plane waves:   42936
 k-point ** :   0.0417 0.2778 0.0000  plane waves:   42906
 k-point ** :   0.0833 0.2778 0.0000  plane waves:   42876
 k-point ** :   0.1250 0.2778 0.0000  plane waves:   42868
 k-point ** :   0.1667 0.2778 0.0000  plane waves:   42879
 k-point ** :   0.2083 0.2778 0.0000  plane waves:   42875
 k-point ** :   0.2500 0.2778 0.0000  plane waves:   42842
 k-point ** :   0.2917 0.2778 0.0000  plane waves:   42816
 k-point ** :   0.3333 0.2778 0.0000  plane waves:   42826
 k-point ** :   0.3750 0.2778 0.0000  plane waves:   42825
 k-point ** :   0.4167 0.2778 0.0000  plane waves:   42801
 k-point ** :   0.4583 0.2778 0.0000  plane waves:   42794
 k-point ** :   0.5000 0.2778 0.0000  plane waves:   42794
 k-point ** :   0.0000 0.3056 0.0000  plane waves:   42900
 k-point ** :   0.0417 0.3056 0.0000  plane waves:   42946
 k-point ** :   0.0833 0.3056 0.0000  plane waves:   42913
 k-point ** :   0.1250 0.3056 0.0000  plane waves:   42884
 k-point ** :   0.1667 0.3056 0.0000  plane waves:   42865
 k-point ** :   0.2083 0.3056 0.0000  plane waves:   42871
 k-point ** :   0.2500 0.3056 0.0000  plane waves:   42860
 k-point ** :   0.2917 0.3056 0.0000  plane waves:   42821
 k-point ** :   0.3333 0.3056 0.0000  plane waves:   42816
 k-point ** :   0.3750 0.3056 0.0000  plane waves:   42816
 k-point ** :   0.4167 0.3056 0.0000  plane waves:   42814
 k-point ** :   0.4583 0.3056 0.0000  plane waves:   42817
 k-point ** :   0.5000 0.3056 0.0000  plane waves:   42804
 k-point ** :   0.0000 0.3333 0.0000  plane waves:   42930
 k-point ** :   0.0417 0.3333 0.0000  plane waves:   42927
 k-point ** :   0.0833 0.3333 0.0000  plane waves:   42906
[...]
 k-point ** :   0.4583 0.4722 0.0000  plane waves:   42791
 k-point ** :   0.5000 0.4722 0.0000  plane waves:   42810
 k-point ** :   0.0000 0.5000 0.0000  plane waves:   42918
 k-point ** :   0.0417 0.5000 0.0000  plane waves:   42908
 k-point ** :   0.0833 0.5000 0.0000  plane waves:   42932
 k-point ** :   0.1250 0.5000 0.0000  plane waves:   42912
 k-point ** :   0.1667 0.5000 0.0000  plane waves:   42936
 k-point ** :   0.2083 0.5000 0.0000  plane waves:   42954
 k-point ** :   0.2500 0.5000 0.0000  plane waves:   42922
 k-point ** :   0.2917 0.5000 0.0000  plane waves:   42910
 k-point ** :   0.3333 0.5000 0.0000  plane waves:   42858
 k-point ** :   0.3750 0.5000 0.0000  plane waves:   42816
 k-point ** :   0.4167 0.5000 0.0000  plane waves:   42812
 k-point ** :   0.4583 0.5000 0.0000  plane waves:   42758
 k-point ** :   0.5000 0.5000 0.0000  plane waves:   42764

 maximum and minimum number of plane-waves per node :     21489    21328

 maximum number of plane-waves:     42954
 maximum index in each direction:
   IXMAX=   15   IYMAX=    9   IZMAX=   72
   IXMIN=  -16   IYMIN=   -9   IZMIN=  -72

 NGX is ok and might be reduce to  64
 WARNING: aliasing errors must be expected set NGY to  38 to avoid them
 NGZ is ok and might be reduce to 290
 aliasing errors are usually negligible using standard VASP settings
 and one can safely disregard these warnings

 parallel 3D FFT for wavefunctions:
    minimum data exchange during FFTs selected (reduces bandwidth)
 parallel 3D FFT for charge:
    minimum data exchange during FFTs selected (reduces bandwidth)

 Broyden mixing: mesh for mixing (old mesh)
   NGX = 31   NGY = 19   NGZ =145
  (NGX  =128   NGY  = 72   NGZ  =588)
  gives a total of  85405 points

 initial charge density was supplied:
 charge density of overlapping atoms calculated
 number of electron      16.0000000 magnetization
 keeping initial charge density in first step

 Maximum index for augmentation-charges         4657 (set IRDMAX)

 First call to EWALD:  gamma=   0.298
 Maximum number of real-space cells 4x 6x 1
 Maximum number of reciprocal cells 2x 1x 8

 FEWALD executed in parallel

----------------------------------------- Iteration    1(   1)  ---------------------------------------

 eigenvalue-minimisations  :  5928
 total energy-change (2. order) : 0.1894776E+03  (-0.1060502E+04)
 number of electron      16.0000000 magnetization
 augmentation part       16.0000000 magnetization

 Free energy of the ion-electron system (eV)
  alpha Z        PSCENC =         6.18334092
  Ewald energy   TEWEN  =      2558.06099624
  -Hartree energ DENC   =     -2984.30247847
  -exchange      EXHF   =         0.00000000
  -V(xc)+E(xc)   XCENC  =        55.03957501
  PAW double counting   =       151.32577238     -155.92769107
  entropy T*S    EENTRO =        -0.00170079
  eigenvalues    EBANDS =       -29.52375556
  atomic energy  EATOM  =       588.62352690
  free energy    TOTEN  =       189.47758556 eV

  energy without entropy =      189.47928635  energy(sigma->0) =      189.47843596

[...]

 eigenvalue-minimisations  : 10476
 total energy-change (2. order) :-0.1985673E+03  (-0.1770282E+03)
 number of electron      16.0000000 magnetization
 augmentation part       16.0000000 magnetization

[...]

 Broyden mixing:
  rms(total) = 0.73054E+00    rms(broyden)= 0.73054E+00
  rms(prec ) = 0.79463E+00
  weight for this iteration     100.00

[...]

 eigenvalues of (default mixing * dielectric matrix)
  average eigenvalue GAMMA=   2.3162
  2.3162

[...]

WARNING in EDDRMM: call to ZHEGV failed, returncode =   6  3  1
WARNING in EDDRMM: call to ZHEGV failed, returncode =   6  3  1
WARNING in EDDRMM: call to ZHEGV failed, returncode =   6  3  1
WARNING in EDDRMM: call to ZHEGV failed, returncode =   6  3  1

[...]

 average (electrostatic) potential at core
  the test charge radii are     0.6991
  (the norm of the test charge is              1.0000)
       1 -58.2150       2 -58.2150       3 -58.2150       4 -58.2150

 E-fermi :  -2.7685     XC(G=0):  -2.1498     alpha+bet : -1.9046

 k-point     1 :       0.0000    0.0000    0.0000
  band No.  band energies     occupation
      1     -22.2185      2.00000
      2     -16.9552      2.00000
      3     -15.9502      2.00000
      4     -10.3318      2.00000
      5      -9.2276      2.00000
      6      -5.8321      2.00000
      7      -5.7740      2.00000
      8      -5.0678      2.00000
      9      -1.0871      0.00000
     10       0.5280      0.00000
     11       1.3285      0.00000
     12       3.4127      0.00000

[...]

 soft charge-density along one line, spin component           1
         0         1         2         3         4         5         6         7         8         9
 total charge-density along one line

------------------------ aborting loop because EDIFF is reached ----------------------------------------

  FORCE on cell =-STRESS in cart. coord.  units (eV):
  Direction    XX          YY          ZZ          XY          YZ          ZX
  Alpha Z     6.18334     6.18334     6.18334
  Ewald    3094.75039  3094.11290 -3630.80254     0.00000     0.00000    -0.00000
  Hartree  3029.43502  3029.21634 -3006.57350     0.00000    -0.00000    -0.00000
  E(xc)     -58.26772   -58.26168   -60.60012     0.00000    -0.00000    -0.00000
  Local   -6296.75098 -6296.00650  6431.40384     0.00000     0.00000    -0.00000
  n-local   -13.92572   -13.75315   -12.70902     0.06303    -0.00000     0.00000
  augment    -1.52924    -1.52851    -1.40567     0.00000    -0.00000    -0.00000
  Kinetic   240.10493   238.91784   274.50236    -4.61007     0.00000    -0.00000
  Fock        0.00000     0.00000     0.00000     0.00000     0.00000     0.00000
  Total       0.00002    -1.11943    -0.00132     0.00000     0.00000     0.00000
  in kB       0.00012    -8.50663    -0.01002     0.00000     0.00000     0.00000

 VOLUME and BASIS-vectors are now :
  energy-cutoff  :     2000.00
  volume of cell :      210.84
      direct lattice vectors                 reciprocal lattice vectors
     4.269340066  0.000000000  0.000000000     0.234228238  0.000000000  0.000000000
     0.000000000  2.479759749  0.000000000     0.000000000  0.403264873  0.000000000
     0.000000000  0.000000000 19.914909141     0.000000000  0.000000000  0.050213636

[...]

 FORCES acting on ions
    electron-ion (+dipol)            ewald-force                    non-local-force                 convergence-correction
   -.111E+01 0.165E-15 0.288E-09   0.111E+01 -.552E-14 0.636E-31   -.125E-02 0.347E-17 0.000E+00   -.243E-06 -.789E-15 0.193E-12
   0.111E+01 0.106E-13 -.457E-08   -.111E+01 -.163E-14 0.576E-19   0.125E-02 -.347E-17 0.194E-25   0.243E-06 -.143E-14 0.192E-12
   -.111E+01 0.591E-12 0.302E-09   0.111E+01 -.217E-14 -.636E-31   -.125E-02 0.347E-17 0.000E+00   -.243E-06 -.512E-15 0.193E-12
   0.111E+01 0.525E-18 -.457E-08   -.111E+01 0.172E-14 -.576E-19   0.125E-02 -.347E-17 0.000E+00   0.243E-06 -.176E-14 0.192E-12
   -.365E-06 0.602E-12 -.855E-08   0.000E+00 -.761E-14 -.241E-34   0.651E-18 0.000E+00 0.194E-25   -.165E-12 -.449E-14 0.771E-12

 POSITION                                       TOTAL-FORCE (eV/Angst)
      0.00056      0.00000      0.00000         0.000011     -0.000000      0.000000
      0.71099      1.23988      0.00000        -0.000011     -0.000000     -0.000000
      2.13523      1.23988      0.00000         0.000011      0.000000      0.000000
      2.84566      0.00000      0.00000        -0.000011      0.000000     -0.000000
    total drift:                               -0.000000      0.000000     -0.000000

  FREE ENERGIE OF THE ION-ELECTRON SYSTEM (eV)
  free  energy   TOTEN  =       -36.92264639 eV

  energy  without entropy=      -36.92255838  energy(sigma->0) =      -36.92260239

 Quasi-Newton relaxation of ions (Broydens 2nd method)
  g(Force)  = 0.223E-10   g(Stress)= 0.000E+00

 Reset! Starting new Quasi-Newton update for ions

[...]

 eigenvalue-minimisations  :  6252
 total energy-change (2. order) : 0.4928324E-09  ( 0.2748222E-09)
 number of electron      16.0000000 magnetization
 augmentation part        0.3799544 magnetization

[...]

 d Force =-0.3367824E-10[-0.896E-10, 0.223E-10]  d Energy =-0.3290097E-09 0.295E-09
 d Force = 0.2309243E-05[ 0.231E-05, 0.231E-05]  d Ewald  = 0.2309244E-05-0.455E-12

[...]

 retain information from N=  1 steps
 eigenvalues of (default step * inverse Hessian matrix)
  average eigenvalue of G=   0.1991
 eigenvalue spectrum of G is  0.1991

 FEWALD executed in parallel

[...]

 eigenvalue-minimisations  :  6352
 total energy-change (2. order) : 0.3865352E-09  ( 0.3841567E-09)
 number of electron      16.0000000 magnetization
 augmentation part        0.3799544 magnetization

[...]

 eigenvalue-minimisations  :  2834
 total energy-change (2. order) :-0.2455636E-10  (-0.9482242E-12)
 number of electron      16.0000000 magnetization
 augmentation part        0.3799544 magnetization

[...]

 Broyden mixing:
  rms(total) = 0.61153E-07    rms(broyden)= 0.61153E-07
  rms(prec ) = 0.66043E-07
  weight for this iteration     100.00

 eigenvalues of (default mixing * dielectric matrix)
  average eigenvalue GAMMA=   1.4837
  2.5654  2.5654  1.0191  0.9417  0.3271

[...]

----------------------------------------- Iteration    3(   7)  ---------------------------------------

 eigenvalue-minimisations  :  1803
 total energy-change (2. order) : 0.3421974E-10  (-0.2918776E-12)
 number of electron      16.0000000 magnetization
 augmentation part        0.3799544 magnetization

 Free energy of the ion-electron system (eV)
  alpha Z        PSCENC =         6.18334092
  Ewald energy   TEWEN  =      2558.06099578
  -Hartree energ DENC   =     -3052.07785705
  -exchange      EXHF   =         0.00000000
  -V(xc)+E(xc)   XCENC  =        57.44380223
  PAW double counting   =       275.34833532     -280.48931673
  entropy T*S    EENTRO =        -0.00008801
  eigenvalues    EBANDS =      -190.01538576
  atomic energy  EATOM  =       588.62352690
  free energy    TOTEN  =       -36.92264639 eV

  energy without entropy =      -36.92255838  energy(sigma->0) =      -36.92260239

 average (electrostatic) potential at core
  the test charge radii are     0.6991
  (the norm of the test charge is              1.0000)
       1 -58.2150       2 -58.2150       3 -58.2150       4 -58.2150

 E-fermi :  -2.7685     XC(G=0):  -2.1493     alpha+bet : -1.9046

[...]

 k-point   247 :       0.5000    0.5000    0.0000
  band No.  band energies     occupation
      1     -17.0425      2.00000
      2     -17.0425      2.00000
      3     -15.9470      2.00000
      4     -15.9470      2.00000
      5      -9.1197      2.00000
      6      -9.1197      2.00000
      7      -5.1355      2.00000
      8      -5.1355      2.00000
      9      -1.0960      0.00000
     10      -1.0960      0.00000
     11       4.6056      0.00000
     12       4.6056      0.00000

 soft charge-density along one line, spin component           1
         0         1         2         3         4         5         6         7         8         9
 total charge-density along one line

------------------------ aborting loop because EDIFF is reached ----------------------------------------

  FORCE on cell =-STRESS in cart. coord.  units (eV):
  Direction    XX          YY          ZZ          XY          YZ          ZX
  Alpha Z     6.18334     6.18334     6.18334
  Ewald    3094.75030  3094.11299 -3630.80254     0.00000     0.00000    -0.00000
  Hartree  3029.43500  3029.21635 -3006.57350     0.00000    -0.00000    -0.00000
  E(xc)     -58.26772   -58.26168   -60.60012     0.00000     0.00000    -0.00000
  Local   -6296.75089 -6296.00659  6431.40384     0.00000    -0.00000     0.00000
  n-local   -13.92573   -13.75315   -12.70902     0.06303    -0.00000     0.00000
  augment    -1.52924    -1.52851    -1.40567    -0.00000     0.00000    -0.00000
  Kinetic   240.10494   238.91783   274.50236    -4.61007     0.00000    -0.00000
  Fock        0.00000     0.00000     0.00000     0.00000     0.00000     0.00000
  Total       0.00001    -1.11942    -0.00132     0.00000     0.00000     0.00000
  in kB       0.00010    -8.50658    -0.01003     0.00000     0.00000     0.00000

 VOLUME and BASIS-vectors are now :
  energy-cutoff  :     2000.00
  volume of cell :      210.84
      direct lattice vectors                 reciprocal lattice vectors
     4.269340066  0.000000000  0.000000000     0.234228238  0.000000000  0.000000000
     0.000000000  2.479759749  0.000000000     0.000000000  0.403264873  0.000000000
     0.000000000  0.000000000 19.914909141     0.000000000  0.000000000  0.050213636

  length of vectors
     4.269340066  2.479759749 19.914909141     0.234228238  0.403264873  0.050213636

 FORCES acting on ions
    electron-ion (+dipol)            ewald-force                    non-local-force                 convergence-correction
   -.111E+01 0.102E-15 0.288E-09   0.111E+01 -.196E-14 -.122E-18   -.125E-02 0.000E+00 -.194E-25   -.882E-06 -.137E-14 0.110E-11
   0.111E+01 -.177E-12 -.456E-08   -.111E+01 -.536E-14 -.130E-18   0.125E-02 0.347E-17 0.000E+00   0.882E-06 0.314E-15 0.110E-11
   -.111E+01 -.205E-12 0.275E-09   0.111E+01 0.851E-15 -.310E-18   -.125E-02 0.000E+00 -.517E-25   -.882E-06 -.220E-15 0.112E-11
   0.111E+01 0.171E-15 -.457E-08   -.111E+01 -.114E-14 0.562E-18   0.125E-02 0.347E-17 0.129E-25   0.882E-06 -.831E-15 0.112E-11
   -.365E-06 -.382E-12 -.856E-08   0.000E+00 -.761E-14 0.000E+00   0.217E-18 0.694E-17 -.582E-25   0.438E-12 -.211E-14 0.445E-11

 POSITION                                       TOTAL-FORCE (eV/Angst)
      0.00056     -0.00000      0.00000        -0.000001     -0.000000      0.000000
      0.71099      1.23988     -0.00000         0.000001      0.000000      0.000000
      2.13523      1.23988      0.00000        -0.000001     -0.000000      0.000000
      2.84566      0.00000     -0.00000         0.000001     -0.000000      0.000000
    total drift:                               -0.000000     -0.000000     -0.000000

  FREE ENERGIE OF THE ION-ELECTRON SYSTEM (eV)
  free  energy   TOTEN  =       -36.92264639 eV

  energy  without entropy=      -36.92255838  energy(sigma->0) =      -36.92260239

 d Force = 0.3639126E-10[ 0.988E-12, 0.718E-10]  d Energy = 0.2910383E-10 0.729E-11
 d Force =-0.1849386E-05[-0.185E-05,-0.185E-05]  d Ewald  =-0.1849387E-05 0.455E-12

 Quasi-Newton relaxation of ions (Broydens 2nd method)
  g(Force)  = 0.682E-13   g(Stress)= 0.000E+00

 retain information from N=  1 steps
 eigenvalues of (default step * inverse Hessian matrix)
  average eigenvalue of G=   0.2019
 eigenvalue spectrum of G is  0.2019

 reached required accuracy - stopping structural energy minimisation