 vasp.5.3.5 31Mar14 (build Mar 02 2015 18:14:16) complex

 executed on             LinuxIFC date 2018.08.09  20:13:57

 INCAR:
 POTCAR:   PAW_PBE C 08Apr2002
 POTCAR:   PAW_PBE C 08Apr2002
   VRHFIN =C: s2p2

   TITEL  = PAW_PBE C 08Apr2002
   POMASS =   12.011; ZVAL   =    4.000    mass and valenz
   ENMAX  =  400.000; ENMIN  =  300.000 eV
   QCUT   =   -5.516; QGAM   =   11.032    optimization parameters

   Description
     l     E      TYP  RCUT    TYP  RCUT
     0   .000     23  1.200
     0   .000     23  1.200
     1   .000     23  1.500
     1  2.500     23  1.500
     2   .000      7  1.500

 PAW_PBE C 08Apr2002                    :

 POSCAR: MD-kMC export data
  positions in direct lattice
  velocities in cartesian coordinates
 exchange correlation table for  LEXCH =        8
   RHO(1)=    0.500       N(1)  =     2000
   RHO(2)=  100.500       N(2)  =     4000

 ion  position               nearest neighbor table
   1  0.001  0.000  0.000-   4 1.42   2 1.44   2 1.44
   2  0.166  0.500  0.000-   3 1.42   1 1.44   1 1.44
   3  0.501  0.500  0.000-   2 1.42   4 1.44   4 1.44
   4  0.666  0.000  0.000-   1 1.42   3 1.44   3 1.44

  LATTYP: Found a simple orthorhombic cell.
 ALAT       =     2.5161542330
 B/A-ratio  =     1.6925558245
 C/A-ratio  =     7.8197687007

  Lattice vectors:

 A1 = (   0.0000000000,  -2.5161542330,   0.0000000000)
 A2 = (  -4.2587315025,   0.0000000000,   0.0000000000)
 A3 = (   0.0000000000,   0.0000000000, -19.6757441173)

Analysis of symmetry for initial positions (statically):
 Subroutine PRICEL returns following result:

  LATTYP: Found a base centered orthorhombic cell.
 ALAT       =     2.5161542330
 B/A-ratio  =     1.6925558245
 C/A-ratio  =     7.8197687007

[...]

   2 primitive cells build up your supercell.

 Routine SETGRP: Setting up the symmetry group for a
 simple orthorhombic supercell.

 Subroutine GETGRP returns: Found  8 space group operations
 (whereof  4 operations were pure point group operations)
 out of a pool of  8 trial point group operations.

The static configuration has the point symmetry C_2v.
 The point group associated with its full space group is D_2h.

Analysis of symmetry for dynamics (positions and initial velocities):
 Subroutine PRICEL returns following result:

  LATTYP: Found a base centered orthorhombic cell.
 ALAT       =     2.5161542330
 B/A-ratio  =     1.6925558245
 C/A-ratio  =     7.8197687007

  Lattice vectors:

 A1 = (   2.1293657512,  -1.2580771165,   0.0000000000)
 A2 = (  -2.1293657512,  -1.2580771165,   0.0000000000)
 A3 = (   0.0000000000,   0.0000000000, -19.6757441173)

   2 primitive cells build up your supercell.

 Routine SETGRP: Setting up the symmetry group for a
 simple orthorhombic supercell.

 Subroutine GETGRP returns: Found  8 space group operations
 (whereof  4 operations were pure point group operations)
 out of a pool of  8 trial point group operations.

The dynamic configuration has the point symmetry C_2v.
 The point group associated with its full space group is D_2h.

 KPOINTS: Automatic mesh

Automatic generation of k-mesh.
Space group operators:
 irot       det(A)        alpha          n_x          n_y          n_z        tau_x        tau_y        tau_z
    1     1.000000     0.000000     1.000000     0.000000     0.000000     0.000000     0.000000     0.000000
    2    -1.000000   180.000000     0.000000     0.000000     1.000000     0.000000     0.000000     0.000000
    3     1.000000   180.000000     1.000000     0.000000     0.000000     0.000000     0.000000     0.000000
    4    -1.000000   180.000000     0.000000     1.000000     0.000000     0.000000     0.000000     0.000000
    5    -1.000000     0.000000     1.000000     0.000000     0.000000     0.166667    -0.500000     0.000000
    6     1.000000   180.000000     0.000000     0.000000     1.000000     0.166667    -0.500000     0.000000
    7    -1.000000   180.000000     1.000000     0.000000     0.000000     0.166667    -0.500000     0.000000
    8     1.000000   180.000000     0.000000     1.000000     0.000000     0.166667    -0.500000     0.000000

 Subroutine IBZKPT returns following result:

 Found    247 irreducible k-points:

 Following reciprocal coordinates:
            Coordinates               Weight
  0.000000  0.000000  0.000000      1.000000
  0.041667  0.000000  0.000000      2.000000
  0.083333  0.000000  0.000000      2.000000
  0.125000  0.000000  0.000000      2.000000
  0.166667  0.000000  0.000000      2.000000
  0.208333  0.000000  0.000000      2.000000
  0.250000  0.000000  0.000000      2.000000
  0.291667  0.000000  0.000000      2.000000
  0.333333  0.000000  0.000000      2.000000
  0.375000  0.000000  0.000000      2.000000
  0.416667  0.000000  0.000000      2.000000
  0.458333  0.000000  0.000000      2.000000
  0.500000  0.000000  0.000000      1.000000
  0.000000  0.027778  0.000000      2.000000
  0.041667  0.027778  0.000000      4.000000
  0.083333  0.027778  0.000000      4.000000
  0.125000  0.027778  0.000000      4.000000
  0.166667  0.027778  0.000000      4.000000
  0.208333  0.027778  0.000000      4.000000
  0.250000  0.027778  0.000000      4.000000
  0.291667  0.027778  0.000000      4.000000
  0.333333  0.027778  0.000000      4.000000
  0.375000  0.027778  0.000000      4.000000
  0.416667  0.027778  0.000000      4.000000
  0.458333  0.027778  0.000000      4.000000
  0.500000  0.027778  0.000000      2.000000
  0.000000  0.055556  0.000000      2.000000
  0.041667  0.055556  0.000000      4.000000
  0.083333  0.055556  0.000000      4.000000
  0.125000  0.055556  0.000000      4.000000
  0.166667  0.055556  0.000000      4.000000
  0.208333  0.055556  0.000000      4.000000
  0.250000  0.055556  0.000000      4.000000
  0.291667  0.055556  0.000000      4.000000
  0.333333  0.055556  0.000000      4.000000
  0.375000  0.055556  0.000000      4.000000
  0.416667  0.055556  0.000000      4.000000
  0.458333  0.055556  0.000000      4.000000
  0.500000  0.055556  0.000000      2.000000
  0.000000  0.083333  0.000000      2.000000
  0.041667  0.083333  0.000000      4.000000
  0.083333  0.083333  0.000000      4.000000
  0.125000  0.083333  0.000000      4.000000
  0.166667  0.083333  0.000000      4.000000
  0.208333  0.083333  0.000000      4.000000
  0.250000  0.083333  0.000000      4.000000
  0.291667  0.083333  0.000000      4.000000
  0.333333  0.083333  0.000000      4.000000
  0.375000  0.083333  0.000000      4.000000
  0.416667  0.083333  0.000000      4.000000
  0.458333  0.083333  0.000000      4.000000
  0.500000  0.083333  0.000000      2.000000
  0.000000  0.111111  0.000000      2.000000
  0.041667  0.111111  0.000000      4.000000
  0.083333  0.111111  0.000000      4.000000
  0.125000  0.111111  0.000000      4.000000
  0.166667  0.111111  0.000000      4.000000
  0.208333  0.111111  0.000000      4.000000
  0.250000  0.111111  0.000000      4.000000
  0.291667  0.111111  0.000000      4.000000
[...]
  0.458333  0.472222  0.000000      4.000000
  0.500000  0.472222  0.000000      2.000000
  0.000000  0.500000  0.000000      1.000000
  0.041667  0.500000  0.000000      2.000000
  0.083333  0.500000  0.000000      2.000000
  0.125000  0.500000  0.000000      2.000000
  0.166667  0.500000  0.000000      2.000000
  0.208333  0.500000  0.000000      2.000000
  0.250000  0.500000  0.000000      2.000000
  0.291667  0.500000  0.000000      2.000000
  0.333333  0.500000  0.000000      2.000000
  0.375000  0.500000  0.000000      2.000000
  0.416667  0.500000  0.000000      2.000000
  0.458333  0.500000  0.000000      2.000000
  0.500000  0.500000  0.000000      1.000000

 Following cartesian coordinates:
            Coordinates               Weight
  0.000000  0.000000  0.000000      1.000000
  0.009784  0.000000  0.000000      2.000000
  0.019568  0.000000  0.000000      2.000000
  0.029351  0.000000  0.000000      2.000000
  0.039135  0.000000  0.000000      2.000000
  0.048919  0.000000  0.000000      2.000000
  0.058703  0.000000  0.000000      2.000000
  0.068487  0.000000  0.000000      2.000000
  0.078271  0.000000  0.000000      2.000000
  0.088054  0.000000  0.000000      2.000000
  0.097838  0.000000  0.000000      2.000000
  0.107622  0.000000  0.000000      2.000000
  0.117406  0.000000  0.000000      1.000000
  0.000000  0.011040  0.000000      2.000000
  0.009784  0.011040  0.000000      4.000000
  0.019568  0.011040  0.000000      4.000000
  0.029351  0.011040  0.000000      4.000000
  0.039135  0.011040  0.000000      4.000000
  0.048919  0.011040  0.000000      4.000000
  0.058703  0.011040  0.000000      4.000000
  0.068487  0.011040  0.000000      4.000000
  0.078271  0.011040  0.000000      4.000000
  0.088054  0.011040  0.000000      4.000000
  0.097838  0.011040  0.000000      4.000000
  0.107622  0.011040  0.000000      4.000000
  0.117406  0.011040  0.000000      2.000000
  0.000000  0.022080  0.000000      2.000000
  0.009784  0.022080  0.000000      4.000000
  0.019568  0.022080  0.000000      4.000000
  0.029351  0.022080  0.000000      4.000000
  0.039135  0.022080  0.000000      4.000000
  0.048919  0.022080  0.000000      4.000000
  0.058703  0.022080  0.000000      4.000000
  0.068487  0.022080  0.000000      4.000000
  0.078271  0.022080  0.000000      4.000000
  0.088054  0.022080  0.000000      4.000000
  0.097838  0.022080  0.000000      4.000000
  0.107622  0.022080  0.000000      4.000000
  0.117406  0.022080  0.000000      2.000000
  0.000000  0.033119  0.000000      2.000000
  0.009784  0.033119  0.000000      4.000000
  0.019568  0.033119  0.000000      4.000000
  0.029351  0.033119  0.000000      4.000000
  0.039135  0.033119  0.000000      4.000000
  0.048919  0.033119  0.000000      4.000000
  0.058703  0.033119  0.000000      4.000000
  0.068487  0.033119  0.000000      4.000000
  0.078271  0.033119  0.000000      4.000000
  0.088054  0.033119  0.000000      4.000000
  0.097838  0.033119  0.000000      4.000000
  0.107622  0.033119  0.000000      4.000000
  0.117406  0.033119  0.000000      2.000000
  0.000000  0.044159  0.000000      2.000000
  0.009784  0.044159  0.000000      4.000000
  0.019568  0.044159  0.000000      4.000000
  0.029351  0.044159  0.000000      4.000000
  0.039135  0.044159  0.000000      4.000000
  0.048919  0.044159  0.000000      4.000000
  0.058703  0.044159  0.000000      4.000000
  0.068487  0.044159  0.000000      4.000000
[...]
  0.107622  0.187676  0.000000      4.000000
  0.117406  0.187676  0.000000      2.000000
  0.000000  0.198716  0.000000      1.000000
  0.009784  0.198716  0.000000      2.000000
  0.019568  0.198716  0.000000      2.000000
  0.029351  0.198716  0.000000      2.000000
  0.039135  0.198716  0.000000      2.000000
  0.048919  0.198716  0.000000      2.000000
  0.058703  0.198716  0.000000      2.000000
  0.068487  0.198716  0.000000      2.000000
  0.078271  0.198716  0.000000      2.000000
  0.088054  0.198716  0.000000      2.000000
  0.097838  0.198716  0.000000      2.000000
  0.107622  0.198716  0.000000      2.000000
  0.117406  0.198716  0.000000      1.000000

 I would recommend the setting:
   dimension x,y,z NGX =    62 NGY =   37 NGZ =  287
[...]
 k-point ** :   0.3750 0.2778 0.0000  plane waves:   42799
 k-point ** :   0.4167 0.2778 0.0000  plane waves:   42801
 k-point ** :   0.4583 0.2778 0.0000  plane waves:   42787
 k-point ** :   0.5000 0.2778 0.0000  plane waves:   42782
 k-point ** :   0.0000 0.3056 0.0000  plane waves:   42876
 k-point ** :   0.0417 0.3056 0.0000  plane waves:   42896
 k-point ** :   0.0833 0.3056 0.0000  plane waves:   42888
 k-point ** :   0.1250 0.3056 0.0000  plane waves:   42880
 k-point ** :   0.1667 0.3056 0.0000  plane waves:   42875
 k-point ** :   0.2083 0.3056 0.0000  plane waves:   42854
 k-point ** :   0.2500 0.3056 0.0000  plane waves:   42823
 k-point ** :   0.2917 0.3056 0.0000  plane waves:   42812
 k-point ** :   0.3333 0.3056 0.0000  plane waves:   42825
 k-point ** :   0.3750 0.3056 0.0000  plane waves:   42793
 k-point ** :   0.4167 0.3056 0.0000  plane waves:   42782
 k-point ** :   0.4583 0.3056 0.0000  plane waves:   42762
 k-point ** :   0.5000 0.3056 0.0000  plane waves:   42764
 k-point ** :   0.0000 0.3333 0.0000  plane waves:   42912
 k-point ** :   0.0417 0.3333 0.0000  plane waves:   42909
 k-point ** :   0.0833 0.3333 0.0000  plane waves:   42913
[...]
 k-point ** :   0.4583 0.4722 0.0000  plane waves:   42816
 k-point ** :   0.5000 0.4722 0.0000  plane waves:   42788
 k-point ** :   0.0000 0.5000 0.0000  plane waves:   42846
 k-point ** :   0.0417 0.5000 0.0000  plane waves:   42856
 k-point ** :   0.0833 0.5000 0.0000  plane waves:   42876
 k-point ** :   0.1250 0.5000 0.0000  plane waves:   42872
 k-point ** :   0.1667 0.5000 0.0000  plane waves:   42862
 k-point ** :   0.2083 0.5000 0.0000  plane waves:   42866
 k-point ** :   0.2500 0.5000 0.0000  plane waves:   42890
 k-point ** :   0.2917 0.5000 0.0000  plane waves:   42902
 k-point ** :   0.3333 0.5000 0.0000  plane waves:   42872
 k-point ** :   0.3750 0.5000 0.0000  plane waves:   42866
 k-point ** :   0.4167 0.5000 0.0000  plane waves:   42810
 k-point ** :   0.4583 0.5000 0.0000  plane waves:   42800
 k-point ** :   0.5000 0.5000 0.0000  plane waves:   42784

 maximum and minimum number of plane-waves per node :     21471    21352

 maximum number of plane-waves:     42932
 maximum index in each direction:
   IXMAX=   15   IYMAX=    9   IZMAX=   71
   IXMIN=  -16   IYMIN=   -9   IZMIN=  -71

 NGX is ok and might be reduce to  64
 NGY is ok and might be reduce to  38
 NGZ is ok and might be reduce to 286

 parallel 3D FFT for wavefunctions:
    minimum data exchange during FFTs selected (reduces bandwidth)
 parallel 3D FFT for charge:
    minimum data exchange during FFTs selected (reduces bandwidth)

 Broyden mixing: mesh for mixing (old mesh)
   NGX = 31   NGY = 19   NGZ =143
  (NGX  =128   NGY  = 80   NGZ  =576)
  gives a total of  84227 points

 initial charge density was supplied:
 charge density of overlapping atoms calculated
 number of electron      16.0000000 magnetization
 keeping initial charge density in first step

 Maximum index for augmentation-charges         5073 (set IRDMAX)

 First call to EWALD:  gamma=   0.298
 Maximum number of real-space cells 4x 6x 1
 Maximum number of reciprocal cells 2x 1x 8

 FEWALD executed in parallel

----------------------------------------- Iteration    1(   1)  ---------------------------------------

 eigenvalue-minimisations  :  5928
 total energy-change (2. order) : 0.1876162E+03  (-0.1054835E+04)
 number of electron      16.0000000 magnetization
 augmentation part       16.0000000 magnetization

 Free energy of the ion-electron system (eV)
  alpha Z        PSCENC =         6.18334092
  Ewald energy   TEWEN  =      2477.83383038
  -Hartree energ DENC   =     -2906.47940815
  -exchange      EXHF   =         0.00000000
  -V(xc)+E(xc)   XCENC  =        54.87567974
  PAW double counting   =       151.32577238     -155.92769107
  entropy T*S    EENTRO =        -0.00170516
  eigenvalues    EBANDS =       -28.81717140
  atomic energy  EATOM  =       588.62352690
  free energy    TOTEN  =       187.61617455 eV

  energy without entropy =      187.61787971  energy(sigma->0) =      187.61702713

[...]

 eigenvalue-minimisations  : 10436
 total energy-change (2. order) :-0.1968016E+03  (-0.1750532E+03)
 number of electron      16.0000000 magnetization
 augmentation part       16.0000000 magnetization

[...]

 Broyden mixing:
  rms(total) = 0.71236E+00    rms(broyden)= 0.71236E+00
  rms(prec ) = 0.77591E+00
  weight for this iteration     100.00

[...]

 eigenvalues of (default mixing * dielectric matrix)
  average eigenvalue GAMMA=   2.3275
  2.3275

[...]

 average (electrostatic) potential at core
  the test charge radii are     0.6991
  (the norm of the test charge is              1.0000)
       1 -58.2884       2 -58.2884       3 -58.2884       4 -58.2884

 E-fermi :  -2.8098     XC(G=0):  -2.1701     alpha+bet : -1.9046

 k-point     1 :       0.0000    0.0000    0.0000
  band No.  band energies     occupation
      1     -22.1171      2.00000
      2     -16.7698      2.00000
      3     -15.8855      2.00000
      4     -10.2535      2.00000
      5      -9.4138      2.00000
      6      -5.9544      2.00000
      7      -5.7469      2.00000
      8      -4.9476      2.00000
      9      -1.1258      0.00000
     10       0.5403      0.00000
     11       1.3391      0.00000
     12       3.0407      0.00000

[...]

 soft charge-density along one line, spin component           1
         0         1         2         3         4         5         6         7         8         9
 total charge-density along one line

------------------------ aborting loop because EDIFF is reached ----------------------------------------

  FORCE on cell =-STRESS in cart. coord.  units (eV):
  Direction    XX          YY          ZZ          XY          YZ          ZX
  Alpha Z     6.18334     6.18334     6.18334
  Ewald    3012.19520  3009.75749 -3544.11909    -0.00000     0.00000    -0.00000
  Hartree  2949.42579  2948.63077 -2926.00693    -0.00000     0.00000    -0.00000
  E(xc)     -58.06122   -58.03717   -60.37428    -0.00000    -0.00000    -0.00000
  Local   -6134.49621 -6131.71777  6264.68610     0.00000     0.00000    -0.00000
  n-local   -13.85010   -13.20189   -12.54065     0.08199    -0.00000    -0.00000
  augment    -1.49352    -1.49092    -1.38058     0.00000    -0.00000    -0.00000
  Kinetic   240.09426   235.57927   273.55075    -4.63424     0.00000     0.00000
  Fock        0.00000     0.00000     0.00000     0.00000     0.00000     0.00000
  Total      -0.00247    -4.29688    -0.00135     0.00000     0.00000     0.00000
  in kB      -0.01879   -32.65243    -0.01025     0.00000     0.00000     0.00000

 VOLUME and BASIS-vectors are now :
  energy-cutoff  :     2000.00
  volume of cell :      210.84
      direct lattice vectors                 reciprocal lattice vectors
     4.258731502  0.000000000  0.000000000     0.234811704  0.000000000  0.000000000
     0.000000000  2.516154233  0.000000000     0.000000000  0.397431917  0.000000000
     0.000000000  0.000000000 19.675744117     0.000000000  0.000000000  0.050823999

[...]

 FORCES acting on ions
    electron-ion (+dipol)            ewald-force                    non-local-force                 convergence-correction
   -.422E+01 -.788E-15 0.756E-09   0.421E+01 0.346E-14 0.147E-17   0.229E-02 -.208E-16 0.000E+00   0.123E-06 -.180E-14 -.831E-13
   0.422E+01 -.183E-12 -.271E-08   -.421E+01 -.349E-14 -.977E-18   -.229E-02 0.139E-16 0.517E-25   -.123E-06 -.769E-15 -.835E-13
   -.422E+01 0.593E-12 0.760E-09   0.421E+01 0.268E-14 -.187E-18   0.229E-02 -.694E-17 0.000E+00   0.123E-06 -.726E-15 -.831E-13
   0.422E+01 -.192E-15 -.269E-08   -.421E+01 -.427E-14 -.311E-18   -.229E-02 0.694E-17 0.000E+00   -.123E-06 -.186E-14 -.836E-13
   -.242E-06 0.408E-12 -.389E-08   0.266E-14 -.163E-14 0.481E-34   0.000E+00 -.694E-17 0.517E-25   -.163E-13 -.516E-14 -.333E-12

 POSITION                                       TOTAL-FORCE (eV/Angst)
      0.00221      0.00000      0.00000        -0.002762     -0.000000     -0.000000
      0.70758      1.25808      0.00000         0.002762      0.000000      0.000000
      2.13158      1.25808      0.00000        -0.002762     -0.000000     -0.000000
      2.83694      0.00000      0.00000         0.002762      0.000000      0.000000
    total drift:                               -0.000000      0.000000     -0.000000

  FREE ENERGIE OF THE ION-ELECTRON SYSTEM (eV)
  free  energy   TOTEN  =       -36.88308532 eV

  energy  without entropy=      -36.88308489  energy(sigma->0) =      -36.88308510

 Quasi-Newton relaxation of ions (Broydens 2nd method)
  g(Force)  = 0.147E-05   g(Stress)= 0.000E+00

 Reset! Starting new Quasi-Newton update for ions

[...]

WARNING in EDDRMM: call to ZHEGV failed, returncode =   6  3  1

[...]

 d Force =-0.2235592E-05[-0.594E-05, 0.147E-05]  d Energy =-0.2213911E-05-0.217E-07
 d Force =-0.2257360E-02[-0.227E-02,-0.225E-02]  d Ewald  =-0.2257358E-02-0.186E-08

[...]

 retain information from N=  1 steps
 eigenvalues of (default step * inverse Hessian matrix)
  average eigenvalue of G=   0.1985
 eigenvalue spectrum of G is  0.1985

[...]

WARNING in EDDRMM: call to ZHEGV failed, returncode =   6  3  1

[...]

 d Force = 0.2383719E-05[ 0.417E-08, 0.476E-05]  d Energy = 0.2364333E-05 0.194E-07
 d Force = 0.1811284E-02[ 0.180E-02, 0.182E-02]  d Ewald  = 0.1811283E-02 0.955E-09

[...]

 eigenvalue-minimisations  :  4628
 total energy-change (2. order) : 0.4196181E-09  ( 0.5974727E-09)
 number of electron      16.0000000 magnetization
 augmentation part        0.3745116 magnetization

[...]

 eigenvalue-minimisations  :  3293
 total energy-change (2. order) :-0.4457661E-09  ( 0.1664737E-12)
 number of electron      16.0000000 magnetization
 augmentation part        0.3745116 magnetization

[...]

 d Force =-0.4265317E-12[-0.451E-11, 0.365E-11]  d Energy = 0.2812612E-09-0.282E-09
 d Force = 0.1579868E-05[ 0.158E-05, 0.158E-05]  d Ewald  = 0.1579867E-05 0.455E-12

[...]

 d Force = 0.1453449E-11[ 0.418E-12, 0.249E-11]  d Energy = 0.9185896E-10-0.904E-10
 d Force =-0.8725298E-06[-0.873E-06,-0.873E-06]  d Ewald  =-0.8725297E-06 0.000E+00

[...]

 d Force = 0.7016952E-13[ 0.557E-13, 0.846E-13]  d Energy =-0.1554099E-09 0.155E-09
 d Force =-0.1763899E-06[-0.176E-06,-0.176E-06]  d Ewald  =-0.1763901E-06 0.000E+00

[...]

 FEWALD executed in parallel

[...]

 eigenvalue-minimisations  :   577
 total energy-change (2. order) : 0.2800107E-09  (-0.5427757E-15)
 number of electron      16.0000000 magnetization
 augmentation part        0.3745116 magnetization

[...]

 eigenvalue-minimisations  :   376
 total energy-change (2. order) :-0.1440412E-09  ( 0.4868534E-14)
 number of electron      16.0000000 magnetization
 augmentation part        0.3745116 magnetization

[...]

 eigenvalue-minimisations  :   552
 total energy-change (2. order) : 0.1340368E-09  ( 0.3552714E-14)
 number of electron      16.0000000 magnetization
 augmentation part        0.3745116 magnetization

 Broyden mixing:
  rms(total) = 0.12029E-09    rms(broyden)= 0.12024E-09
  rms(prec ) = 0.14187E-09
  weight for this iteration     100.00

 eigenvalues of (default mixing * dielectric matrix)
  average eigenvalue GAMMA=   1.8023
  4.5130  2.6698  2.5719  1.0649  0.7594  0.5037  0.5334

[...]

----------------------------------------- Iteration    7(   9)  ---------------------------------------

 eigenvalue-minimisations  :   318
 total energy-change (2. order) :-0.9936230E-10  (-0.2203998E-14)
 number of electron      16.0000000 magnetization
 augmentation part        0.3745116 magnetization

 Free energy of the ion-electron system (eV)
  alpha Z        PSCENC =         6.18334092
  Ewald energy   TEWEN  =      2477.83427627
  -Hartree energ DENC   =     -2972.05000761
  -exchange      EXHF   =         0.00000000
  -V(xc)+E(xc)   XCENC  =        57.22121967
  PAW double counting   =       270.52081800     -275.63995973
  entropy T*S    EENTRO =        -0.00000042
  eigenvalues    EBANDS =      -189.57629946
  atomic energy  EATOM  =       588.62352690
  free energy    TOTEN  =       -36.88308547 eV

  energy without entropy =      -36.88308505  energy(sigma->0) =      -36.88308526

 average (electrostatic) potential at core
  the test charge radii are     0.6991
  (the norm of the test charge is              1.0000)
       1 -58.2884       2 -58.2884       3 -58.2884       4 -58.2884

 E-fermi :  -2.8098     XC(G=0):  -2.1698     alpha+bet : -1.9046

[...]

 k-point   247 :       0.5000    0.5000    0.0000
  band No.  band energies     occupation
      1     -17.1019      2.00000
      2     -17.1019      2.00000
      3     -15.8703      2.00000
      4     -15.8703      2.00000
      5      -9.0076      2.00000
      6      -9.0076      2.00000
      7      -5.2038      2.00000
      8      -5.2038      2.00000
      9      -1.1539      0.00000
     10      -1.1539      0.00000
     11       4.5955      0.00000
     12       4.5955      0.00000

 soft charge-density along one line, spin component           1
         0         1         2         3         4         5         6         7         8         9
 total charge-density along one line

------------------------ aborting loop because EDIFF is reached ----------------------------------------

  FORCE on cell =-STRESS in cart. coord.  units (eV):
  Direction    XX          YY          ZZ          XY          YZ          ZX
  Alpha Z     6.18334     6.18334     6.18334
  Ewald    3012.21809  3009.73505 -3544.11909    -0.00000     0.00000    -0.00000
  Hartree  2949.42904  2948.62787 -2926.00690    -0.00000    -0.00000    -0.00000
  E(xc)     -58.06116   -58.03728   -60.37430    -0.00000    -0.00000    -0.00000
  Local   -6134.51787 -6131.69665  6264.68597    -0.00000     0.00000    -0.00000
  n-local   -13.84992   -13.20209   -12.54066     0.08196     0.00000     0.00000
  augment    -1.49356    -1.49089    -1.38059     0.00000     0.00000     0.00000
  Kinetic   240.09096   235.58283   273.55089    -4.63412    -0.00000    -0.00000
  Fock        0.00000     0.00000     0.00000     0.00000     0.00000     0.00000
  Total      -0.00107    -4.29782    -0.00135     0.00000     0.00000     0.00000
  in kB      -0.00814   -32.65958    -0.01024     0.00000     0.00000     0.00000

 VOLUME and BASIS-vectors are now :
  energy-cutoff  :     2000.00
  volume of cell :      210.84
      direct lattice vectors                 reciprocal lattice vectors
     4.258731502  0.000000000  0.000000000     0.234811704  0.000000000  0.000000000
     0.000000000  2.516154233  0.000000000     0.000000000  0.397431917  0.000000000
     0.000000000  0.000000000 19.675744117     0.000000000  0.000000000  0.050823999

  length of vectors
     4.258731502  2.516154233 19.675744117     0.234811704  0.397431917  0.050823999

 FORCES acting on ions
    electron-ion (+dipol)            ewald-force                    non-local-force                 convergence-correction
   -.423E+01 -.574E-15 0.753E-09   0.422E+01 0.309E-14 -.124E-18   0.326E-02 0.104E-16 0.162E-26   -.410E-09 -.263E-14 0.901E-12
   0.423E+01 0.162E-13 -.275E-08   -.422E+01 -.359E-14 -.287E-33   -.326E-02 -.139E-16 -.162E-26   0.410E-09 0.161E-14 0.907E-12
   -.423E+01 -.200E-12 0.769E-09   0.422E+01 0.277E-14 0.124E-18   0.326E-02 -.104E-16 0.000E+00   -.410E-09 -.126E-14 0.905E-12
   0.423E+01 -.280E-15 -.278E-08   -.422E+01 -.390E-14 0.286E-33   -.326E-02 0.139E-16 0.000E+00   0.410E-09 0.148E-15 0.897E-12
   -.241E-06 -.185E-12 -.401E-08   0.266E-14 -.163E-14 -.301E-35   0.217E-17 0.000E+00 0.000E+00   0.613E-14 -.213E-14 0.361E-11

 POSITION                                       TOTAL-FORCE (eV/Angst)
      0.00218     -0.00000     -0.00000         0.000001     -0.000000      0.000000
      0.70760      1.25808      0.00000        -0.000001     -0.000000      0.000000
      2.13155      1.25808     -0.00000         0.000001      0.000000      0.000000
      2.83697     -0.00000      0.00000        -0.000001     -0.000000      0.000000
    total drift:                               -0.000000     -0.000000     -0.000000

  FREE ENERGIE OF THE ION-ELECTRON SYSTEM (eV)
  free  energy   TOTEN  =       -36.88308547 eV

  energy  without entropy=      -36.88308505  energy(sigma->0) =      -36.88308526

 d Force = 0.3285002E-13[-0.420E-13, 0.108E-12]  d Energy =-0.4490630E-10 0.449E-10
 d Force =-0.3407838E-06[-0.341E-06,-0.341E-06]  d Ewald  =-0.3407840E-06 0.000E+00

 Quasi-Newton relaxation of ions (Broydens 2nd method)
  g(Force)  = 0.522E-13   g(Stress)= 0.000E+00

 retain information from N=  1 steps
 eigenvalues of (default step * inverse Hessian matrix)
  average eigenvalue of G=   0.2255
 eigenvalue spectrum of G is  0.2255

 reached required accuracy - stopping structural energy minimisation