 vasp.5.3.5 31Mar14 (build Mar 02 2015 18:14:16) complex

 executed on             LinuxIFC date 2018.08.09  21:20:55

 INCAR:
 POTCAR:   PAW_PBE C 08Apr2002
 POTCAR:   PAW_PBE C 08Apr2002
   VRHFIN =C: s2p2

   TITEL  = PAW_PBE C 08Apr2002
   POMASS =   12.011; ZVAL   =    4.000    mass and valenz
   ENMAX  =  400.000; ENMIN  =  300.000 eV
   QCUT   =   -5.516; QGAM   =   11.032    optimization parameters

   Description
     l     E      TYP  RCUT    TYP  RCUT
     0   .000     23  1.200
     0   .000     23  1.200
     1   .000     23  1.500
     1  2.500     23  1.500
     2   .000      7  1.500

 PAW_PBE C 08Apr2002                    :

 POSCAR: MD-kMC export data
  positions in direct lattice
  velocities in cartesian coordinates
 exchange correlation table for  LEXCH =        8
   RHO(1)=    0.500       N(1)  =     2000
   RHO(2)=  100.500       N(2)  =     4000

 ion  position               nearest neighbor table
   1  0.001  0.000  0.000-   4 1.42   2 1.45   2 1.45
   2  0.166  0.500  0.000-   3 1.42   1 1.45   1 1.45
   3  0.501  0.500  0.000-   2 1.42   4 1.45   4 1.45
   4  0.666  0.000  0.000-   1 1.42   3 1.45   3 1.45

  LATTYP: Found a simple orthorhombic cell.
 ALAT       =     2.5291082018
 B/A-ratio  =     1.6824686904
 C/A-ratio  =     7.7463918826

  Lattice vectors:

 A1 = (   0.0000000000,  -2.5291082018,   0.0000000000)
 A2 = (  -4.2551453643,   0.0000000000,   0.0000000000)
 A3 = (   0.0000000000,   0.0000000000, -19.5914632449)

Analysis of symmetry for initial positions (statically):
 Subroutine PRICEL returns following result:

  LATTYP: Found a base centered orthorhombic cell.
 ALAT       =     2.5291082018
 B/A-ratio  =     1.6824686904
 C/A-ratio  =     7.7463918826

[...]

   2 primitive cells build up your supercell.

 Routine SETGRP: Setting up the symmetry group for a
 simple orthorhombic supercell.

 Subroutine GETGRP returns: Found  8 space group operations
 (whereof  4 operations were pure point group operations)
 out of a pool of  8 trial point group operations.

The static configuration has the point symmetry C_2v.
 The point group associated with its full space group is D_2h.

Analysis of symmetry for dynamics (positions and initial velocities):
 Subroutine PRICEL returns following result:

  LATTYP: Found a base centered orthorhombic cell.
 ALAT       =     2.5291082018
 B/A-ratio  =     1.6824686904
 C/A-ratio  =     7.7463918826

  Lattice vectors:

 A1 = (   2.1275726821,  -1.2645541009,   0.0000000000)
 A2 = (  -2.1275726821,  -1.2645541009,   0.0000000000)
 A3 = (   0.0000000000,   0.0000000000, -19.5914632449)

   2 primitive cells build up your supercell.

 Routine SETGRP: Setting up the symmetry group for a
 simple orthorhombic supercell.

 Subroutine GETGRP returns: Found  8 space group operations
 (whereof  4 operations were pure point group operations)
 out of a pool of  8 trial point group operations.

The dynamic configuration has the point symmetry C_2v.
 The point group associated with its full space group is D_2h.

 KPOINTS: Automatic mesh

Automatic generation of k-mesh.
Space group operators:
 irot       det(A)        alpha          n_x          n_y          n_z        tau_x        tau_y        tau_z
    1     1.000000     0.000000     1.000000     0.000000     0.000000     0.000000     0.000000     0.000000
    2    -1.000000   180.000000     0.000000     0.000000     1.000000     0.000000     0.000000     0.000000
    3     1.000000   180.000000     1.000000     0.000000     0.000000     0.000000     0.000000     0.000000
    4    -1.000000   180.000000     0.000000     1.000000     0.000000     0.000000     0.000000     0.000000
    5    -1.000000     0.000000     1.000000     0.000000     0.000000     0.166667    -0.500000     0.000000
    6     1.000000   180.000000     0.000000     0.000000     1.000000     0.166667    -0.500000     0.000000
    7    -1.000000   180.000000     1.000000     0.000000     0.000000     0.166667    -0.500000     0.000000
    8     1.000000   180.000000     0.000000     1.000000     0.000000     0.166667    -0.500000     0.000000

 Subroutine IBZKPT returns following result:

 Found    247 irreducible k-points:

 Following reciprocal coordinates:
            Coordinates               Weight
  0.000000  0.000000  0.000000      1.000000
  0.041667  0.000000  0.000000      2.000000
  0.083333  0.000000  0.000000      2.000000
  0.125000  0.000000  0.000000      2.000000
  0.166667  0.000000  0.000000      2.000000
  0.208333  0.000000  0.000000      2.000000
  0.250000  0.000000  0.000000      2.000000
  0.291667  0.000000  0.000000      2.000000
  0.333333  0.000000  0.000000      2.000000
  0.375000  0.000000  0.000000      2.000000
  0.416667  0.000000  0.000000      2.000000
  0.458333  0.000000  0.000000      2.000000
  0.500000  0.000000  0.000000      1.000000
  0.000000  0.027778  0.000000      2.000000
  0.041667  0.027778  0.000000      4.000000
  0.083333  0.027778  0.000000      4.000000
  0.125000  0.027778  0.000000      4.000000
  0.166667  0.027778  0.000000      4.000000
  0.208333  0.027778  0.000000      4.000000
  0.250000  0.027778  0.000000      4.000000
  0.291667  0.027778  0.000000      4.000000
  0.333333  0.027778  0.000000      4.000000
  0.375000  0.027778  0.000000      4.000000
  0.416667  0.027778  0.000000      4.000000
  0.458333  0.027778  0.000000      4.000000
  0.500000  0.027778  0.000000      2.000000
  0.000000  0.055556  0.000000      2.000000
  0.041667  0.055556  0.000000      4.000000
  0.083333  0.055556  0.000000      4.000000
  0.125000  0.055556  0.000000      4.000000
  0.166667  0.055556  0.000000      4.000000
  0.208333  0.055556  0.000000      4.000000
  0.250000  0.055556  0.000000      4.000000
  0.291667  0.055556  0.000000      4.000000
  0.333333  0.055556  0.000000      4.000000
  0.375000  0.055556  0.000000      4.000000
  0.416667  0.055556  0.000000      4.000000
  0.458333  0.055556  0.000000      4.000000
  0.500000  0.055556  0.000000      2.000000
  0.000000  0.083333  0.000000      2.000000
  0.041667  0.083333  0.000000      4.000000
  0.083333  0.083333  0.000000      4.000000
  0.125000  0.083333  0.000000      4.000000
  0.166667  0.083333  0.000000      4.000000
  0.208333  0.083333  0.000000      4.000000
  0.250000  0.083333  0.000000      4.000000
  0.291667  0.083333  0.000000      4.000000
  0.333333  0.083333  0.000000      4.000000
  0.375000  0.083333  0.000000      4.000000
  0.416667  0.083333  0.000000      4.000000
  0.458333  0.083333  0.000000      4.000000
  0.500000  0.083333  0.000000      2.000000
  0.000000  0.111111  0.000000      2.000000
  0.041667  0.111111  0.000000      4.000000
  0.083333  0.111111  0.000000      4.000000
  0.125000  0.111111  0.000000      4.000000
  0.166667  0.111111  0.000000      4.000000
  0.208333  0.111111  0.000000      4.000000
  0.250000  0.111111  0.000000      4.000000
  0.291667  0.111111  0.000000      4.000000
[...]
  0.458333  0.472222  0.000000      4.000000
  0.500000  0.472222  0.000000      2.000000
  0.000000  0.500000  0.000000      1.000000
  0.041667  0.500000  0.000000      2.000000
  0.083333  0.500000  0.000000      2.000000
  0.125000  0.500000  0.000000      2.000000
  0.166667  0.500000  0.000000      2.000000
  0.208333  0.500000  0.000000      2.000000
  0.250000  0.500000  0.000000      2.000000
  0.291667  0.500000  0.000000      2.000000
  0.333333  0.500000  0.000000      2.000000
  0.375000  0.500000  0.000000      2.000000
  0.416667  0.500000  0.000000      2.000000
  0.458333  0.500000  0.000000      2.000000
  0.500000  0.500000  0.000000      1.000000

 Following cartesian coordinates:
            Coordinates               Weight
  0.000000  0.000000  0.000000      1.000000
  0.009792  0.000000  0.000000      2.000000
  0.019584  0.000000  0.000000      2.000000
  0.029376  0.000000  0.000000      2.000000
  0.039168  0.000000  0.000000      2.000000
  0.048960  0.000000  0.000000      2.000000
  0.058752  0.000000  0.000000      2.000000
  0.068544  0.000000  0.000000      2.000000
  0.078337  0.000000  0.000000      2.000000
  0.088129  0.000000  0.000000      2.000000
  0.097921  0.000000  0.000000      2.000000
  0.107713  0.000000  0.000000      2.000000
  0.117505  0.000000  0.000000      1.000000
  0.000000  0.010983  0.000000      2.000000
  0.009792  0.010983  0.000000      4.000000
  0.019584  0.010983  0.000000      4.000000
  0.029376  0.010983  0.000000      4.000000
  0.039168  0.010983  0.000000      4.000000
  0.048960  0.010983  0.000000      4.000000
  0.058752  0.010983  0.000000      4.000000
  0.068544  0.010983  0.000000      4.000000
  0.078337  0.010983  0.000000      4.000000
  0.088129  0.010983  0.000000      4.000000
  0.097921  0.010983  0.000000      4.000000
  0.107713  0.010983  0.000000      4.000000
  0.117505  0.010983  0.000000      2.000000
  0.000000  0.021966  0.000000      2.000000
  0.009792  0.021966  0.000000      4.000000
  0.019584  0.021966  0.000000      4.000000
  0.029376  0.021966  0.000000      4.000000
  0.039168  0.021966  0.000000      4.000000
  0.048960  0.021966  0.000000      4.000000
  0.058752  0.021966  0.000000      4.000000
  0.068544  0.021966  0.000000      4.000000
  0.078337  0.021966  0.000000      4.000000
  0.088129  0.021966  0.000000      4.000000
  0.097921  0.021966  0.000000      4.000000
  0.107713  0.021966  0.000000      4.000000
  0.117505  0.021966  0.000000      2.000000
  0.000000  0.032950  0.000000      2.000000
  0.009792  0.032950  0.000000      4.000000
  0.019584  0.032950  0.000000      4.000000
  0.029376  0.032950  0.000000      4.000000
  0.039168  0.032950  0.000000      4.000000
  0.048960  0.032950  0.000000      4.000000
  0.058752  0.032950  0.000000      4.000000
  0.068544  0.032950  0.000000      4.000000
  0.078337  0.032950  0.000000      4.000000
  0.088129  0.032950  0.000000      4.000000
  0.097921  0.032950  0.000000      4.000000
  0.107713  0.032950  0.000000      4.000000
  0.117505  0.032950  0.000000      2.000000
  0.000000  0.043933  0.000000      2.000000
  0.009792  0.043933  0.000000      4.000000
  0.019584  0.043933  0.000000      4.000000
  0.029376  0.043933  0.000000      4.000000
  0.039168  0.043933  0.000000      4.000000
  0.048960  0.043933  0.000000      4.000000
  0.058752  0.043933  0.000000      4.000000
  0.068544  0.043933  0.000000      4.000000
[...]
  0.107713  0.186715  0.000000      4.000000
  0.117505  0.186715  0.000000      2.000000
  0.000000  0.197698  0.000000      1.000000
  0.009792  0.197698  0.000000      2.000000
  0.019584  0.197698  0.000000      2.000000
  0.029376  0.197698  0.000000      2.000000
  0.039168  0.197698  0.000000      2.000000
  0.048960  0.197698  0.000000      2.000000
  0.058752  0.197698  0.000000      2.000000
  0.068544  0.197698  0.000000      2.000000
  0.078337  0.197698  0.000000      2.000000
  0.088129  0.197698  0.000000      2.000000
  0.097921  0.197698  0.000000      2.000000
  0.107713  0.197698  0.000000      2.000000
  0.117505  0.197698  0.000000      1.000000

 I would recommend the setting:
   dimension x,y,z NGX =    62 NGY =   37 NGZ =  286
[...]
 k-point 16 :   0.0833 0.0278 0.0000  plane waves:   42802
 k-point 17 :   0.1250 0.0278 0.0000  plane waves:   42816
 k-point 18 :   0.1667 0.0278 0.0000  plane waves:   42781
 k-point 19 :   0.2083 0.0278 0.0000  plane waves:   42796
 k-point 20 :   0.2500 0.0278 0.0000  plane waves:   42832
 k-point 21 :   0.2917 0.0278 0.0000  plane waves:   42829
 k-point 22 :   0.3333 0.0278 0.0000  plane waves:   42836
 k-point 23 :   0.3750 0.0278 0.0000  plane waves:   42840
 k-point 24 :   0.4167 0.0278 0.0000  plane waves:   42849
 k-point 25 :   0.4583 0.0278 0.0000  plane waves:   42869
 k-point 26 :   0.5000 0.0278 0.0000  plane waves:   42862
 k-point 27 :   0.0000 0.0556 0.0000  plane waves:   42771
 k-point 28 :   0.0417 0.0556 0.0000  plane waves:   42796
 k-point 29 :   0.0833 0.0556 0.0000  plane waves:   42796
 k-point 30 :   0.1250 0.0556 0.0000  plane waves:   42784
 k-point 31 :   0.1667 0.0556 0.0000  plane waves:   42808
 k-point 32 :   0.2083 0.0556 0.0000  plane waves:   42799
 k-point 33 :   0.2500 0.0556 0.0000  plane waves:   42821
 k-point 34 :   0.2917 0.0556 0.0000  plane waves:   42831
 k-point 35 :   0.3333 0.0556 0.0000  plane waves:   42855
 k-point 36 :   0.3750 0.0556 0.0000  plane waves:   42854
 k-point 37 :   0.4167 0.0556 0.0000  plane waves:   42853
 k-point 38 :   0.4583 0.0556 0.0000  plane waves:   42847
 k-point 39 :   0.5000 0.0556 0.0000  plane waves:   42870
 k-point 40 :   0.0000 0.0833 0.0000  plane waves:   42777
 k-point 41 :   0.0417 0.0833 0.0000  plane waves:   42783
 k-point 42 :   0.0833 0.0833 0.0000  plane waves:   42784
 k-point 43 :   0.1250 0.0833 0.0000  plane waves:   42815
 k-point 44 :   0.1667 0.0833 0.0000  plane waves:   42826
 k-point 45 :   0.2083 0.0833 0.0000  plane waves:   42817
 k-point 46 :   0.2500 0.0833 0.0000  plane waves:   42827
 k-point 47 :   0.2917 0.0833 0.0000  plane waves:   42837
 k-point 48 :   0.3333 0.0833 0.0000  plane waves:   42848
 k-point 49 :   0.3750 0.0833 0.0000  plane waves:   42861
 k-point 50 :   0.4167 0.0833 0.0000  plane waves:   42839
 k-point 51 :   0.4583 0.0833 0.0000  plane waves:   42818
 k-point 52 :   0.5000 0.0833 0.0000  plane waves:   42824
 k-point 53 :   0.0000 0.1111 0.0000  plane waves:   42827
 k-point 54 :   0.0417 0.1111 0.0000  plane waves:   42804
 k-point 55 :   0.0833 0.1111 0.0000  plane waves:   42786
 k-point 56 :   0.1250 0.1111 0.0000  plane waves:   42820
 k-point 57 :   0.1667 0.1111 0.0000  plane waves:   42828
 k-point 58 :   0.2083 0.1111 0.0000  plane waves:   42809
 k-point 59 :   0.2500 0.1111 0.0000  plane waves:   42815
 k-point 60 :   0.2917 0.1111 0.0000  plane waves:   42824
[...]
 k-point 85 :   0.2500 0.1667 0.0000  plane waves:   42792
 k-point 86 :   0.2917 0.1667 0.0000  plane waves:   42794
 k-point 87 :   0.3333 0.1667 0.0000  plane waves:   42797
 k-point 88 :   0.3750 0.1667 0.0000  plane waves:   42797
 k-point 89 :   0.4167 0.1667 0.0000  plane waves:   42776
 k-point 90 :   0.4583 0.1667 0.0000  plane waves:   42771
 k-point 91 :   0.5000 0.1667 0.0000  plane waves:   42778
 k-point 92 :   0.0000 0.1944 0.0000  plane waves:   42825
 k-point 93 :   0.0417 0.1944 0.0000  plane waves:   42845
 k-point 94 :   0.0833 0.1944 0.0000  plane waves:   42803
 k-point 95 :   0.1250 0.1944 0.0000  plane waves:   42816
 k-point 96 :   0.1667 0.1944 0.0000  plane waves:   42785
 k-point 97 :   0.2083 0.1944 0.0000  plane waves:   42772
 k-point 98 :   0.2500 0.1944 0.0000  plane waves:   42805
 k-point 99 :   0.2917 0.1944 0.0000  plane waves:   42776
 k-point ** :   0.3333 0.1944 0.0000  plane waves:   42777
 k-point ** :   0.3750 0.1944 0.0000  plane waves:   42787
 k-point ** :   0.4167 0.1944 0.0000  plane waves:   42783
 k-point ** :   0.4583 0.1944 0.0000  plane waves:   42777
 k-point ** :   0.5000 0.1944 0.0000  plane waves:   42768
 k-point ** :   0.0000 0.2222 0.0000  plane waves:   42815
 k-point ** :   0.0417 0.2222 0.0000  plane waves:   42814
 k-point ** :   0.0833 0.2222 0.0000  plane waves:   42818
 k-point ** :   0.1250 0.2222 0.0000  plane waves:   42801
 k-point ** :   0.1667 0.2222 0.0000  plane waves:   42798
 k-point ** :   0.2083 0.2222 0.0000  plane waves:   42800
 k-point ** :   0.2500 0.2222 0.0000  plane waves:   42789
 k-point ** :   0.2917 0.2222 0.0000  plane waves:   42774
 k-point ** :   0.3333 0.2222 0.0000  plane waves:   42786
 k-point ** :   0.3750 0.2222 0.0000  plane waves:   42792
 k-point ** :   0.4167 0.2222 0.0000  plane waves:   42787
 k-point ** :   0.4583 0.2222 0.0000  plane waves:   42756
 k-point ** :   0.5000 0.2222 0.0000  plane waves:   42748
 k-point ** :   0.0000 0.2500 0.0000  plane waves:   42840
 k-point ** :   0.0417 0.2500 0.0000  plane waves:   42822
 k-point ** :   0.0833 0.2500 0.0000  plane waves:   42818
 k-point ** :   0.1250 0.2500 0.0000  plane waves:   42805
 k-point ** :   0.1667 0.2500 0.0000  plane waves:   42808
 k-point ** :   0.2083 0.2500 0.0000  plane waves:   42824
 k-point ** :   0.2500 0.2500 0.0000  plane waves:   42797
 k-point ** :   0.2917 0.2500 0.0000  plane waves:   42805
 k-point ** :   0.3333 0.2500 0.0000  plane waves:   42792
 k-point ** :   0.3750 0.2500 0.0000  plane waves:   42789
 k-point ** :   0.4167 0.2500 0.0000  plane waves:   42768
 k-point ** :   0.4583 0.2500 0.0000  plane waves:   42781
 k-point ** :   0.5000 0.2500 0.0000  plane waves:   42756
 k-point ** :   0.0000 0.2778 0.0000  plane waves:   42830
 k-point ** :   0.0417 0.2778 0.0000  plane waves:   42842
 k-point ** :   0.0833 0.2778 0.0000  plane waves:   42850
 k-point ** :   0.1250 0.2778 0.0000  plane waves:   42830
 k-point ** :   0.1667 0.2778 0.0000  plane waves:   42827
 k-point ** :   0.2083 0.2778 0.0000  plane waves:   42832
 k-point ** :   0.2500 0.2778 0.0000  plane waves:   42805
 k-point ** :   0.2917 0.2778 0.0000  plane waves:   42809
 k-point ** :   0.3333 0.2778 0.0000  plane waves:   42802
 k-point ** :   0.3750 0.2778 0.0000  plane waves:   42784
 k-point ** :   0.4167 0.2778 0.0000  plane waves:   42785
 k-point ** :   0.4583 0.2778 0.0000  plane waves:   42741
 k-point ** :   0.5000 0.2778 0.0000  plane waves:   42760
 k-point ** :   0.0000 0.3056 0.0000  plane waves:   42888
 k-point ** :   0.0417 0.3056 0.0000  plane waves:   42881
 k-point ** :   0.0833 0.3056 0.0000  plane waves:   42861
 k-point ** :   0.1250 0.3056 0.0000  plane waves:   42853
 k-point ** :   0.1667 0.3056 0.0000  plane waves:   42848
 k-point ** :   0.2083 0.3056 0.0000  plane waves:   42836
 k-point ** :   0.2500 0.3056 0.0000  plane waves:   42837
 k-point ** :   0.2917 0.3056 0.0000  plane waves:   42810
 k-point ** :   0.3333 0.3056 0.0000  plane waves:   42815
 k-point ** :   0.3750 0.3056 0.0000  plane waves:   42795
 k-point ** :   0.4167 0.3056 0.0000  plane waves:   42787
 k-point ** :   0.4583 0.3056 0.0000  plane waves:   42782
 k-point ** :   0.5000 0.3056 0.0000  plane waves:   42770
 k-point ** :   0.0000 0.3333 0.0000  plane waves:   42898
 k-point ** :   0.0417 0.3333 0.0000  plane waves:   42895
 k-point ** :   0.0833 0.3333 0.0000  plane waves:   42869
[...]
 k-point ** :   0.4583 0.4722 0.0000  plane waves:   42784
 k-point ** :   0.5000 0.4722 0.0000  plane waves:   42760
 k-point ** :   0.0000 0.5000 0.0000  plane waves:   42862
 k-point ** :   0.0417 0.5000 0.0000  plane waves:   42836
 k-point ** :   0.0833 0.5000 0.0000  plane waves:   42858
 k-point ** :   0.1250 0.5000 0.0000  plane waves:   42866
 k-point ** :   0.1667 0.5000 0.0000  plane waves:   42878
 k-point ** :   0.2083 0.5000 0.0000  plane waves:   42898
 k-point ** :   0.2500 0.5000 0.0000  plane waves:   42894
 k-point ** :   0.2917 0.5000 0.0000  plane waves:   42874
 k-point ** :   0.3333 0.5000 0.0000  plane waves:   42864
 k-point ** :   0.3750 0.5000 0.0000  plane waves:   42826
 k-point ** :   0.4167 0.5000 0.0000  plane waves:   42814
 k-point ** :   0.4583 0.5000 0.0000  plane waves:   42778
 k-point ** :   0.5000 0.5000 0.0000  plane waves:   42772

 maximum and minimum number of plane-waves per node :     21466    21350

 maximum number of plane-waves:     42921
 maximum index in each direction:
   IXMAX=   15   IYMAX=    9   IZMAX=   71
   IXMIN=  -16   IYMIN=   -9   IZMIN=  -71

 NGX is ok and might be reduce to  64
 NGY is ok and might be reduce to  38
 NGZ is ok and might be reduce to 286

 parallel 3D FFT for wavefunctions:
    minimum data exchange during FFTs selected (reduces bandwidth)
 parallel 3D FFT for charge:
    minimum data exchange during FFTs selected (reduces bandwidth)

 Broyden mixing: mesh for mixing (old mesh)
   NGX = 31   NGY = 19   NGZ =143
  (NGX  =128   NGY  = 80   NGZ  =576)
  gives a total of  84227 points

 initial charge density was supplied:
 charge density of overlapping atoms calculated
 number of electron      16.0000000 magnetization
 keeping initial charge density in first step

 Maximum index for augmentation-charges         5075 (set IRDMAX)

 First call to EWALD:  gamma=   0.298
 Maximum number of real-space cells 4x 6x 1
 Maximum number of reciprocal cells 2x 1x 8

 FEWALD executed in parallel

----------------------------------------- Iteration    1(   1)  ---------------------------------------

 eigenvalue-minimisations  :  5928
 total energy-change (2. order) : 0.1865248E+03  (-0.1061340E+04)
 number of electron      16.0000000 magnetization
 augmentation part       16.0000000 magnetization

 Free energy of the ion-electron system (eV)
  alpha Z        PSCENC =         6.18334092
  Ewald energy   TEWEN  =      2449.82150940
  -Hartree energ DENC   =     -2879.30740226
  -exchange      EXHF   =         0.00000000
  -V(xc)+E(xc)   XCENC  =        54.81772630
  PAW double counting   =       151.32577238     -155.92769107
  entropy T*S    EENTRO =        -0.00145722
  eigenvalues    EBANDS =       -29.01047696
  atomic energy  EATOM  =       588.62352690
  free energy    TOTEN  =       186.52484839 eV

  energy without entropy =      186.52630561  energy(sigma->0) =      186.52557700

[...]

 eigenvalue-minimisations  : 10496
 total energy-change (2. order) :-0.1965967E+03  (-0.1760811E+03)
 number of electron      16.0000000 magnetization
 augmentation part       16.0000000 magnetization

[...]

 Broyden mixing:
  rms(total) = 0.71039E+00    rms(broyden)= 0.71039E+00
  rms(prec ) = 0.77412E+00
  weight for this iteration     100.00

[...]

 eigenvalues of (default mixing * dielectric matrix)
  average eigenvalue GAMMA=   2.3074
  2.3074

[...]

 eigenvalue-minimisations  :  3138
 total energy-change (2. order) :-0.2816023E-09  (-0.6525336E-12)
 number of electron      16.0000000 magnetization
 augmentation part        0.3725901 magnetization

 Broyden mixing:
  rms(total) = 0.54789E-07    rms(broyden)= 0.54789E-07
  rms(prec ) = 0.62052E-07
  weight for this iteration     100.00

 eigenvalues of (default mixing * dielectric matrix)
  average eigenvalue GAMMA=   2.7142
  9.7690  8.2161  5.1919  3.8218  3.5527  2.8543  2.8543  2.7029  2.4925  2.4925
  2.1101  1.6109  1.3102  1.1650  0.9528  1.0044  1.0044  0.9923  0.9923  1.0377
  0.8703

[...]

----------------------------------------- Iteration    1(  25)  ---------------------------------------

 eigenvalue-minimisations  :  2831
 total energy-change (2. order) : 0.6218670E-10  (-0.4523255E-12)
 number of electron      16.0000000 magnetization
 augmentation part        0.3725901 magnetization

 Free energy of the ion-electron system (eV)
  alpha Z        PSCENC =         6.18334092
  Ewald energy   TEWEN  =      2449.82150940
  -Hartree energ DENC   =     -2944.10617703
  -exchange      EXHF   =         0.00000000
  -V(xc)+E(xc)   XCENC  =        57.14247738
  PAW double counting   =       268.83731606     -273.94888820
  entropy T*S    EENTRO =        -0.00000001
  eigenvalues    EBANDS =      -189.41130264
  atomic energy  EATOM  =       588.62352690
  free energy    TOTEN  =       -36.85819722 eV

  energy without entropy =      -36.85819721  energy(sigma->0) =      -36.85819722

 average (electrostatic) potential at core
  the test charge radii are     0.6991
  (the norm of the test charge is              1.0000)
       1 -58.3145       2 -58.3145       3 -58.3145       4 -58.3145

 E-fermi :  -2.8239     XC(G=0):  -2.1774     alpha+bet : -1.9046

 k-point     1 :       0.0000    0.0000    0.0000
  band No.  band energies     occupation
      1     -22.0813      2.00000
      2     -16.7041      2.00000
      3     -15.8645      2.00000
      4     -10.2258      2.00000
      5      -9.4744      2.00000
      6      -5.9913      2.00000
      7      -5.7422      2.00000
      8      -4.9045      2.00000
      9      -1.1431      0.00000
     10       0.5447      0.00000
     11       1.3428      0.00000
     12       3.4874      0.00000

[...]

 k-point   247 :       0.5000    0.5000    0.0000
  band No.  band energies     occupation
      1     -17.1216      2.00000
      2     -17.1216      2.00000
      3     -15.8422      2.00000
      4     -15.8422      2.00000
      5      -8.9680      2.00000
      6      -8.9680      2.00000
      7      -5.2271      2.00000
      8      -5.2271      2.00000
      9      -1.1731      0.00000
     10      -1.1731      0.00000
     11       4.5910      0.00000
     12       4.5910      0.00000

 soft charge-density along one line, spin component           1
         0         1         2         3         4         5         6         7         8         9
 total charge-density along one line

------------------------ aborting loop because EDIFF is reached ----------------------------------------

  FORCE on cell =-STRESS in cart. coord.  units (eV):
  Direction    XX          YY          ZZ          XY          YZ          ZX
  Alpha Z     6.18334     6.18334     6.18334
  Ewald    2983.43680  2980.20620 -3513.82171    -0.00000     0.00000    -0.00000
  Hartree  2921.49016  2920.48319 -2897.86717     0.00000    -0.00000    -0.00000
  E(xc)     -57.98790   -57.95800   -60.29443     0.00000    -0.00000    -0.00000
  Local   -6077.88812 -6074.25952  6206.43524    -0.00000    -0.00000    -0.00000
  n-local   -13.81956   -13.01028   -12.48077     0.08832    -0.00000     0.00000
  augment    -1.48119    -1.47778    -1.37173    -0.00000     0.00000     0.00000
  Kinetic   240.06641   234.43967   273.21589    -4.64063     0.00000    -0.00000
  Fock        0.00000     0.00000     0.00000     0.00000     0.00000     0.00000
  Total      -0.00005    -5.39318    -0.00134     0.00000     0.00000     0.00000
  in kB      -0.00037   -40.98331    -0.01016     0.00000     0.00000     0.00000

 VOLUME and BASIS-vectors are now :
  energy-cutoff  :     2000.00
  volume of cell :      210.84
      direct lattice vectors                 reciprocal lattice vectors
     4.255145364  0.000000000  0.000000000     0.235009598  0.000000000  0.000000000
     0.000000000  2.529108202  0.000000000     0.000000000  0.395396290  0.000000000
     0.000000000  0.000000000 19.591463245     0.000000000  0.000000000  0.051042640

  length of vectors
     4.255145364  2.529108202 19.591463245     0.235009598  0.395396290  0.051042640

 FORCES acting on ions
    electron-ion (+dipol)            ewald-force                    non-local-force                 convergence-correction
   -.532E+01 -.223E-15 0.796E-09   0.531E+01 0.207E-15 0.187E-18   0.816E-02 -.208E-16 0.000E+00   0.185E-06 -.653E-15 -.796E-13
   0.532E+01 -.511E-14 -.224E-08   -.531E+01 0.520E-14 0.745E-18   -.816E-02 -.139E-16 0.000E+00   -.185E-06 -.198E-14 -.805E-13
   -.532E+01 -.201E-12 0.805E-09   0.531E+01 -.553E-14 -.622E-18   0.816E-02 0.694E-17 -.207E-24   0.185E-06 0.463E-15 -.797E-13
   0.532E+01 -.133E-14 -.222E-08   -.531E+01 -.542E-15 -.311E-18   -.816E-02 -.208E-16 0.207E-24   -.185E-06 -.305E-14 -.803E-13
   -.259E-06 -.208E-12 -.285E-08   -.355E-14 -.671E-15 0.963E-34   0.173E-17 -.486E-16 0.000E+00   0.397E-14 -.522E-14 -.320E-12

 POSITION                                       TOTAL-FORCE (eV/Angst)
      0.00271      0.00000      0.00000        -0.000000     -0.000000      0.000000
      0.70648      1.26455      0.00000         0.000000      0.000000     -0.000000
      2.13028      1.26455      0.00000        -0.000000     -0.000000      0.000000
      2.83405      0.00000      0.00000         0.000000      0.000000     -0.000000
    total drift:                               -0.000000     -0.000000     -0.000000

  FREE ENERGIE OF THE ION-ELECTRON SYSTEM (eV)
  free  energy   TOTEN  =       -36.85819722 eV

  energy  without entropy=      -36.85819721  energy(sigma->0) =      -36.85819722

 Quasi-Newton relaxation of ions (Broydens 2nd method)
  g(Force)  = 0.256E-14   g(Stress)= 0.000E+00

 Reset! Starting new Quasi-Newton update for ions

 reached required accuracy - stopping structural energy minimisation