 vasp.5.3.5 31Mar14 (build Mar 02 2015 18:14:16) complex

 executed on             LinuxIFC date 2018.08.09  20:03:21

 INCAR:
 POTCAR:   PAW_PBE C 08Apr2002
 POTCAR:   PAW_PBE C 08Apr2002
   VRHFIN =C: s2p2

   TITEL  = PAW_PBE C 08Apr2002
   POMASS =   12.011; ZVAL   =    4.000    mass and valenz
   ENMAX  =  400.000; ENMIN  =  300.000 eV
   QCUT   =   -5.516; QGAM   =   11.032    optimization parameters

   Description
     l     E      TYP  RCUT    TYP  RCUT
     0   .000     23  1.200
     0   .000     23  1.200
     1   .000     23  1.500
     1  2.500     23  1.500
     2   .000      7  1.500

 PAW_PBE C 08Apr2002                    :

 POSCAR: MD-kMC export data
  positions in direct lattice
  velocities in cartesian coordinates
 exchange correlation table for  LEXCH =        8
   RHO(1)=    0.500       N(1)  =     2000
   RHO(2)=  100.500       N(2)  =     4000

 ion  position               nearest neighbor table
   1  0.000  0.000  0.000-   4 1.42   2 1.44   2 1.44
   2  0.166  0.500  0.000-   3 1.42   1 1.44   1 1.44
   3  0.500  0.500  0.000-   2 1.42   4 1.44   4 1.44
   4  0.666  0.000  0.000-   1 1.42   3 1.44   3 1.44

  LATTYP: Found a simple orthorhombic cell.
 ALAT       =     2.5044339755
 B/A-ratio  =     1.7017881686
 C/A-ratio  =     7.8870469164

  Lattice vectors:

 A1 = (   0.0000000000,  -2.5044339755,   0.0000000000)
 A2 = (  -4.2620161085,   0.0000000000,   0.0000000000)
 A3 = (   0.0000000000,   0.0000000000, -19.7525882637)

Analysis of symmetry for initial positions (statically):
 Subroutine PRICEL returns following result:

  LATTYP: Found a base centered orthorhombic cell.
 ALAT       =     2.5044339755
 B/A-ratio  =     1.7017881686
 C/A-ratio  =     7.8870469164

[...]

   2 primitive cells build up your supercell.

 Routine SETGRP: Setting up the symmetry group for a
 simple orthorhombic supercell.

 Subroutine GETGRP returns: Found  8 space group operations
 (whereof  4 operations were pure point group operations)
 out of a pool of  8 trial point group operations.

The static configuration has the point symmetry C_2v.
 The point group associated with its full space group is D_2h.

Analysis of symmetry for dynamics (positions and initial velocities):
 Subroutine PRICEL returns following result:

  LATTYP: Found a base centered orthorhombic cell.
 ALAT       =     2.5044339755
 B/A-ratio  =     1.7017881686
 C/A-ratio  =     7.8870469164

  Lattice vectors:

 A1 = (   2.1310080543,  -1.2522169877,   0.0000000000)
 A2 = (  -2.1310080543,  -1.2522169877,   0.0000000000)
 A3 = (   0.0000000000,   0.0000000000, -19.7525882637)

   2 primitive cells build up your supercell.

 Routine SETGRP: Setting up the symmetry group for a
 simple orthorhombic supercell.

 Subroutine GETGRP returns: Found  8 space group operations
 (whereof  4 operations were pure point group operations)
 out of a pool of  8 trial point group operations.

The dynamic configuration has the point symmetry C_2v.
 The point group associated with its full space group is D_2h.

 KPOINTS: Automatic mesh

Automatic generation of k-mesh.
Space group operators:
 irot       det(A)        alpha          n_x          n_y          n_z        tau_x        tau_y        tau_z
    1     1.000000     0.000000     1.000000     0.000000     0.000000     0.000000     0.000000     0.000000
    2    -1.000000   180.000000     0.000000     0.000000     1.000000     0.000000     0.000000     0.000000
    3     1.000000   180.000000     1.000000     0.000000     0.000000     0.000000     0.000000     0.000000
    4    -1.000000   180.000000     0.000000     1.000000     0.000000     0.000000     0.000000     0.000000
    5    -1.000000     0.000000     1.000000     0.000000     0.000000     0.166667    -0.500000     0.000000
    6     1.000000   180.000000     0.000000     0.000000     1.000000     0.166667    -0.500000     0.000000
    7    -1.000000   180.000000     1.000000     0.000000     0.000000     0.166667    -0.500000     0.000000
    8     1.000000   180.000000     0.000000     1.000000     0.000000     0.166667    -0.500000     0.000000

 Subroutine IBZKPT returns following result:

 Found    247 irreducible k-points:

 Following reciprocal coordinates:
            Coordinates               Weight
  0.000000  0.000000  0.000000      1.000000
  0.041667  0.000000  0.000000      2.000000
  0.083333  0.000000  0.000000      2.000000
  0.125000  0.000000  0.000000      2.000000
  0.166667  0.000000  0.000000      2.000000
  0.208333  0.000000  0.000000      2.000000
  0.250000  0.000000  0.000000      2.000000
  0.291667  0.000000  0.000000      2.000000
  0.333333  0.000000  0.000000      2.000000
  0.375000  0.000000  0.000000      2.000000
  0.416667  0.000000  0.000000      2.000000
  0.458333  0.000000  0.000000      2.000000
  0.500000  0.000000  0.000000      1.000000
  0.000000  0.027778  0.000000      2.000000
  0.041667  0.027778  0.000000      4.000000
  0.083333  0.027778  0.000000      4.000000
  0.125000  0.027778  0.000000      4.000000
  0.166667  0.027778  0.000000      4.000000
  0.208333  0.027778  0.000000      4.000000
  0.250000  0.027778  0.000000      4.000000
  0.291667  0.027778  0.000000      4.000000
  0.333333  0.027778  0.000000      4.000000
  0.375000  0.027778  0.000000      4.000000
  0.416667  0.027778  0.000000      4.000000
  0.458333  0.027778  0.000000      4.000000
  0.500000  0.027778  0.000000      2.000000
  0.000000  0.055556  0.000000      2.000000
  0.041667  0.055556  0.000000      4.000000
  0.083333  0.055556  0.000000      4.000000
  0.125000  0.055556  0.000000      4.000000
  0.166667  0.055556  0.000000      4.000000
  0.208333  0.055556  0.000000      4.000000
  0.250000  0.055556  0.000000      4.000000
  0.291667  0.055556  0.000000      4.000000
  0.333333  0.055556  0.000000      4.000000
  0.375000  0.055556  0.000000      4.000000
  0.416667  0.055556  0.000000      4.000000
  0.458333  0.055556  0.000000      4.000000
  0.500000  0.055556  0.000000      2.000000
  0.000000  0.083333  0.000000      2.000000
  0.041667  0.083333  0.000000      4.000000
  0.083333  0.083333  0.000000      4.000000
  0.125000  0.083333  0.000000      4.000000
  0.166667  0.083333  0.000000      4.000000
  0.208333  0.083333  0.000000      4.000000
  0.250000  0.083333  0.000000      4.000000
  0.291667  0.083333  0.000000      4.000000
  0.333333  0.083333  0.000000      4.000000
  0.375000  0.083333  0.000000      4.000000
  0.416667  0.083333  0.000000      4.000000
  0.458333  0.083333  0.000000      4.000000
  0.500000  0.083333  0.000000      2.000000
  0.000000  0.111111  0.000000      2.000000
  0.041667  0.111111  0.000000      4.000000
  0.083333  0.111111  0.000000      4.000000
  0.125000  0.111111  0.000000      4.000000
  0.166667  0.111111  0.000000      4.000000
  0.208333  0.111111  0.000000      4.000000
  0.250000  0.111111  0.000000      4.000000
  0.291667  0.111111  0.000000      4.000000
[...]
  0.458333  0.472222  0.000000      4.000000
  0.500000  0.472222  0.000000      2.000000
  0.000000  0.500000  0.000000      1.000000
  0.041667  0.500000  0.000000      2.000000
  0.083333  0.500000  0.000000      2.000000
  0.125000  0.500000  0.000000      2.000000
  0.166667  0.500000  0.000000      2.000000
  0.208333  0.500000  0.000000      2.000000
  0.250000  0.500000  0.000000      2.000000
  0.291667  0.500000  0.000000      2.000000
  0.333333  0.500000  0.000000      2.000000
  0.375000  0.500000  0.000000      2.000000
  0.416667  0.500000  0.000000      2.000000
  0.458333  0.500000  0.000000      2.000000
  0.500000  0.500000  0.000000      1.000000

 Following cartesian coordinates:
            Coordinates               Weight
  0.000000  0.000000  0.000000      1.000000
  0.009776  0.000000  0.000000      2.000000
  0.019553  0.000000  0.000000      2.000000
  0.029329  0.000000  0.000000      2.000000
  0.039105  0.000000  0.000000      2.000000
  0.048881  0.000000  0.000000      2.000000
  0.058658  0.000000  0.000000      2.000000
  0.068434  0.000000  0.000000      2.000000
  0.078210  0.000000  0.000000      2.000000
  0.087987  0.000000  0.000000      2.000000
  0.097763  0.000000  0.000000      2.000000
  0.107539  0.000000  0.000000      2.000000
  0.117315  0.000000  0.000000      1.000000
  0.000000  0.011091  0.000000      2.000000
  0.009776  0.011091  0.000000      4.000000
  0.019553  0.011091  0.000000      4.000000
  0.029329  0.011091  0.000000      4.000000
  0.039105  0.011091  0.000000      4.000000
  0.048881  0.011091  0.000000      4.000000
  0.058658  0.011091  0.000000      4.000000
  0.068434  0.011091  0.000000      4.000000
  0.078210  0.011091  0.000000      4.000000
  0.087987  0.011091  0.000000      4.000000
  0.097763  0.011091  0.000000      4.000000
  0.107539  0.011091  0.000000      4.000000
  0.117315  0.011091  0.000000      2.000000
  0.000000  0.022183  0.000000      2.000000
  0.009776  0.022183  0.000000      4.000000
  0.019553  0.022183  0.000000      4.000000
  0.029329  0.022183  0.000000      4.000000
  0.039105  0.022183  0.000000      4.000000
  0.048881  0.022183  0.000000      4.000000
  0.058658  0.022183  0.000000      4.000000
  0.068434  0.022183  0.000000      4.000000
  0.078210  0.022183  0.000000      4.000000
  0.087987  0.022183  0.000000      4.000000
  0.097763  0.022183  0.000000      4.000000
  0.107539  0.022183  0.000000      4.000000
  0.117315  0.022183  0.000000      2.000000
  0.000000  0.033274  0.000000      2.000000
  0.009776  0.033274  0.000000      4.000000
  0.019553  0.033274  0.000000      4.000000
  0.029329  0.033274  0.000000      4.000000
  0.039105  0.033274  0.000000      4.000000
  0.048881  0.033274  0.000000      4.000000
  0.058658  0.033274  0.000000      4.000000
  0.068434  0.033274  0.000000      4.000000
  0.078210  0.033274  0.000000      4.000000
  0.087987  0.033274  0.000000      4.000000
  0.097763  0.033274  0.000000      4.000000
  0.107539  0.033274  0.000000      4.000000
  0.117315  0.033274  0.000000      2.000000
  0.000000  0.044366  0.000000      2.000000
  0.009776  0.044366  0.000000      4.000000
  0.019553  0.044366  0.000000      4.000000
  0.029329  0.044366  0.000000      4.000000
  0.039105  0.044366  0.000000      4.000000
  0.048881  0.044366  0.000000      4.000000
  0.058658  0.044366  0.000000      4.000000
  0.068434  0.044366  0.000000      4.000000
[...]
  0.107539  0.188554  0.000000      4.000000
  0.117315  0.188554  0.000000      2.000000
  0.000000  0.199646  0.000000      1.000000
  0.009776  0.199646  0.000000      2.000000
  0.019553  0.199646  0.000000      2.000000
  0.029329  0.199646  0.000000      2.000000
  0.039105  0.199646  0.000000      2.000000
  0.048881  0.199646  0.000000      2.000000
  0.058658  0.199646  0.000000      2.000000
  0.068434  0.199646  0.000000      2.000000
  0.078210  0.199646  0.000000      2.000000
  0.087987  0.199646  0.000000      2.000000
  0.097763  0.199646  0.000000      2.000000
  0.107539  0.199646  0.000000      2.000000
  0.117315  0.199646  0.000000      1.000000

 I would recommend the setting:
   dimension x,y,z NGX =    62 NGY =   37 NGZ =  288
[...]
 k-point ** :   0.0417 0.2778 0.0000  plane waves:   42886
 k-point ** :   0.0833 0.2778 0.0000  plane waves:   42905
 k-point ** :   0.1250 0.2778 0.0000  plane waves:   42886
 k-point ** :   0.1667 0.2778 0.0000  plane waves:   42867
 k-point ** :   0.2083 0.2778 0.0000  plane waves:   42850
 k-point ** :   0.2500 0.2778 0.0000  plane waves:   42846
 k-point ** :   0.2917 0.2778 0.0000  plane waves:   42811
 k-point ** :   0.3333 0.2778 0.0000  plane waves:   42790
 k-point ** :   0.3750 0.2778 0.0000  plane waves:   42770
 k-point ** :   0.4167 0.2778 0.0000  plane waves:   42777
 k-point ** :   0.4583 0.2778 0.0000  plane waves:   42758
 k-point ** :   0.5000 0.2778 0.0000  plane waves:   42734
 k-point ** :   0.0000 0.3056 0.0000  plane waves:   42892
 k-point ** :   0.0417 0.3056 0.0000  plane waves:   42895
 k-point ** :   0.0833 0.3056 0.0000  plane waves:   42909
 k-point ** :   0.1250 0.3056 0.0000  plane waves:   42893
 k-point ** :   0.1667 0.3056 0.0000  plane waves:   42873
 k-point ** :   0.2083 0.3056 0.0000  plane waves:   42849
 k-point ** :   0.2500 0.3056 0.0000  plane waves:   42834
 k-point ** :   0.2917 0.3056 0.0000  plane waves:   42819
 k-point ** :   0.3333 0.3056 0.0000  plane waves:   42780
 k-point ** :   0.3750 0.3056 0.0000  plane waves:   42782
 k-point ** :   0.4167 0.3056 0.0000  plane waves:   42779
 k-point ** :   0.4583 0.3056 0.0000  plane waves:   42756
 k-point ** :   0.5000 0.3056 0.0000  plane waves:   42746
 k-point ** :   0.0000 0.3333 0.0000  plane waves:   42900
 k-point ** :   0.0417 0.3333 0.0000  plane waves:   42885
 k-point ** :   0.0833 0.3333 0.0000  plane waves:   42899
[...]
 k-point ** :   0.4583 0.4722 0.0000  plane waves:   42835
 k-point ** :   0.5000 0.4722 0.0000  plane waves:   42814
 k-point ** :   0.0000 0.5000 0.0000  plane waves:   42854
 k-point ** :   0.0417 0.5000 0.0000  plane waves:   42838
 k-point ** :   0.0833 0.5000 0.0000  plane waves:   42872
 k-point ** :   0.1250 0.5000 0.0000  plane waves:   42874
 k-point ** :   0.1667 0.5000 0.0000  plane waves:   42908
 k-point ** :   0.2083 0.5000 0.0000  plane waves:   42880
 k-point ** :   0.2500 0.5000 0.0000  plane waves:   42884
 k-point ** :   0.2917 0.5000 0.0000  plane waves:   42888
 k-point ** :   0.3333 0.5000 0.0000  plane waves:   42904
 k-point ** :   0.3750 0.5000 0.0000  plane waves:   42874
 k-point ** :   0.4167 0.5000 0.0000  plane waves:   42856
 k-point ** :   0.4583 0.5000 0.0000  plane waves:   42880
 k-point ** :   0.5000 0.5000 0.0000  plane waves:   42784

 maximum and minimum number of plane-waves per node :     21496    21316

 maximum number of plane-waves:     42922
 maximum index in each direction:
   IXMAX=   15   IYMAX=    9   IZMAX=   72
   IXMIN=  -16   IYMIN=   -9   IZMIN=  -72

 NGX is ok and might be reduce to  64
 NGY is ok and might be reduce to  38
 WARNING: aliasing errors must be expected set NGZ to 290 to avoid them
 aliasing errors are usually negligible using standard VASP settings
 and one can safely disregard these warnings

 parallel 3D FFT for wavefunctions:
    minimum data exchange during FFTs selected (reduces bandwidth)
 parallel 3D FFT for charge:
    minimum data exchange during FFTs selected (reduces bandwidth)

 Broyden mixing: mesh for mixing (old mesh)
   NGX = 31   NGY = 19   NGZ =145
  (NGX  =128   NGY  = 80   NGZ  =576)
  gives a total of  85405 points

 initial charge density was supplied:
 charge density of overlapping atoms calculated
 number of electron      16.0000000 magnetization
 keeping initial charge density in first step

 Maximum index for augmentation-charges         5073 (set IRDMAX)

 First call to EWALD:  gamma=   0.298
 Maximum number of real-space cells 4x 6x 1
 Maximum number of reciprocal cells 2x 1x 8

 FEWALD executed in parallel

----------------------------------------- Iteration    1(   1)  ---------------------------------------

 eigenvalue-minimisations  :  5928
 total energy-change (2. order) : 0.1891228E+03  (-0.1060970E+04)
 number of electron      16.0000000 magnetization
 augmentation part       16.0000000 magnetization

 Free energy of the ion-electron system (eV)
  alpha Z        PSCENC =         6.18334092
  Ewald energy   TEWEN  =      2503.49313438
  -Hartree energ DENC   =     -2931.36880054
  -exchange      EXHF   =         0.00000000
  -V(xc)+E(xc)   XCENC  =        54.92844687
  PAW double counting   =       151.32577238     -155.92769107
  entropy T*S    EENTRO =        -0.00136409
  eigenvalues    EBANDS =       -28.13351850
  atomic energy  EATOM  =       588.62352690
  free energy    TOTEN  =       189.12284725 eV

  energy without entropy =      189.12421134  energy(sigma->0) =      189.12352930

[...]

 eigenvalue-minimisations  : 10328
 total energy-change (2. order) :-0.1981803E+03  (-0.1762376E+03)
 number of electron      16.0000000 magnetization
 augmentation part       16.0000000 magnetization

[...]

 Broyden mixing:
  rms(total) = 0.71881E+00    rms(broyden)= 0.71881E+00
  rms(prec ) = 0.78252E+00
  weight for this iteration     100.00

[...]

 eigenvalues of (default mixing * dielectric matrix)
  average eigenvalue GAMMA=   2.3194
  2.3194

[...]

 average (electrostatic) potential at core
  the test charge radii are     0.6991
  (the norm of the test charge is              1.0000)
       1 -58.2647       2 -58.2647       3 -58.2647       4 -58.2647

 E-fermi :  -2.7967     XC(G=0):  -2.1662     alpha+bet : -1.9046

 k-point     1 :       0.0000    0.0000    0.0000
  band No.  band energies     occupation
      1     -22.1497      2.00000
      2     -16.8290      2.00000
      3     -15.9062      2.00000
      4     -10.2787      2.00000
      5      -9.3560      2.00000
      6      -5.9169      2.00000
      7      -5.7544      2.00000
      8      -4.9858      2.00000
      9      -1.1126      0.00000
     10       0.5362      0.00000
     11       1.3349      0.00000
     12       1.7201      0.00000

[...]

 soft charge-density along one line, spin component           1
         0         1         2         3         4         5         6         7         8         9
 total charge-density along one line

------------------------ aborting loop because EDIFF is reached ----------------------------------------

  FORCE on cell =-STRESS in cart. coord.  units (eV):
  Direction    XX          YY          ZZ          XY          YZ          ZX
  Alpha Z     6.18334     6.18334     6.18334
  Ewald    3038.60527  3036.74408 -3571.85645     0.00000     0.00000     0.00000
  Hartree  2975.02011  2974.40326 -2951.77793    -0.00000    -0.00000    -0.00000
  E(xc)     -58.12773   -58.10951   -60.44701     0.00000     0.00000    -0.00000
  Local   -6186.40476 -6184.26875  6318.02378    -0.00000    -0.00000    -0.00000
  n-local   -13.87627   -13.37765   -12.59500     0.07601    -0.00000    -0.00000
  augment    -1.50495    -1.50290    -1.38866     0.00000     0.00000    -0.00000
  Kinetic   240.10492   236.63934   273.85656    -4.62735     0.00000     0.00000
  Fock        0.00000     0.00000     0.00000     0.00000     0.00000     0.00000
  Total      -0.00007    -3.28879    -0.00136     0.00000     0.00000     0.00000
  in kB      -0.00051   -24.99179    -0.01031     0.00000     0.00000     0.00000

 VOLUME and BASIS-vectors are now :
  energy-cutoff  :     2000.00
  volume of cell :      210.84
      direct lattice vectors                 reciprocal lattice vectors
     4.262016109  0.000000000  0.000000000     0.234630742  0.000000000  0.000000000
     0.000000000  2.504433975  0.000000000     0.000000000  0.399291820  0.000000000
     0.000000000  0.000000000 19.752588264     0.000000000  0.000000000  0.050626277

[...]

 FORCES acting on ions
    electron-ion (+dipol)            ewald-force                    non-local-force                 convergence-correction
   -.323E+01 -.213E-15 0.664E-09   0.323E+01 0.680E-14 0.149E-17   0.360E-03 0.694E-17 -.827E-24   0.113E-05 -.127E-16 -.817E-13
   0.323E+01 0.192E-12 -.327E-08   -.323E+01 -.184E-14 0.538E-34   -.360E-03 -.347E-17 0.103E-23   -.113E-05 -.158E-14 -.816E-13
   -.323E+01 -.150E-12 0.664E-09   0.323E+01 0.272E-14 -.149E-17   0.360E-03 -.694E-17 -.124E-23   0.113E-05 0.527E-15 -.818E-13
   0.323E+01 -.159E-15 -.324E-08   -.323E+01 -.592E-14 0.000E+00   -.360E-03 0.104E-16 0.103E-23   -.113E-05 -.212E-14 -.818E-13
   -.211E-06 0.424E-13 -.519E-08   0.266E-14 0.177E-14 0.000E+00   -.542E-19 0.694E-17 0.000E+00   0.486E-12 -.319E-14 -.327E-12

 POSITION                                       TOTAL-FORCE (eV/Angst)
      0.00168      0.00000      0.00000         0.000015     -0.000000      0.000000
      0.70866      1.25222      0.00000        -0.000015      0.000000     -0.000000
      2.13269      1.25222      0.00000         0.000015      0.000000      0.000000
      2.83967      0.00000      0.00000        -0.000015     -0.000000     -0.000000
    total drift:                               -0.000000      0.000000     -0.000000

  FREE ENERGIE OF THE ION-ELECTRON SYSTEM (eV)
  free  energy   TOTEN  =       -36.90080003 eV

  energy  without entropy=      -36.90079548  energy(sigma->0) =      -36.90079776

 Quasi-Newton relaxation of ions (Broydens 2nd method)
  g(Force)  = 0.411E-10   g(Stress)= 0.000E+00

 Reset! Starting new Quasi-Newton update for ions

[...]

 eigenvalue-minimisations  :  6588
 total energy-change (2. order) :-0.7162271E-11  ( 0.4895450E-10)
 number of electron      16.0000000 magnetization
 augmentation part        0.3762620 magnetization

[...]

WARNING in EDDRMM: call to ZHEGV failed, returncode =   6  3  1

[...]

 d Force =-0.6281381E-10[-0.167E-09, 0.411E-10]  d Energy = 0.3092282E-09-0.372E-09
 d Force = 0.9104941E-05[ 0.910E-05, 0.911E-05]  d Ewald  = 0.9104947E-05-0.591E-11

[...]

 retain information from N=  1 steps
 eigenvalues of (default step * inverse Hessian matrix)
  average eigenvalue of G=   0.1977
 eigenvalue spectrum of G is  0.1977

[...]

 eigenvalue-minimisations  :  6216
 total energy-change (2. order) : 0.4166623E-09  ( 0.2615451E-09)
 number of electron      16.0000000 magnetization
 augmentation part        0.3762621 magnetization

[...]

 eigenvalue-minimisations  :  2749
 total energy-change (2. order) :-0.1830358E-09  (-0.8264603E-12)
 number of electron      16.0000000 magnetization
 augmentation part        0.3762620 magnetization

[...]

 d Force = 0.6447812E-10[-0.479E-11, 0.134E-09]  d Energy =-0.8139978E-10 0.146E-09
 d Force =-0.7304770E-05[-0.730E-05,-0.730E-05]  d Ewald  =-0.7304769E-05 0.000E+00

[...]

 FEWALD executed in parallel

[...]

 eigenvalue-minimisations  :  1272
 total energy-change (2. order) : 0.2934257E-09  (-0.1516482E-13)
 number of electron      16.0000000 magnetization
 augmentation part        0.3762620 magnetization

[...]

 eigenvalue-minimisations  :   833
 total energy-change (2. order) :-0.1366516E-09  ( 0.7849688E-14)
 number of electron      16.0000000 magnetization
 augmentation part        0.3762620 magnetization

 Broyden mixing:
  rms(total) = 0.50625E-09    rms(broyden)= 0.50624E-09
  rms(prec ) = 0.55275E-09
  weight for this iteration     100.00

 eigenvalues of (default mixing * dielectric matrix)
  average eigenvalue GAMMA=   1.9404
  0.9200  2.6353  2.2658

[...]

----------------------------------------- Iteration    4(   5)  ---------------------------------------

 eigenvalue-minimisations  :  1010
 total energy-change (2. order) : 0.9299583E-10  ( 0.1957282E-14)
 number of electron      16.0000000 magnetization
 augmentation part        0.3762620 magnetization

 Free energy of the ion-electron system (eV)
  alpha Z        PSCENC =         6.18334092
  Ewald energy   TEWEN  =      2503.49313233
  -Hartree energ DENC   =     -2997.64544440
  -exchange      EXHF   =         0.00000000
  -V(xc)+E(xc)   XCENC  =        57.29288873
  PAW double counting   =       272.06443709     -277.19054034
  entropy T*S    EENTRO =        -0.00000455
  eigenvalues    EBANDS =      -189.72213671
  atomic energy  EATOM  =       588.62352690
  free energy    TOTEN  =       -36.90080003 eV

  energy without entropy =      -36.90079548  energy(sigma->0) =      -36.90079776

 average (electrostatic) potential at core
  the test charge radii are     0.6991
  (the norm of the test charge is              1.0000)
       1 -58.2647       2 -58.2647       3 -58.2647       4 -58.2647

 E-fermi :  -2.7967     XC(G=0):  -2.1631     alpha+bet : -1.9046

[...]

 k-point   247 :       0.5000    0.5000    0.0000
  band No.  band energies     occupation
      1     -17.0835      2.00000
      2     -17.0835      2.00000
      3     -15.8954      2.00000
      4     -15.8954      2.00000
      5      -9.0436      2.00000
      6      -9.0436      2.00000
      7      -5.1824      2.00000
      8      -5.1824      2.00000
      9      -1.1358      0.00000
     10      -1.1358      0.00000
     11       4.5994      0.00000
     12       4.5994      0.00000

 soft charge-density along one line, spin component           1
         0         1         2         3         4         5         6         7         8         9
 total charge-density along one line

------------------------ aborting loop because EDIFF is reached ----------------------------------------

  FORCE on cell =-STRESS in cart. coord.  units (eV):
  Direction    XX          YY          ZZ          XY          YZ          ZX
  Alpha Z     6.18334     6.18334     6.18334
  Ewald    3038.60513  3036.74422 -3571.85645    -0.00000     0.00000     0.00000
  Hartree  2975.02010  2974.40328 -2951.77793     0.00000    -0.00000    -0.00000
  E(xc)     -58.12773   -58.10951   -60.44701    -0.00000     0.00000    -0.00000
  Local   -6186.40463 -6184.26889  6318.02379     0.00000     0.00000    -0.00000
  n-local   -13.87627   -13.37765   -12.59500     0.07601    -0.00000    -0.00000
  augment    -1.50495    -1.50290    -1.38866     0.00000    -0.00000     0.00000
  Kinetic   240.10495   236.63932   273.85657    -4.62735     0.00000     0.00000
  Fock        0.00000     0.00000     0.00000     0.00000     0.00000     0.00000
  Total      -0.00007    -3.28878    -0.00135     0.00000     0.00000     0.00000
  in kB      -0.00052   -24.99176    -0.01026     0.00000     0.00000     0.00000

 VOLUME and BASIS-vectors are now :
  energy-cutoff  :     2000.00
  volume of cell :      210.84
      direct lattice vectors                 reciprocal lattice vectors
     4.262016109  0.000000000  0.000000000     0.234630742  0.000000000  0.000000000
     0.000000000  2.504433975  0.000000000     0.000000000  0.399291820  0.000000000
     0.000000000  0.000000000 19.752588264     0.000000000  0.000000000  0.050626277

  length of vectors
     4.262016109  2.504433975 19.752588264     0.234630742  0.399291820  0.050626277

 FORCES acting on ions
    electron-ion (+dipol)            ewald-force                    non-local-force                 convergence-correction
   -.323E+01 -.258E-15 0.664E-09   0.323E+01 -.276E-14 -.557E-18   0.354E-03 -.104E-16 -.129E-25   -.219E-08 -.186E-14 0.137E-12
   0.323E+01 0.151E-13 -.328E-08   -.323E+01 0.765E-14 -.187E-18   -.354E-03 -.694E-17 0.129E-25   0.219E-08 -.509E-15 0.135E-12
   -.323E+01 0.709E-12 0.666E-09   0.323E+01 -.676E-14 0.144E-19   0.354E-03 -.104E-16 -.517E-25   -.219E-08 -.119E-14 0.131E-12
   0.323E+01 -.433E-15 -.325E-08   -.323E+01 0.365E-14 0.730E-18   -.354E-03 -.694E-17 0.129E-25   0.219E-08 -.115E-14 0.135E-12
   -.211E-06 0.723E-12 -.520E-08   0.266E-14 0.177E-14 0.000E+00   0.000E+00 -.347E-16 -.388E-25   0.306E-14 -.470E-14 0.538E-12

 POSITION                                       TOTAL-FORCE (eV/Angst)
      0.00168      0.00000      0.00000         0.000001     -0.000000     -0.000000
      0.70866      1.25222     -0.00000        -0.000001     -0.000000      0.000000
      2.13269      1.25222      0.00000         0.000001      0.000000     -0.000000
      2.83967     -0.00000     -0.00000        -0.000001     -0.000000      0.000000
    total drift:                               -0.000000      0.000000     -0.000000

  FREE ENERGIE OF THE ION-ELECTRON SYSTEM (eV)
  free  energy   TOTEN  =       -36.90080003 eV

  energy  without entropy=      -36.90079548  energy(sigma->0) =      -36.90079776

 d Force = 0.1113732E-12[ 0.569E-13, 0.166E-12]  d Energy = 0.1022045E-09-0.102E-09
 d Force = 0.2527526E-06[ 0.253E-06, 0.253E-06]  d Ewald  = 0.2527527E-06 0.000E+00

 Quasi-Newton relaxation of ions (Broydens 2nd method)
  g(Force)  = 0.102E-12   g(Stress)= 0.000E+00

 retain information from N=  1 steps
 eigenvalues of (default step * inverse Hessian matrix)
  average eigenvalue of G=   0.2905
 eigenvalue spectrum of G is  0.2905

 reached required accuracy - stopping structural energy minimisation