 vasp.5.3.5 31Mar14 (build Mar 02 2015 18:14:16) complex

 executed on             LinuxIFC date 2018.08.09  20:46:28

 INCAR:
 POTCAR:   PAW_PBE C 08Apr2002
 POTCAR:   PAW_PBE C 08Apr2002
   VRHFIN =C: s2p2

   TITEL  = PAW_PBE C 08Apr2002
   POMASS =   12.011; ZVAL   =    4.000    mass and valenz
   ENMAX  =  400.000; ENMIN  =  300.000 eV
   QCUT   =   -5.516; QGAM   =   11.032    optimization parameters

   Description
     l     E      TYP  RCUT    TYP  RCUT
     0   .000     23  1.200
     0   .000     23  1.200
     1   .000     23  1.500
     1  2.500     23  1.500
     2   .000      7  1.500

 PAW_PBE C 08Apr2002                    :

 POSCAR: MD-kMC export data
  positions in direct lattice
  velocities in cartesian coordinates
 exchange correlation table for  LEXCH =        8
   RHO(1)=    0.500       N(1)  =     2000
   RHO(2)=  100.500       N(2)  =     4000

 ion  position               nearest neighbor table
   1  0.001  0.000  0.000-   4 1.42   2 1.44   2 1.44
   2  0.166  0.500  0.000-   3 1.42   1 1.44   1 1.44
   3  0.501  0.500  0.000-   2 1.42   4 1.44   4 1.44
   4  0.666  0.000  0.000-   1 1.42   3 1.44   3 1.44

  LATTYP: Found a simple orthorhombic cell.
 ALAT       =     2.5165243464
 B/A-ratio  =     1.6922617730
 C/A-ratio  =     7.8176771543

  Lattice vectors:

 A1 = (   0.0000000000,  -2.5165243464,   0.0000000000)
 A2 = (  -4.2586179523,   0.0000000000,   0.0000000000)
 A3 = (   0.0000000000,   0.0000000000, -19.6733748912)

Analysis of symmetry for initial positions (statically):
 Subroutine PRICEL returns following result:

  LATTYP: Found a base centered orthorhombic cell.
 ALAT       =     2.5165243464
 B/A-ratio  =     1.6922617730
 C/A-ratio  =     7.8176771543

[...]

   2 primitive cells build up your supercell.

 Routine SETGRP: Setting up the symmetry group for a
 simple orthorhombic supercell.

 Subroutine GETGRP returns: Found  8 space group operations
 (whereof  4 operations were pure point group operations)
 out of a pool of  8 trial point group operations.

The static configuration has the point symmetry C_2v.
 The point group associated with its full space group is D_2h.

Analysis of symmetry for dynamics (positions and initial velocities):
 Subroutine PRICEL returns following result:

  LATTYP: Found a base centered orthorhombic cell.
 ALAT       =     2.5165243464
 B/A-ratio  =     1.6922617730
 C/A-ratio  =     7.8176771543

  Lattice vectors:

 A1 = (   2.1293089762,  -1.2582621732,   0.0000000000)
 A2 = (  -2.1293089762,  -1.2582621732,   0.0000000000)
 A3 = (   0.0000000000,   0.0000000000, -19.6733748912)

   2 primitive cells build up your supercell.

 Routine SETGRP: Setting up the symmetry group for a
 simple orthorhombic supercell.

 Subroutine GETGRP returns: Found  8 space group operations
 (whereof  4 operations were pure point group operations)
 out of a pool of  8 trial point group operations.

The dynamic configuration has the point symmetry C_2v.
 The point group associated with its full space group is D_2h.

 KPOINTS: Automatic mesh

Automatic generation of k-mesh.
Space group operators:
 irot       det(A)        alpha          n_x          n_y          n_z        tau_x        tau_y        tau_z
    1     1.000000     0.000001     1.000000     0.000000     0.000000     0.000000     0.000000     0.000000
    2    -1.000000   180.000000     0.000000     0.000000     1.000000     0.000000     0.000000     0.000000
    3     1.000000   179.999999     1.000000     0.000000     0.000000     0.000000     0.000000     0.000000
    4    -1.000000   180.000000     0.000000     1.000000     0.000000     0.000000     0.000000     0.000000
    5    -1.000000     0.000001     1.000000     0.000000     0.000000     0.166667    -0.500000     0.000000
    6     1.000000   180.000000     0.000000     0.000000     1.000000     0.166667    -0.500000     0.000000
    7    -1.000000   179.999999     1.000000     0.000000     0.000000     0.166667    -0.500000     0.000000
    8     1.000000   180.000000     0.000000     1.000000     0.000000     0.166667    -0.500000     0.000000

 Subroutine IBZKPT returns following result:

 Found    247 irreducible k-points:

 Following reciprocal coordinates:
            Coordinates               Weight
  0.000000  0.000000  0.000000      1.000000
  0.041667  0.000000  0.000000      2.000000
  0.083333  0.000000  0.000000      2.000000
  0.125000  0.000000  0.000000      2.000000
  0.166667  0.000000  0.000000      2.000000
  0.208333  0.000000  0.000000      2.000000
  0.250000  0.000000  0.000000      2.000000
  0.291667  0.000000  0.000000      2.000000
  0.333333  0.000000  0.000000      2.000000
  0.375000  0.000000  0.000000      2.000000
  0.416667  0.000000  0.000000      2.000000
  0.458333  0.000000  0.000000      2.000000
  0.500000  0.000000  0.000000      1.000000
  0.000000  0.027778  0.000000      2.000000
  0.041667  0.027778  0.000000      4.000000
  0.083333  0.027778  0.000000      4.000000
  0.125000  0.027778  0.000000      4.000000
  0.166667  0.027778  0.000000      4.000000
  0.208333  0.027778  0.000000      4.000000
  0.250000  0.027778  0.000000      4.000000
  0.291667  0.027778  0.000000      4.000000
  0.333333  0.027778  0.000000      4.000000
  0.375000  0.027778  0.000000      4.000000
  0.416667  0.027778  0.000000      4.000000
  0.458333  0.027778  0.000000      4.000000
  0.500000  0.027778  0.000000      2.000000
  0.000000  0.055556  0.000000      2.000000
  0.041667  0.055556  0.000000      4.000000
  0.083333  0.055556  0.000000      4.000000
  0.125000  0.055556  0.000000      4.000000
  0.166667  0.055556  0.000000      4.000000
  0.208333  0.055556  0.000000      4.000000
  0.250000  0.055556  0.000000      4.000000
  0.291667  0.055556  0.000000      4.000000
  0.333333  0.055556  0.000000      4.000000
  0.375000  0.055556  0.000000      4.000000
  0.416667  0.055556  0.000000      4.000000
  0.458333  0.055556  0.000000      4.000000
  0.500000  0.055556  0.000000      2.000000
  0.000000  0.083333  0.000000      2.000000
  0.041667  0.083333  0.000000      4.000000
  0.083333  0.083333  0.000000      4.000000
  0.125000  0.083333  0.000000      4.000000
  0.166667  0.083333  0.000000      4.000000
  0.208333  0.083333  0.000000      4.000000
  0.250000  0.083333  0.000000      4.000000
  0.291667  0.083333  0.000000      4.000000
  0.333333  0.083333  0.000000      4.000000
  0.375000  0.083333  0.000000      4.000000
  0.416667  0.083333  0.000000      4.000000
  0.458333  0.083333  0.000000      4.000000
  0.500000  0.083333  0.000000      2.000000
  0.000000  0.111111  0.000000      2.000000
  0.041667  0.111111  0.000000      4.000000
  0.083333  0.111111  0.000000      4.000000
  0.125000  0.111111  0.000000      4.000000
  0.166667  0.111111  0.000000      4.000000
  0.208333  0.111111  0.000000      4.000000
  0.250000  0.111111  0.000000      4.000000
  0.291667  0.111111  0.000000      4.000000
[...]
  0.458333  0.472222  0.000000      4.000000
  0.500000  0.472222  0.000000      2.000000
  0.000000  0.500000  0.000000      1.000000
  0.041667  0.500000  0.000000      2.000000
  0.083333  0.500000  0.000000      2.000000
  0.125000  0.500000  0.000000      2.000000
  0.166667  0.500000  0.000000      2.000000
  0.208333  0.500000  0.000000      2.000000
  0.250000  0.500000  0.000000      2.000000
  0.291667  0.500000  0.000000      2.000000
  0.333333  0.500000  0.000000      2.000000
  0.375000  0.500000  0.000000      2.000000
  0.416667  0.500000  0.000000      2.000000
  0.458333  0.500000  0.000000      2.000000
  0.500000  0.500000  0.000000      1.000000

 Following cartesian coordinates:
            Coordinates               Weight
  0.000000  0.000000  0.000000      1.000000
  0.009784  0.000000  0.000000      2.000000
  0.019568  0.000000  0.000000      2.000000
  0.029352  0.000000  0.000000      2.000000
  0.039136  0.000000  0.000000      2.000000
  0.048920  0.000000  0.000000      2.000000
  0.058704  0.000000  0.000000      2.000000
  0.068489  0.000000  0.000000      2.000000
  0.078273  0.000000  0.000000      2.000000
  0.088057  0.000000  0.000000      2.000000
  0.097841  0.000000  0.000000      2.000000
  0.107625  0.000000  0.000000      2.000000
  0.117409  0.000000  0.000000      1.000000
  0.000000  0.011038  0.000000      2.000000
  0.009784  0.011038  0.000000      4.000000
  0.019568  0.011038  0.000000      4.000000
  0.029352  0.011038  0.000000      4.000000
  0.039136  0.011038  0.000000      4.000000
  0.048920  0.011038  0.000000      4.000000
  0.058704  0.011038  0.000000      4.000000
  0.068489  0.011038  0.000000      4.000000
  0.078273  0.011038  0.000000      4.000000
  0.088057  0.011038  0.000000      4.000000
  0.097841  0.011038  0.000000      4.000000
  0.107625  0.011038  0.000000      4.000000
  0.117409  0.011038  0.000000      2.000000
  0.000000  0.022076  0.000000      2.000000
  0.009784  0.022076  0.000000      4.000000
  0.019568  0.022076  0.000000      4.000000
  0.029352  0.022076  0.000000      4.000000
  0.039136  0.022076  0.000000      4.000000
  0.048920  0.022076  0.000000      4.000000
  0.058704  0.022076  0.000000      4.000000
  0.068489  0.022076  0.000000      4.000000
  0.078273  0.022076  0.000000      4.000000
  0.088057  0.022076  0.000000      4.000000
  0.097841  0.022076  0.000000      4.000000
  0.107625  0.022076  0.000000      4.000000
  0.117409  0.022076  0.000000      2.000000
  0.000000  0.033114  0.000000      2.000000
  0.009784  0.033114  0.000000      4.000000
  0.019568  0.033114  0.000000      4.000000
  0.029352  0.033114  0.000000      4.000000
  0.039136  0.033114  0.000000      4.000000
  0.048920  0.033114  0.000000      4.000000
  0.058704  0.033114  0.000000      4.000000
  0.068489  0.033114  0.000000      4.000000
  0.078273  0.033114  0.000000      4.000000
  0.088057  0.033114  0.000000      4.000000
  0.097841  0.033114  0.000000      4.000000
  0.107625  0.033114  0.000000      4.000000
  0.117409  0.033114  0.000000      2.000000
  0.000000  0.044153  0.000000      2.000000
  0.009784  0.044153  0.000000      4.000000
  0.019568  0.044153  0.000000      4.000000
  0.029352  0.044153  0.000000      4.000000
  0.039136  0.044153  0.000000      4.000000
  0.048920  0.044153  0.000000      4.000000
  0.058704  0.044153  0.000000      4.000000
  0.068489  0.044153  0.000000      4.000000
[...]
  0.107625  0.187649  0.000000      4.000000
  0.117409  0.187649  0.000000      2.000000
  0.000000  0.198687  0.000000      1.000000
  0.009784  0.198687  0.000000      2.000000
  0.019568  0.198687  0.000000      2.000000
  0.029352  0.198687  0.000000      2.000000
  0.039136  0.198687  0.000000      2.000000
  0.048920  0.198687  0.000000      2.000000
  0.058704  0.198687  0.000000      2.000000
  0.068489  0.198687  0.000000      2.000000
  0.078273  0.198687  0.000000      2.000000
  0.088057  0.198687  0.000000      2.000000
  0.097841  0.198687  0.000000      2.000000
  0.107625  0.198687  0.000000      2.000000
  0.117409  0.198687  0.000000      1.000000

 I would recommend the setting:
   dimension x,y,z NGX =    62 NGY =   37 NGZ =  287
[...]
 k-point ** :   0.4583 0.2778 0.0000  plane waves:   42782
 k-point ** :   0.5000 0.2778 0.0000  plane waves:   42782
 k-point ** :   0.0000 0.3056 0.0000  plane waves:   42880
 k-point ** :   0.0417 0.3056 0.0000  plane waves:   42896
 k-point ** :   0.0833 0.3056 0.0000  plane waves:   42884
 k-point ** :   0.1250 0.3056 0.0000  plane waves:   42876
 k-point ** :   0.1667 0.3056 0.0000  plane waves:   42865
 k-point ** :   0.2083 0.3056 0.0000  plane waves:   42860
 k-point ** :   0.2500 0.3056 0.0000  plane waves:   42825
 k-point ** :   0.2917 0.3056 0.0000  plane waves:   42808
 k-point ** :   0.3333 0.3056 0.0000  plane waves:   42825
 k-point ** :   0.3750 0.3056 0.0000  plane waves:   42793
 k-point ** :   0.4167 0.3056 0.0000  plane waves:   42776
 k-point ** :   0.4583 0.3056 0.0000  plane waves:   42770
 k-point ** :   0.5000 0.3056 0.0000  plane waves:   42760
 k-point ** :   0.0000 0.3333 0.0000  plane waves:   42908
 k-point ** :   0.0417 0.3333 0.0000  plane waves:   42909
 k-point ** :   0.0833 0.3333 0.0000  plane waves:   42907
[...]
 k-point ** :   0.4583 0.4722 0.0000  plane waves:   42814
 k-point ** :   0.5000 0.4722 0.0000  plane waves:   42788
 k-point ** :   0.0000 0.5000 0.0000  plane waves:   42846
 k-point ** :   0.0417 0.5000 0.0000  plane waves:   42860
 k-point ** :   0.0833 0.5000 0.0000  plane waves:   42884
 k-point ** :   0.1250 0.5000 0.0000  plane waves:   42872
 k-point ** :   0.1667 0.5000 0.0000  plane waves:   42858
 k-point ** :   0.2083 0.5000 0.0000  plane waves:   42870
 k-point ** :   0.2500 0.5000 0.0000  plane waves:   42902
 k-point ** :   0.2917 0.5000 0.0000  plane waves:   42902
 k-point ** :   0.3333 0.5000 0.0000  plane waves:   42872
 k-point ** :   0.3750 0.5000 0.0000  plane waves:   42866
 k-point ** :   0.4167 0.5000 0.0000  plane waves:   42810
 k-point ** :   0.4583 0.5000 0.0000  plane waves:   42796
 k-point ** :   0.5000 0.5000 0.0000  plane waves:   42776

 maximum and minimum number of plane-waves per node :     21473    21358

 maximum number of plane-waves:     42936
 maximum index in each direction:
   IXMAX=   15   IYMAX=    9   IZMAX=   71
   IXMIN=  -16   IYMIN=   -9   IZMIN=  -71

 NGX is ok and might be reduce to  64
 NGY is ok and might be reduce to  38
 NGZ is ok and might be reduce to 286

 parallel 3D FFT for wavefunctions:
    minimum data exchange during FFTs selected (reduces bandwidth)
 parallel 3D FFT for charge:
    minimum data exchange during FFTs selected (reduces bandwidth)

 Broyden mixing: mesh for mixing (old mesh)
   NGX = 31   NGY = 19   NGZ =143
  (NGX  =128   NGY  = 80   NGZ  =576)
  gives a total of  84227 points

 initial charge density was supplied:
 charge density of overlapping atoms calculated
 number of electron      16.0000000 magnetization
 keeping initial charge density in first step

 Maximum index for augmentation-charges         5073 (set IRDMAX)

 First call to EWALD:  gamma=   0.298
 Maximum number of real-space cells 4x 6x 1
 Maximum number of reciprocal cells 2x 1x 8

 FEWALD executed in parallel

----------------------------------------- Iteration    1(   1)  ---------------------------------------

 eigenvalue-minimisations  :  5928
 total energy-change (2. order) : 0.1882568E+03  (-0.1059960E+04)
 number of electron      16.0000000 magnetization
 augmentation part       16.0000000 magnetization

 Free energy of the ion-electron system (eV)
  alpha Z        PSCENC =         6.18334092
  Ewald energy   TEWEN  =      2477.04477527
  -Hartree energ DENC   =     -2905.71385413
  -exchange      EXHF   =         0.00000000
  -V(xc)+E(xc)   XCENC  =        54.87405693
  PAW double counting   =       151.32577238     -155.92769107
  entropy T*S    EENTRO =        -0.00153283
  eigenvalues    EBANDS =       -28.15155432
  atomic energy  EATOM  =       588.62352690
  free energy    TOTEN  =       188.25684006 eV

  energy without entropy =      188.25837289  energy(sigma->0) =      188.25760647

[...]

 eigenvalue-minimisations  : 10436
 total energy-change (2. order) :-0.1970944E+03  (-0.1757656E+03)
 number of electron      16.0000000 magnetization
 augmentation part       16.0000000 magnetization

[...]

 Broyden mixing:
  rms(total) = 0.71303E+00    rms(broyden)= 0.71303E+00
  rms(prec ) = 0.77646E+00
  weight for this iteration     100.00

[...]

 eigenvalues of (default mixing * dielectric matrix)
  average eigenvalue GAMMA=   2.3213
  2.3213

[...]

WARNING in EDDRMM: call to ZHEGV failed, returncode =   6  3  1

[...]

 average (electrostatic) potential at core
  the test charge radii are     0.6991
  (the norm of the test charge is              1.0000)
       1 -58.2891       2 -58.2891       3 -58.2891       4 -58.2891

 E-fermi :  -2.8102     XC(G=0):  -2.1704     alpha+bet : -1.9046

 k-point     1 :       0.0000    0.0000    0.0000
  band No.  band energies     occupation
      1     -22.1161      2.00000
      2     -16.7678      2.00000
      3     -15.8852      2.00000
      4     -10.2527      2.00000
      5      -9.4154      2.00000
      6      -5.9551      2.00000
      7      -5.7471      2.00000
      8      -4.9461      2.00000
      9      -1.1266      0.00000
     10       0.5404      0.00000
     11       1.3392      0.00000
     12       3.0548      0.00000

[...]

 soft charge-density along one line, spin component           1
         0         1         2         3         4         5         6         7         8         9
 total charge-density along one line

------------------------ aborting loop because EDIFF is reached ----------------------------------------

  FORCE on cell =-STRESS in cart. coord.  units (eV):
  Direction    XX          YY          ZZ          XY          YZ          ZX
  Alpha Z     6.18334     6.18334     6.18334
  Ewald    3011.39789  3008.91228 -3543.26563    -0.00000     0.00000    -0.00000
  Hartree  2948.64060  2947.83596 -2925.21408    -0.00000    -0.00000    -0.00000
  E(xc)     -58.05913   -58.03500   -60.37205     0.00000     0.00000    -0.00000
  Local   -6132.91363 -6130.08695  6263.04497     0.00000     0.00000    -0.00000
  n-local   -13.84924   -13.19653   -12.53898     0.08216     0.00000     0.00000
  augment    -1.49320    -1.49053    -1.38034     0.00000    -0.00000    -0.00000
  Kinetic   240.09230   235.54848   273.54141    -4.63438    -0.00000    -0.00000
  Fock        0.00000     0.00000     0.00000     0.00000     0.00000     0.00000
  Total      -0.00107    -4.32895    -0.00135     0.00000     0.00000     0.00000
  in kB      -0.00814   -32.89609    -0.01023     0.00000     0.00000     0.00000

 VOLUME and BASIS-vectors are now :
  energy-cutoff  :     2000.00
  volume of cell :      210.84
      direct lattice vectors                 reciprocal lattice vectors
     4.258617952  0.000000000  0.000000000     0.234817965  0.000000000  0.000000000
     0.000000000  2.516524346  0.000000000     0.000000000  0.397373465  0.000000000
     0.000000000  0.000000000 19.673374891     0.000000000  0.000000000  0.050830120

[...]

 FORCES acting on ions
    electron-ion (+dipol)            ewald-force                    non-local-force                 convergence-correction
   -.425E+01 -.715E-15 0.756E-09   0.425E+01 -.190E-14 -.694E-18   0.299E-02 0.694E-17 0.000E+00   0.115E-06 0.161E-14 -.806E-13
   0.425E+01 -.182E-12 -.272E-08   -.425E+01 0.256E-14 0.324E-18   -.299E-02 0.208E-16 0.000E+00   -.115E-06 -.238E-14 -.795E-13
   -.425E+01 0.591E-12 0.761E-09   0.425E+01 -.506E-14 0.680E-18   0.299E-02 0.694E-17 -.323E-25   0.115E-06 0.254E-14 -.804E-13
   0.425E+01 -.129E-15 -.269E-08   -.425E+01 -.600E-15 -.311E-18   -.299E-02 0.139E-16 0.000E+00   -.115E-06 -.335E-14 -.792E-13
   -.242E-06 0.408E-12 -.389E-08   0.444E-14 -.500E-14 -.963E-34   0.000E+00 0.486E-16 -.323E-25   -.297E-15 -.159E-14 -.320E-12

 POSITION                                       TOTAL-FORCE (eV/Angst)
      0.00221      0.00000      0.00000        -0.001099      0.000000     -0.000000
      0.70756      1.25826      0.00000         0.001099      0.000000      0.000000
      2.13152      1.25826      0.00000        -0.001099      0.000000     -0.000000
      2.83687      0.00000      0.00000         0.001099     -0.000000      0.000000
    total drift:                               -0.000000      0.000000     -0.000000

  FREE ENERGIE OF THE ION-ELECTRON SYSTEM (eV)
  free  energy   TOTEN  =       -36.88245100 eV

  energy  without entropy=      -36.88245061  energy(sigma->0) =      -36.88245081

 Quasi-Newton relaxation of ions (Broydens 2nd method)
  g(Force)  = 0.233E-06   g(Stress)= 0.000E+00

 Reset! Starting new Quasi-Newton update for ions

[...]

 d Force =-0.3542083E-06[-0.942E-06, 0.233E-06]  d Energy =-0.3448295E-06-0.938E-08
 d Force =-0.9035315E-03[-0.905E-03,-0.902E-03]  d Ewald  =-0.9035313E-03-0.122E-09

[...]

 retain information from N=  1 steps
 eigenvalues of (default step * inverse Hessian matrix)
  average eigenvalue of G=   0.1985
 eigenvalue spectrum of G is  0.1985

[...]

 d Force = 0.3780107E-06[ 0.131E-08, 0.755E-06]  d Energy = 0.3698334E-06 0.818E-08
 d Force = 0.7244891E-03[ 0.723E-03, 0.726E-03]  d Ewald  = 0.7244890E-03 0.591E-10

[...]

 eigenvalue-minimisations  :  4828
 total energy-change (2. order) : 0.6225491E-09  ( 0.6002658E-09)
 number of electron      16.0000000 magnetization
 augmentation part        0.3744576 magnetization

[...]

 eigenvalue-minimisations  :  2740
 total energy-change (2. order) :-0.2870593E-09  ( 0.8946648E-14)
 number of electron      16.0000000 magnetization
 augmentation part        0.3744576 magnetization

[...]

 d Force =-0.5153207E-12[-0.332E-11, 0.229E-11]  d Energy =-0.1290346E-09 0.129E-09
 d Force = 0.1259852E-05[ 0.126E-05, 0.126E-05]  d Ewald  = 0.1259852E-05 0.455E-12

[...]

 d Force = 0.1092487E-11[ 0.222E-12, 0.196E-11]  d Energy = 0.2955858E-10-0.285E-10
 d Force =-0.7457968E-06[-0.746E-06,-0.746E-06]  d Ewald  =-0.7457975E-06 0.455E-12

[...]

 d Force = 0.3005621E-13[ 0.319E-13, 0.282E-13]  d Energy = 0.2069100E-09-0.207E-09
 d Force =-0.9483570E-07[-0.948E-07,-0.948E-07]  d Ewald  =-0.9483574E-07 0.000E+00

[...]

 d Force =-0.8351448E-12[-0.140E-11,-0.270E-12]  d Energy = 0.4422418E-10-0.451E-10
 d Force = 0.8017669E-06[ 0.802E-06, 0.802E-06]  d Ewald  = 0.8017678E-06-0.909E-12

[...]

 FEWALD executed in parallel

[...]

 eigenvalue-minimisations  :   464
 total energy-change (2. order) : 0.1424496E-09  (-0.3626729E-14)
 number of electron      16.0000000 magnetization
 augmentation part        0.3744576 magnetization

[...]

 eigenvalue-minimisations  :   287
 total energy-change (2. order) :-0.8412826E-11  (-0.1981954E-14)
 number of electron      16.0000000 magnetization
 augmentation part        0.3744576 magnetization

[...]

 eigenvalue-minimisations  :   280
 total energy-change (2. order) : 0.1177796E-09  ( 0.4899373E-14)
 number of electron      16.0000000 magnetization
 augmentation part        0.3744576 magnetization

 Broyden mixing:
  rms(total) = 0.78524E-10    rms(broyden)= 0.78460E-10
  rms(prec ) = 0.14398E-09
  weight for this iteration     100.00

 eigenvalues of (default mixing * dielectric matrix)
  average eigenvalue GAMMA=   1.9920
  2.7279  2.4993  0.9522  1.7886

[...]

----------------------------------------- Iteration    8(   6)  ---------------------------------------

 eigenvalue-minimisations  :   183
 total energy-change (2. order) :-0.9777068E-11  ( 0.5345518E-15)
 number of electron      16.0000000 magnetization
 augmentation part        0.3744576 magnetization

 Free energy of the ion-electron system (eV)
  alpha Z        PSCENC =         6.18334092
  Ewald energy   TEWEN  =      2477.04495409
  -Hartree energ DENC   =     -2971.26263431
  -exchange      EXHF   =         0.00000000
  -V(xc)+E(xc)   XCENC  =        57.21900763
  PAW double counting   =       270.47334321     -275.59227129
  entropy T*S    EENTRO =        -0.00000038
  eigenvalues    EBANDS =      -189.57171781
  atomic energy  EATOM  =       588.62352690
  free energy    TOTEN  =       -36.88245102 eV

  energy without entropy =      -36.88245064  energy(sigma->0) =      -36.88245083

 average (electrostatic) potential at core
  the test charge radii are     0.6991
  (the norm of the test charge is              1.0000)
       1 -58.2891       2 -58.2891       3 -58.2891       4 -58.2891

 E-fermi :  -2.8102     XC(G=0):  -2.1700     alpha+bet : -1.9046

[...]

 k-point   247 :       0.5000    0.5000    0.0000
  band No.  band energies     occupation
      1     -17.1025      2.00000
      2     -17.1025      2.00000
      3     -15.8695      2.00000
      4     -15.8695      2.00000
      5      -9.0065      2.00000
      6      -9.0065      2.00000
      7      -5.2045      2.00000
      8      -5.2045      2.00000
      9      -1.1545      0.00000
     10      -1.1545      0.00000
     11       4.5954      0.00000
     12       4.5954      0.00000

 soft charge-density along one line, spin component           1
         0         1         2         3         4         5         6         7         8         9
 total charge-density along one line

------------------------ aborting loop because EDIFF is reached ----------------------------------------

  FORCE on cell =-STRESS in cart. coord.  units (eV):
  Direction    XX          YY          ZZ          XY          YZ          ZX
  Alpha Z     6.18334     6.18334     6.18334
  Ewald    3011.40700  3008.90335 -3543.26563    -0.00000     0.00000     0.00000
  Hartree  2948.64189  2947.83481 -2925.21407    -0.00000    -0.00000    -0.00000
  E(xc)     -58.05911   -58.03505   -60.37206    -0.00000    -0.00000    -0.00000
  Local   -6132.92224 -6130.07855  6263.04491     0.00000    -0.00000    -0.00000
  n-local   -13.84917   -13.19660   -12.53898     0.08214    -0.00000    -0.00000
  augment    -1.49321    -1.49052    -1.38034     0.00000    -0.00000    -0.00000
  Kinetic   240.09099   235.54990   273.54147    -4.63433     0.00000     0.00000
  Fock        0.00000     0.00000     0.00000     0.00000     0.00000     0.00000
  Total      -0.00051    -4.32932    -0.00135     0.00000     0.00000     0.00000
  in kB      -0.00388   -32.89892    -0.01023     0.00000     0.00000     0.00000

 VOLUME and BASIS-vectors are now :
  energy-cutoff  :     2000.00
  volume of cell :      210.84
      direct lattice vectors                 reciprocal lattice vectors
     4.258617952  0.000000000  0.000000000     0.234817965  0.000000000  0.000000000
     0.000000000  2.516524346  0.000000000     0.000000000  0.397373465  0.000000000
     0.000000000  0.000000000 19.673374891     0.000000000  0.000000000  0.050830120

  length of vectors
     4.258617952  2.516524346 19.673374891     0.234817965  0.397373465  0.050830120

 FORCES acting on ions
    electron-ion (+dipol)            ewald-force                    non-local-force                 convergence-correction
   -.426E+01 -.515E-15 0.755E-09   0.425E+01 -.179E-14 0.174E-18   0.338E-02 0.694E-17 0.000E+00   -.497E-09 -.327E-14 -.544E-12
   0.426E+01 0.161E-13 -.273E-08   -.425E+01 0.143E-14 -.296E-18   -.338E-02 0.173E-16 0.000E+00   0.497E-09 0.600E-15 -.542E-12
   -.426E+01 0.595E-12 0.755E-09   0.425E+01 -.393E-14 0.246E-18   0.338E-02 0.694E-17 0.000E+00   -.497E-09 -.236E-14 -.544E-12
   0.426E+01 -.359E-15 -.270E-08   -.425E+01 -.712E-15 -.124E-18   -.338E-02 0.243E-16 0.000E+00   0.497E-09 -.328E-15 -.546E-12
   -.242E-06 0.610E-12 -.392E-08   0.444E-14 -.500E-14 -.241E-34   -.173E-17 0.555E-16 0.000E+00   0.321E-14 -.536E-14 -.218E-11

 POSITION                                       TOTAL-FORCE (eV/Angst)
      0.00220      0.00000      0.00000         0.000000     -0.000000     -0.000000
      0.70757      1.25826     -0.00000        -0.000000      0.000000      0.000000
      2.13151      1.25826      0.00000         0.000000     -0.000000     -0.000000
      2.83688      0.00000     -0.00000        -0.000000      0.000000      0.000000
    total drift:                               -0.000000      0.000000     -0.000000

  FREE ENERGIE OF THE ION-ELECTRON SYSTEM (eV)
  free  energy   TOTEN  =       -36.88245102 eV

  energy  without entropy=      -36.88245064  energy(sigma->0) =      -36.88245083

 d Force = 0.8281557E-12[-0.785E-13, 0.173E-11]  d Energy =-0.2561364E-09 0.257E-09
 d Force =-0.9933712E-06[-0.993E-06,-0.993E-06]  d Ewald  =-0.9933719E-06 0.909E-12

 Quasi-Newton relaxation of ions (Broydens 2nd method)
  g(Force)  = 0.218E-13   g(Stress)= 0.000E+00

 retain information from N=  1 steps
 eigenvalues of (default step * inverse Hessian matrix)
  average eigenvalue of G=   0.1559
 eigenvalue spectrum of G is  0.1559

 reached required accuracy - stopping structural energy minimisation