 vasp.5.3.5 31Mar14 (build Mar 02 2015 18:14:16) complex

 executed on             LinuxIFC date 2018.08.09  19:18:02

 INCAR:
 POTCAR:   PAW_PBE C 08Apr2002
 POTCAR:   PAW_PBE C 08Apr2002
   VRHFIN =C: s2p2

   TITEL  = PAW_PBE C 08Apr2002
   POMASS =   12.011; ZVAL   =    4.000    mass and valenz
   ENMAX  =  400.000; ENMIN  =  300.000 eV
   QCUT   =   -5.516; QGAM   =   11.032    optimization parameters

   Description
     l     E      TYP  RCUT    TYP  RCUT
     0   .000     23  1.200
     0   .000     23  1.200
     1   .000     23  1.500
     1  2.500     23  1.500
     2   .000      7  1.500

 PAW_PBE C 08Apr2002                    :

 POSCAR: MD-kMC export data
  positions in direct lattice
  velocities in cartesian coordinates
 exchange correlation table for  LEXCH =        8
   RHO(1)=    0.500       N(1)  =     2000
   RHO(2)=  100.500       N(2)  =     4000

 ion  position               nearest neighbor table
   1  0.000  0.000  0.000-   4 1.42   2 1.43   2 1.43
   2  0.166  0.500  0.000-   3 1.42   1 1.43   1 1.43
   3  0.500  0.500  0.000-   2 1.42   4 1.43   4 1.43
   4  0.666  0.000  0.000-   1 1.42   3 1.43   3 1.43

  LATTYP: Found a simple orthorhombic cell.
 ALAT       =     2.4917267489
 B/A-ratio  =     1.7119511173
 C/A-ratio  =     7.9607884250

  Lattice vectors:

 A1 = (   0.0000000000,  -2.4917267489,   0.0000000000)
 A2 = (  -4.2657143919,   0.0000000000,   0.0000000000)
 A3 = (   0.0000000000,   0.0000000000, -19.8361094610)

Analysis of symmetry for initial positions (statically):
 Subroutine PRICEL returns following result:

  LATTYP: Found a base centered orthorhombic cell.
 ALAT       =     2.4917267489
 B/A-ratio  =     1.7119511173
 C/A-ratio  =     7.9607884250

[...]

   2 primitive cells build up your supercell.

 Routine SETGRP: Setting up the symmetry group for a
 simple orthorhombic supercell.

 Subroutine GETGRP returns: Found  8 space group operations
 (whereof  4 operations were pure point group operations)
 out of a pool of  8 trial point group operations.

The static configuration has the point symmetry C_2v.
 The point group associated with its full space group is D_2h.

Analysis of symmetry for dynamics (positions and initial velocities):
 Subroutine PRICEL returns following result:

  LATTYP: Found a base centered orthorhombic cell.
 ALAT       =     2.4917267489
 B/A-ratio  =     1.7119511173
 C/A-ratio  =     7.9607884250

  Lattice vectors:

 A1 = (   2.1328571959,  -1.2458633745,   0.0000000000)
 A2 = (  -2.1328571959,  -1.2458633745,   0.0000000000)
 A3 = (   0.0000000000,   0.0000000000, -19.8361094610)

   2 primitive cells build up your supercell.

 Routine SETGRP: Setting up the symmetry group for a
 simple orthorhombic supercell.

 Subroutine GETGRP returns: Found  8 space group operations
 (whereof  4 operations were pure point group operations)
 out of a pool of  8 trial point group operations.

The dynamic configuration has the point symmetry C_2v.
 The point group associated with its full space group is D_2h.

 KPOINTS: Automatic mesh

Automatic generation of k-mesh.
Space group operators:
 irot       det(A)        alpha          n_x          n_y          n_z        tau_x        tau_y        tau_z
    1     1.000000     0.000000     1.000000     0.000000     0.000000     0.000000     0.000000     0.000000
    2    -1.000000   179.999999     0.000000     0.000000     1.000000     0.000000     0.000000     0.000000
    3     1.000000   180.000000     1.000000     0.000000     0.000000     0.000000     0.000000     0.000000
    4    -1.000000   180.000000     0.000000     1.000000     0.000000     0.000000     0.000000     0.000000
    5    -1.000000     0.000000     1.000000     0.000000     0.000000     0.166667    -0.500000     0.000000
    6     1.000000   179.999999     0.000000     0.000000     1.000000     0.166667    -0.500000     0.000000
    7    -1.000000   180.000000     1.000000     0.000000     0.000000     0.166667    -0.500000     0.000000
    8     1.000000   180.000000     0.000000     1.000000     0.000000     0.166667    -0.500000     0.000000

 Subroutine IBZKPT returns following result:

 Found    247 irreducible k-points:

 Following reciprocal coordinates:
            Coordinates               Weight
  0.000000  0.000000  0.000000      1.000000
  0.041667  0.000000  0.000000      2.000000
  0.083333  0.000000  0.000000      2.000000
  0.125000  0.000000  0.000000      2.000000
  0.166667  0.000000  0.000000      2.000000
  0.208333  0.000000  0.000000      2.000000
  0.250000  0.000000  0.000000      2.000000
  0.291667  0.000000  0.000000      2.000000
  0.333333  0.000000  0.000000      2.000000
  0.375000  0.000000  0.000000      2.000000
  0.416667  0.000000  0.000000      2.000000
  0.458333  0.000000  0.000000      2.000000
  0.500000  0.000000  0.000000      1.000000
  0.000000  0.027778  0.000000      2.000000
  0.041667  0.027778  0.000000      4.000000
  0.083333  0.027778  0.000000      4.000000
  0.125000  0.027778  0.000000      4.000000
  0.166667  0.027778  0.000000      4.000000
  0.208333  0.027778  0.000000      4.000000
  0.250000  0.027778  0.000000      4.000000
  0.291667  0.027778  0.000000      4.000000
  0.333333  0.027778  0.000000      4.000000
  0.375000  0.027778  0.000000      4.000000
  0.416667  0.027778  0.000000      4.000000
  0.458333  0.027778  0.000000      4.000000
  0.500000  0.027778  0.000000      2.000000
  0.000000  0.055556  0.000000      2.000000
  0.041667  0.055556  0.000000      4.000000
  0.083333  0.055556  0.000000      4.000000
  0.125000  0.055556  0.000000      4.000000
  0.166667  0.055556  0.000000      4.000000
  0.208333  0.055556  0.000000      4.000000
  0.250000  0.055556  0.000000      4.000000
  0.291667  0.055556  0.000000      4.000000
  0.333333  0.055556  0.000000      4.000000
  0.375000  0.055556  0.000000      4.000000
  0.416667  0.055556  0.000000      4.000000
  0.458333  0.055556  0.000000      4.000000
  0.500000  0.055556  0.000000      2.000000
  0.000000  0.083333  0.000000      2.000000
  0.041667  0.083333  0.000000      4.000000
  0.083333  0.083333  0.000000      4.000000
  0.125000  0.083333  0.000000      4.000000
  0.166667  0.083333  0.000000      4.000000
  0.208333  0.083333  0.000000      4.000000
  0.250000  0.083333  0.000000      4.000000
  0.291667  0.083333  0.000000      4.000000
  0.333333  0.083333  0.000000      4.000000
  0.375000  0.083333  0.000000      4.000000
  0.416667  0.083333  0.000000      4.000000
  0.458333  0.083333  0.000000      4.000000
  0.500000  0.083333  0.000000      2.000000
  0.000000  0.111111  0.000000      2.000000
  0.041667  0.111111  0.000000      4.000000
  0.083333  0.111111  0.000000      4.000000
  0.125000  0.111111  0.000000      4.000000
  0.166667  0.111111  0.000000      4.000000
  0.208333  0.111111  0.000000      4.000000
  0.250000  0.111111  0.000000      4.000000
  0.291667  0.111111  0.000000      4.000000
[...]
  0.458333  0.472222  0.000000      4.000000
  0.500000  0.472222  0.000000      2.000000
  0.000000  0.500000  0.000000      1.000000
  0.041667  0.500000  0.000000      2.000000
  0.083333  0.500000  0.000000      2.000000
  0.125000  0.500000  0.000000      2.000000
  0.166667  0.500000  0.000000      2.000000
  0.208333  0.500000  0.000000      2.000000
  0.250000  0.500000  0.000000      2.000000
  0.291667  0.500000  0.000000      2.000000
  0.333333  0.500000  0.000000      2.000000
  0.375000  0.500000  0.000000      2.000000
  0.416667  0.500000  0.000000      2.000000
  0.458333  0.500000  0.000000      2.000000
  0.500000  0.500000  0.000000      1.000000

 Following cartesian coordinates:
            Coordinates               Weight
  0.000000  0.000000  0.000000      1.000000
  0.009768  0.000000  0.000000      2.000000
  0.019536  0.000000  0.000000      2.000000
  0.029303  0.000000  0.000000      2.000000
  0.039071  0.000000  0.000000      2.000000
  0.048839  0.000000  0.000000      2.000000
  0.058607  0.000000  0.000000      2.000000
  0.068375  0.000000  0.000000      2.000000
  0.078142  0.000000  0.000000      2.000000
  0.087910  0.000000  0.000000      2.000000
  0.097678  0.000000  0.000000      2.000000
  0.107446  0.000000  0.000000      2.000000
  0.117214  0.000000  0.000000      1.000000
  0.000000  0.011148  0.000000      2.000000
  0.009768  0.011148  0.000000      4.000000
  0.019536  0.011148  0.000000      4.000000
  0.029303  0.011148  0.000000      4.000000
  0.039071  0.011148  0.000000      4.000000
  0.048839  0.011148  0.000000      4.000000
  0.058607  0.011148  0.000000      4.000000
  0.068375  0.011148  0.000000      4.000000
  0.078142  0.011148  0.000000      4.000000
  0.087910  0.011148  0.000000      4.000000
  0.097678  0.011148  0.000000      4.000000
  0.107446  0.011148  0.000000      4.000000
  0.117214  0.011148  0.000000      2.000000
  0.000000  0.022296  0.000000      2.000000
  0.009768  0.022296  0.000000      4.000000
  0.019536  0.022296  0.000000      4.000000
  0.029303  0.022296  0.000000      4.000000
  0.039071  0.022296  0.000000      4.000000
  0.048839  0.022296  0.000000      4.000000
  0.058607  0.022296  0.000000      4.000000
  0.068375  0.022296  0.000000      4.000000
  0.078142  0.022296  0.000000      4.000000
  0.087910  0.022296  0.000000      4.000000
  0.097678  0.022296  0.000000      4.000000
  0.107446  0.022296  0.000000      4.000000
  0.117214  0.022296  0.000000      2.000000
  0.000000  0.033444  0.000000      2.000000
  0.009768  0.033444  0.000000      4.000000
  0.019536  0.033444  0.000000      4.000000
  0.029303  0.033444  0.000000      4.000000
  0.039071  0.033444  0.000000      4.000000
  0.048839  0.033444  0.000000      4.000000
  0.058607  0.033444  0.000000      4.000000
  0.068375  0.033444  0.000000      4.000000
  0.078142  0.033444  0.000000      4.000000
  0.087910  0.033444  0.000000      4.000000
  0.097678  0.033444  0.000000      4.000000
  0.107446  0.033444  0.000000      4.000000
  0.117214  0.033444  0.000000      2.000000
  0.000000  0.044592  0.000000      2.000000
  0.009768  0.044592  0.000000      4.000000
  0.019536  0.044592  0.000000      4.000000
  0.029303  0.044592  0.000000      4.000000
  0.039071  0.044592  0.000000      4.000000
  0.048839  0.044592  0.000000      4.000000
  0.058607  0.044592  0.000000      4.000000
  0.068375  0.044592  0.000000      4.000000
[...]
  0.107446  0.189516  0.000000      4.000000
  0.117214  0.189516  0.000000      2.000000
  0.000000  0.200664  0.000000      1.000000
  0.009768  0.200664  0.000000      2.000000
  0.019536  0.200664  0.000000      2.000000
  0.029303  0.200664  0.000000      2.000000
  0.039071  0.200664  0.000000      2.000000
  0.048839  0.200664  0.000000      2.000000
  0.058607  0.200664  0.000000      2.000000
  0.068375  0.200664  0.000000      2.000000
  0.078142  0.200664  0.000000      2.000000
  0.087910  0.200664  0.000000      2.000000
  0.097678  0.200664  0.000000      2.000000
  0.107446  0.200664  0.000000      2.000000
  0.117214  0.200664  0.000000      1.000000

 I would recommend the setting:
   dimension x,y,z NGX =    62 NGY =   36 NGZ =  289
[...]
 k-point ** :   0.4583 0.2500 0.0000  plane waves:   42767
 k-point ** :   0.5000 0.2500 0.0000  plane waves:   42780
 k-point ** :   0.0000 0.2778 0.0000  plane waves:   42914
 k-point ** :   0.0417 0.2778 0.0000  plane waves:   42916
 k-point ** :   0.0833 0.2778 0.0000  plane waves:   42900
 k-point ** :   0.1250 0.2778 0.0000  plane waves:   42898
 k-point ** :   0.1667 0.2778 0.0000  plane waves:   42873
 k-point ** :   0.2083 0.2778 0.0000  plane waves:   42843
 k-point ** :   0.2500 0.2778 0.0000  plane waves:   42822
 k-point ** :   0.2917 0.2778 0.0000  plane waves:   42805
 k-point ** :   0.3333 0.2778 0.0000  plane waves:   42794
 k-point ** :   0.3750 0.2778 0.0000  plane waves:   42796
 k-point ** :   0.4167 0.2778 0.0000  plane waves:   42780
 k-point ** :   0.4583 0.2778 0.0000  plane waves:   42771
 k-point ** :   0.5000 0.2778 0.0000  plane waves:   42770
 k-point ** :   0.0000 0.3056 0.0000  plane waves:   42896
 k-point ** :   0.0417 0.3056 0.0000  plane waves:   42918
 k-point ** :   0.0833 0.3056 0.0000  plane waves:   42913
 k-point ** :   0.1250 0.3056 0.0000  plane waves:   42908
 k-point ** :   0.1667 0.3056 0.0000  plane waves:   42887
 k-point ** :   0.2083 0.3056 0.0000  plane waves:   42854
 k-point ** :   0.2500 0.3056 0.0000  plane waves:   42860
 k-point ** :   0.2917 0.3056 0.0000  plane waves:   42816
 k-point ** :   0.3333 0.3056 0.0000  plane waves:   42787
 k-point ** :   0.3750 0.3056 0.0000  plane waves:   42802
 k-point ** :   0.4167 0.3056 0.0000  plane waves:   42809
 k-point ** :   0.4583 0.3056 0.0000  plane waves:   42798
 k-point ** :   0.5000 0.3056 0.0000  plane waves:   42796
 k-point ** :   0.0000 0.3333 0.0000  plane waves:   42934
 k-point ** :   0.0417 0.3333 0.0000  plane waves:   42905
 k-point ** :   0.0833 0.3333 0.0000  plane waves:   42907
[...]
 k-point ** :   0.4583 0.4722 0.0000  plane waves:   42824
 k-point ** :   0.5000 0.4722 0.0000  plane waves:   42824
 k-point ** :   0.0000 0.5000 0.0000  plane waves:   42858
 k-point ** :   0.0417 0.5000 0.0000  plane waves:   42874
 k-point ** :   0.0833 0.5000 0.0000  plane waves:   42912
 k-point ** :   0.1250 0.5000 0.0000  plane waves:   42932
 k-point ** :   0.1667 0.5000 0.0000  plane waves:   42906
 k-point ** :   0.2083 0.5000 0.0000  plane waves:   42922
 k-point ** :   0.2500 0.5000 0.0000  plane waves:   42912
 k-point ** :   0.2917 0.5000 0.0000  plane waves:   42920
 k-point ** :   0.3333 0.5000 0.0000  plane waves:   42856
 k-point ** :   0.3750 0.5000 0.0000  plane waves:   42848
 k-point ** :   0.4167 0.5000 0.0000  plane waves:   42842
 k-point ** :   0.4583 0.5000 0.0000  plane waves:   42810
 k-point ** :   0.5000 0.5000 0.0000  plane waves:   42812

 maximum and minimum number of plane-waves per node :     21495    21313

 maximum number of plane-waves:     42936
 maximum index in each direction:
   IXMAX=   15   IYMAX=    9   IZMAX=   72
   IXMIN=  -16   IYMIN=   -9   IZMIN=  -72

 NGX is ok and might be reduce to  64
 WARNING: aliasing errors must be expected set NGY to  38 to avoid them
 NGZ is ok and might be reduce to 290
 aliasing errors are usually negligible using standard VASP settings
 and one can safely disregard these warnings

 parallel 3D FFT for wavefunctions:
    minimum data exchange during FFTs selected (reduces bandwidth)
 parallel 3D FFT for charge:
    minimum data exchange during FFTs selected (reduces bandwidth)

 Broyden mixing: mesh for mixing (old mesh)
   NGX = 31   NGY = 19   NGZ =145
  (NGX  =128   NGY  = 72   NGZ  =588)
  gives a total of  85405 points

 initial charge density was supplied:
 charge density of overlapping atoms calculated
 number of electron      16.0000000 magnetization
 keeping initial charge density in first step

 Maximum index for augmentation-charges         4665 (set IRDMAX)

 First call to EWALD:  gamma=   0.298
 Maximum number of real-space cells 4x 6x 1
 Maximum number of reciprocal cells 2x 1x 8

 FEWALD executed in parallel

----------------------------------------- Iteration    1(   1)  ---------------------------------------

 eigenvalue-minimisations  :  5928
 total energy-change (2. order) : 0.1886629E+03  (-0.1057884E+04)
 number of electron      16.0000000 magnetization
 augmentation part       16.0000000 magnetization

 Free energy of the ion-electron system (eV)
  alpha Z        PSCENC =         6.18334092
  Ewald energy   TEWEN  =      2531.50835708
  -Hartree energ DENC   =     -2958.54460175
  -exchange      EXHF   =         0.00000000
  -V(xc)+E(xc)   XCENC  =        54.98568044
  PAW double counting   =       151.32577238     -155.92769107
  entropy T*S    EENTRO =        -0.00233211
  eigenvalues    EBANDS =       -29.48916439
  atomic energy  EATOM  =       588.62352690
  free energy    TOTEN  =       188.66288841 eV

  energy without entropy =      188.66522052  energy(sigma->0) =      188.66405447

[...]

 eigenvalue-minimisations  : 10524
 total energy-change (2. order) :-0.1983796E+03  (-0.1770683E+03)
 number of electron      16.0000000 magnetization
 augmentation part       16.0000000 magnetization

[...]

 Broyden mixing:
  rms(total) = 0.72615E+00    rms(broyden)= 0.72615E+00
  rms(prec ) = 0.79027E+00
  weight for this iteration     100.00

[...]

 eigenvalues of (default mixing * dielectric matrix)
  average eigenvalue GAMMA=   2.3090
  2.3090

[...]

WARNING in EDDRMM: call to ZHEGV failed, returncode =   6  3  1
WARNING in EDDRMM: call to ZHEGV failed, returncode =   6  3  1
WARNING in EDDRMM: call to ZHEGV failed, returncode =   6  3  1
WARNING in EDDRMM: call to ZHEGV failed, returncode =   6  3  1

[...]

 average (electrostatic) potential at core
  the test charge radii are     0.6991
  (the norm of the test charge is              1.0000)
       1 -58.2391       2 -58.2391       3 -58.2391       4 -58.2391

 E-fermi :  -2.7823     XC(G=0):  -2.1592     alpha+bet : -1.9046

 k-point     1 :       0.0000    0.0000    0.0000
  band No.  band energies     occupation
      1     -22.1851      2.00000
      2     -16.8939      2.00000
      3     -15.9285      2.00000
      4     -10.3060      2.00000
      5      -9.2913      2.00000
      6      -5.8748      2.00000
      7      -5.7633      2.00000
      8      -5.0280      2.00000
      9      -1.0986      0.00000
     10       0.5319      0.00000
     11       1.3312      0.00000
     12       4.1072      0.00000

[...]

 soft charge-density along one line, spin component           1
         0         1         2         3         4         5         6         7         8         9
 total charge-density along one line

------------------------ aborting loop because EDIFF is reached ----------------------------------------

  FORCE on cell =-STRESS in cart. coord.  units (eV):
  Direction    XX          YY          ZZ          XY          YZ          ZX
  Alpha Z     6.18334     6.18334     6.18334
  Ewald    3067.41717  3066.21748 -3602.12653    -0.00000     0.00000    -0.00000
  Hartree  3002.95744  3002.54568 -2979.91190    -0.00000    -0.00000    -0.00000
  E(xc)     -58.19989   -58.18786   -60.52587     0.00000    -0.00000    -0.00000
  Local   -6243.04957 -6241.65323  6376.24199    -0.00000    -0.00000    -0.00000
  n-local   -13.90293   -13.56988   -12.65377     0.06941    -0.00000     0.00000
  augment    -1.51739    -1.51609    -1.39742    -0.00000    -0.00000     0.00000
  Kinetic   240.11032   237.80334   274.18883    -4.61903     0.00000    -0.00000
  Fock        0.00000     0.00000     0.00000     0.00000     0.00000     0.00000
  Total      -0.00150    -2.17722    -0.00134     0.00000     0.00000     0.00000
  in kB      -0.01143   -16.54487    -0.01017     0.00000     0.00000     0.00000

 VOLUME and BASIS-vectors are now :
  energy-cutoff  :     2000.00
  volume of cell :      210.84
      direct lattice vectors                 reciprocal lattice vectors
     4.265714392  0.000000000  0.000000000     0.234427322  0.000000000  0.000000000
     0.000000000  2.491726749  0.000000000     0.000000000  0.401328115  0.000000000
     0.000000000  0.000000000 19.836109461     0.000000000  0.000000000  0.050413112

[...]

 FORCES acting on ions
    electron-ion (+dipol)            ewald-force                    non-local-force                 convergence-correction
   -.215E+01 0.294E-16 0.520E-09   0.215E+01 -.125E-14 0.758E-18   -.181E-02 0.000E+00 0.000E+00   0.753E-06 0.153E-14 0.192E-12
   0.215E+01 0.183E-12 -.398E-08   -.215E+01 0.489E-14 0.176E-33   0.181E-02 0.000E+00 0.000E+00   -.753E-06 -.220E-14 0.192E-12
   -.215E+01 -.156E-12 0.519E-09   0.215E+01 -.665E-15 -.758E-18   -.181E-02 0.000E+00 0.000E+00   0.753E-06 0.171E-14 0.192E-12
   0.215E+01 0.147E-14 -.398E-08   -.215E+01 0.548E-14 -.193E-33   0.181E-02 0.000E+00 0.000E+00   -.753E-06 -.237E-14 0.192E-12
   -.249E-06 0.291E-13 -.692E-08   -.444E-14 0.846E-14 0.000E+00   -.195E-17 0.000E+00 0.000E+00   -.919E-12 -.134E-14 0.768E-12

 POSITION                                       TOTAL-FORCE (eV/Angst)
      0.00112      0.00000      0.00000        -0.001807     -0.000000     -0.000000
      0.70983      1.24586      0.00000         0.001807      0.000000      0.000000
      2.13398      1.24586      0.00000        -0.001807      0.000000     -0.000000
      2.84269      0.00000      0.00000         0.001807     -0.000000      0.000000
    total drift:                               -0.000000      0.000000     -0.000000

  FREE ENERGIE OF THE ION-ELECTRON SYSTEM (eV)
  free  energy   TOTEN  =       -36.91470801 eV

  energy  without entropy=      -36.91467792  energy(sigma->0) =      -36.91469297

 Quasi-Newton relaxation of ions (Broydens 2nd method)
  g(Force)  = 0.630E-06   g(Stress)= 0.000E+00

 Reset! Starting new Quasi-Newton update for ions

[...]

 d Force =-0.9699491E-06[-0.257E-05, 0.630E-06]  d Energy =-0.9625419E-06-0.741E-08
 d Force =-0.7534959E-03[-0.759E-03,-0.748E-03]  d Ewald  =-0.7534953E-03-0.525E-09

[...]

 retain information from N=  1 steps
 eigenvalues of (default step * inverse Hessian matrix)
  average eigenvalue of G=   0.1969
 eigenvalue spectrum of G is  0.1969

[...]

WARNING in EDDRMM: call to ZHEGV failed, returncode =   6  3  1

[...]

 d Force = 0.1032236E-05[ 0.489E-09, 0.206E-05]  d Energy = 0.1026519E-05 0.572E-08
 d Force = 0.6059692E-03[ 0.603E-03, 0.609E-03]  d Ewald  = 0.6059690E-03 0.271E-09

[...]

 FEWALD executed in parallel

[...]

 eigenvalue-minimisations  :  4688
 total energy-change (2. order) : 0.3936975E-09  ( 0.5710987E-09)
 number of electron      16.0000000 magnetization
 augmentation part        0.3781628 magnetization

[...]

 eigenvalue-minimisations  :  1482
 total energy-change (2. order) :-0.6730261E-10  (-0.1416562E-13)
 number of electron      16.0000000 magnetization
 augmentation part        0.3781628 magnetization

[...]

 eigenvalue-minimisations  :  1451
 total energy-change (2. order) :-0.5115908E-10  ( 0.3931012E-14)
 number of electron      16.0000000 magnetization
 augmentation part        0.3781628 magnetization

 Broyden mixing:
  rms(total) = 0.86765E-09    rms(broyden)= 0.86765E-09
  rms(prec ) = 0.15059E-08
  weight for this iteration     100.00

 eigenvalues of (default mixing * dielectric matrix)
  average eigenvalue GAMMA=   1.6113
  2.6086  0.9227  1.3026

[...]

----------------------------------------- Iteration    4(   5)  ---------------------------------------

 eigenvalue-minimisations  :  1424
 total energy-change (2. order) : 0.2285105E-10  (-0.1185471E-13)
 number of electron      16.0000000 magnetization
 augmentation part        0.3781628 magnetization

 Free energy of the ion-electron system (eV)
  alpha Z        PSCENC =         6.18334092
  Ewald energy   TEWEN  =      2531.50850446
  -Hartree energ DENC   =     -3025.59134310
  -exchange      EXHF   =         0.00000000
  -V(xc)+E(xc)   XCENC  =        57.37062794
  PAW double counting   =       273.75052770     -278.88425795
  entropy T*S    EENTRO =        -0.00002977
  eigenvalues    EBANDS =      -189.87560520
  atomic energy  EATOM  =       588.62352690
  free energy    TOTEN  =       -36.91470808 eV

  energy without entropy =      -36.91467831  energy(sigma->0) =      -36.91469320

 average (electrostatic) potential at core
  the test charge radii are     0.6991
  (the norm of the test charge is              1.0000)
       1 -58.2391       2 -58.2391       3 -58.2391       4 -58.2391

 E-fermi :  -2.7823     XC(G=0):  -2.1559     alpha+bet : -1.9046

[...]

 k-point   247 :       0.5000    0.5000    0.0000
  band No.  band energies     occupation
      1     -17.0628      2.00000
      2     -17.0628      2.00000
      3     -15.9221      2.00000
      4     -15.9221      2.00000
      5      -9.0828      2.00000
      6      -9.0828      2.00000
      7      -5.1586      2.00000
      8      -5.1586      2.00000
      9      -1.1155      0.00000
     10      -1.1155      0.00000
     11       4.6030      0.00000
     12       4.6030      0.00000

 soft charge-density along one line, spin component           1
         0         1         2         3         4         5         6         7         8         9
 total charge-density along one line

------------------------ aborting loop because EDIFF is reached ----------------------------------------

  FORCE on cell =-STRESS in cart. coord.  units (eV):
  Direction    XX          YY          ZZ          XY          YZ          ZX
  Alpha Z     6.18334     6.18334     6.18334
  Ewald    3067.43212  3066.20268 -3602.12653    -0.00000     0.00000    -0.00000
  Hartree  3002.95953  3002.54371 -2979.91190    -0.00000    -0.00000    -0.00000
  E(xc)     -58.19984   -58.18792   -60.52588    -0.00000    -0.00000    -0.00000
  Local   -6243.06369 -6241.63929  6376.24195     0.00000     0.00000     0.00000
  n-local   -13.90280   -13.57000   -12.65378     0.06939     0.00000     0.00000
  augment    -1.51741    -1.51607    -1.39742    -0.00000     0.00000     0.00000
  Kinetic   240.10810   237.80566   274.18888    -4.61895    -0.00000    -0.00000
  Fock        0.00000     0.00000     0.00000     0.00000     0.00000     0.00000
  Total      -0.00067    -2.17790    -0.00133     0.00000     0.00000     0.00000
  in kB      -0.00508   -16.55004    -0.01012     0.00000     0.00000     0.00000

 VOLUME and BASIS-vectors are now :
  energy-cutoff  :     2000.00
  volume of cell :      210.84
      direct lattice vectors                 reciprocal lattice vectors
     4.265714392  0.000000000  0.000000000     0.234427322  0.000000000  0.000000000
     0.000000000  2.491726749  0.000000000     0.000000000  0.401328115  0.000000000
     0.000000000  0.000000000 19.836109461     0.000000000  0.000000000  0.050413112

  length of vectors
     4.265714392  2.491726749 19.836109461     0.234427322  0.401328115  0.050413112

 FORCES acting on ions
    electron-ion (+dipol)            ewald-force                    non-local-force                 convergence-correction
   -.215E+01 -.294E-15 0.514E-09   0.215E+01 -.116E-15 0.232E-18   -.117E-02 -.139E-16 0.000E+00   0.255E-08 -.165E-14 0.829E-13
   0.215E+01 -.170E-12 -.400E-08   -.215E+01 0.581E-14 -.109E-18   0.117E-02 0.694E-17 0.646E-26   -.255E-08 0.807E-15 0.786E-13
   -.215E+01 -.204E-12 0.514E-09   0.215E+01 -.158E-14 -.571E-18   -.117E-02 -.139E-16 -.129E-25   0.255E-08 0.385E-15 0.875E-13
   0.215E+01 0.377E-16 -.405E-08   -.215E+01 0.435E-14 0.448E-18   0.117E-02 0.139E-16 0.969E-26   -.255E-08 -.111E-14 0.932E-13
   -.250E-06 -.374E-12 -.702E-08   -.444E-14 0.846E-14 -.963E-34   -.217E-18 -.694E-17 0.323E-26   0.107E-14 -.157E-14 0.342E-12

 POSITION                                       TOTAL-FORCE (eV/Angst)
      0.00110     -0.00000     -0.00000        -0.000000      0.000000     -0.000000
      0.70985      1.24586      0.00000         0.000000     -0.000000      0.000000
      2.13396      1.24586     -0.00000        -0.000000     -0.000000     -0.000000
      2.84271     -0.00000      0.00000         0.000000      0.000000      0.000000
    total drift:                               -0.000000     -0.000000     -0.000000

  FREE ENERGIE OF THE ION-ELECTRON SYSTEM (eV)
  free  energy   TOTEN  =       -36.91470808 eV

  energy  without entropy=      -36.91467831  energy(sigma->0) =      -36.91469320

 d Force = 0.5097458E-13[-0.141E-13, 0.116E-12]  d Energy = 0.1479066E-09-0.148E-09
 d Force = 0.1429100E-06[ 0.143E-06, 0.143E-06]  d Ewald  = 0.1429098E-06 0.000E+00

 Quasi-Newton relaxation of ions (Broydens 2nd method)
  g(Force)  = 0.874E-14   g(Stress)= 0.000E+00

 retain information from N=  1 steps
 eigenvalues of (default step * inverse Hessian matrix)
  average eigenvalue of G=   0.1756
 eigenvalue spectrum of G is  0.1756

 reached required accuracy - stopping structural energy minimisation