 vasp.5.3.5 31Mar14 (build Mar 02 2015 18:14:16) complex

 executed on             LinuxIFC date 2018.08.09  22:20:31

 INCAR:
 POTCAR:   PAW_PBE C 08Apr2002
 POTCAR:   PAW_PBE C 08Apr2002
   VRHFIN =C: s2p2

   TITEL  = PAW_PBE C 08Apr2002
   POMASS =   12.011; ZVAL   =    4.000    mass and valenz
   ENMAX  =  400.000; ENMIN  =  300.000 eV
   QCUT   =   -5.516; QGAM   =   11.032    optimization parameters

   Description
     l     E      TYP  RCUT    TYP  RCUT
     0   .000     23  1.200
     0   .000     23  1.200
     1   .000     23  1.500
     1  2.500     23  1.500
     2   .000      7  1.500

 PAW_PBE C 08Apr2002                    :

 POSCAR: MD-kMC export data
  positions in direct lattice
  velocities in cartesian coordinates
 exchange correlation table for  LEXCH =        8
   RHO(1)=    0.500       N(1)  =     2000
   RHO(2)=  100.500       N(2)  =     4000

 ion  position               nearest neighbor table
   1  0.001  0.000  0.000-   4 1.42   2 1.45   2 1.45
   2  0.166  0.500  0.000-   3 1.42   1 1.45   1 1.45
   3  0.501  0.500  0.000-   2 1.42   4 1.45   4 1.45
   4  0.666  0.000  0.000-   1 1.42   3 1.45   3 1.45

  LATTYP: Found a simple orthorhombic cell.
 ALAT       =     2.5296016864
 B/A-ratio  =     1.6820818439
 C/A-ratio  =     7.7436396571

  Lattice vectors:

 A1 = (   0.0000000000,  -2.5296016864,   0.0000000000)
 A2 = (  -4.2549970690,   0.0000000000,   0.0000000000)
 A3 = (   0.0000000000,   0.0000000000, -19.5883239351)

Analysis of symmetry for initial positions (statically):
 Subroutine PRICEL returns following result:

  LATTYP: Found a base centered orthorhombic cell.
 ALAT       =     2.5296016864
 B/A-ratio  =     1.6820818439
 C/A-ratio  =     7.7436396571

[...]

   2 primitive cells build up your supercell.

 Routine SETGRP: Setting up the symmetry group for a
 simple orthorhombic supercell.

 Subroutine GETGRP returns: Found  8 space group operations
 (whereof  4 operations were pure point group operations)
 out of a pool of  8 trial point group operations.

The static configuration has the point symmetry C_2v.
 The point group associated with its full space group is D_2h.

Analysis of symmetry for dynamics (positions and initial velocities):
 Subroutine PRICEL returns following result:

  LATTYP: Found a base centered orthorhombic cell.
 ALAT       =     2.5296016864
 B/A-ratio  =     1.6820818439
 C/A-ratio  =     7.7436396571

  Lattice vectors:

 A1 = (   2.1274985345,  -1.2648008432,   0.0000000000)
 A2 = (  -2.1274985345,  -1.2648008432,   0.0000000000)
 A3 = (   0.0000000000,   0.0000000000, -19.5883239351)

   2 primitive cells build up your supercell.

 Routine SETGRP: Setting up the symmetry group for a
 simple orthorhombic supercell.

 Subroutine GETGRP returns: Found  8 space group operations
 (whereof  4 operations were pure point group operations)
 out of a pool of  8 trial point group operations.

The dynamic configuration has the point symmetry C_2v.
 The point group associated with its full space group is D_2h.

 KPOINTS: Automatic mesh

Automatic generation of k-mesh.
Space group operators:
 irot       det(A)        alpha          n_x          n_y          n_z        tau_x        tau_y        tau_z
    1     1.000000     0.000000     1.000000     0.000000     0.000000     0.000000     0.000000     0.000000
    2    -1.000000   179.999999     0.000000     0.000000     1.000000     0.000000     0.000000     0.000000
    3     1.000000   180.000000     1.000000     0.000000     0.000000     0.000000     0.000000     0.000000
    4    -1.000000   180.000000     0.000000     1.000000     0.000000     0.000000     0.000000     0.000000
    5    -1.000000     0.000000     1.000000     0.000000     0.000000     0.166667    -0.500000     0.000000
    6     1.000000   179.999999     0.000000     0.000000     1.000000     0.166667    -0.500000     0.000000
    7    -1.000000   180.000000     1.000000     0.000000     0.000000     0.166667    -0.500000     0.000000
    8     1.000000   180.000000     0.000000     1.000000     0.000000     0.166667    -0.500000     0.000000

 Subroutine IBZKPT returns following result:

 Found    247 irreducible k-points:

 Following reciprocal coordinates:
            Coordinates               Weight
  0.000000  0.000000  0.000000      1.000000
  0.041667  0.000000  0.000000      2.000000
  0.083333  0.000000  0.000000      2.000000
  0.125000  0.000000  0.000000      2.000000
  0.166667  0.000000  0.000000      2.000000
  0.208333  0.000000  0.000000      2.000000
  0.250000  0.000000  0.000000      2.000000
  0.291667  0.000000  0.000000      2.000000
  0.333333  0.000000  0.000000      2.000000
  0.375000  0.000000  0.000000      2.000000
  0.416667  0.000000  0.000000      2.000000
  0.458333  0.000000  0.000000      2.000000
  0.500000  0.000000  0.000000      1.000000
  0.000000  0.027778  0.000000      2.000000
  0.041667  0.027778  0.000000      4.000000
  0.083333  0.027778  0.000000      4.000000
  0.125000  0.027778  0.000000      4.000000
  0.166667  0.027778  0.000000      4.000000
  0.208333  0.027778  0.000000      4.000000
  0.250000  0.027778  0.000000      4.000000
  0.291667  0.027778  0.000000      4.000000
  0.333333  0.027778  0.000000      4.000000
  0.375000  0.027778  0.000000      4.000000
  0.416667  0.027778  0.000000      4.000000
  0.458333  0.027778  0.000000      4.000000
  0.500000  0.027778  0.000000      2.000000
  0.000000  0.055556  0.000000      2.000000
  0.041667  0.055556  0.000000      4.000000
  0.083333  0.055556  0.000000      4.000000
  0.125000  0.055556  0.000000      4.000000
  0.166667  0.055556  0.000000      4.000000
  0.208333  0.055556  0.000000      4.000000
  0.250000  0.055556  0.000000      4.000000
  0.291667  0.055556  0.000000      4.000000
  0.333333  0.055556  0.000000      4.000000
  0.375000  0.055556  0.000000      4.000000
  0.416667  0.055556  0.000000      4.000000
  0.458333  0.055556  0.000000      4.000000
  0.500000  0.055556  0.000000      2.000000
  0.000000  0.083333  0.000000      2.000000
  0.041667  0.083333  0.000000      4.000000
  0.083333  0.083333  0.000000      4.000000
  0.125000  0.083333  0.000000      4.000000
  0.166667  0.083333  0.000000      4.000000
  0.208333  0.083333  0.000000      4.000000
  0.250000  0.083333  0.000000      4.000000
  0.291667  0.083333  0.000000      4.000000
  0.333333  0.083333  0.000000      4.000000
  0.375000  0.083333  0.000000      4.000000
  0.416667  0.083333  0.000000      4.000000
  0.458333  0.083333  0.000000      4.000000
  0.500000  0.083333  0.000000      2.000000
  0.000000  0.111111  0.000000      2.000000
  0.041667  0.111111  0.000000      4.000000
  0.083333  0.111111  0.000000      4.000000
  0.125000  0.111111  0.000000      4.000000
  0.166667  0.111111  0.000000      4.000000
  0.208333  0.111111  0.000000      4.000000
  0.250000  0.111111  0.000000      4.000000
  0.291667  0.111111  0.000000      4.000000
[...]
  0.458333  0.472222  0.000000      4.000000
  0.500000  0.472222  0.000000      2.000000
  0.000000  0.500000  0.000000      1.000000
  0.041667  0.500000  0.000000      2.000000
  0.083333  0.500000  0.000000      2.000000
  0.125000  0.500000  0.000000      2.000000
  0.166667  0.500000  0.000000      2.000000
  0.208333  0.500000  0.000000      2.000000
  0.250000  0.500000  0.000000      2.000000
  0.291667  0.500000  0.000000      2.000000
  0.333333  0.500000  0.000000      2.000000
  0.375000  0.500000  0.000000      2.000000
  0.416667  0.500000  0.000000      2.000000
  0.458333  0.500000  0.000000      2.000000
  0.500000  0.500000  0.000000      1.000000

 Following cartesian coordinates:
            Coordinates               Weight
  0.000000  0.000000  0.000000      1.000000
  0.009792  0.000000  0.000000      2.000000
  0.019585  0.000000  0.000000      2.000000
  0.029377  0.000000  0.000000      2.000000
  0.039170  0.000000  0.000000      2.000000
  0.048962  0.000000  0.000000      2.000000
  0.058754  0.000000  0.000000      2.000000
  0.068547  0.000000  0.000000      2.000000
  0.078339  0.000000  0.000000      2.000000
  0.088132  0.000000  0.000000      2.000000
  0.097924  0.000000  0.000000      2.000000
  0.107716  0.000000  0.000000      2.000000
  0.117509  0.000000  0.000000      1.000000
  0.000000  0.010981  0.000000      2.000000
  0.009792  0.010981  0.000000      4.000000
  0.019585  0.010981  0.000000      4.000000
  0.029377  0.010981  0.000000      4.000000
  0.039170  0.010981  0.000000      4.000000
  0.048962  0.010981  0.000000      4.000000
  0.058754  0.010981  0.000000      4.000000
  0.068547  0.010981  0.000000      4.000000
  0.078339  0.010981  0.000000      4.000000
  0.088132  0.010981  0.000000      4.000000
  0.097924  0.010981  0.000000      4.000000
  0.107716  0.010981  0.000000      4.000000
  0.117509  0.010981  0.000000      2.000000
  0.000000  0.021962  0.000000      2.000000
  0.009792  0.021962  0.000000      4.000000
  0.019585  0.021962  0.000000      4.000000
  0.029377  0.021962  0.000000      4.000000
  0.039170  0.021962  0.000000      4.000000
  0.048962  0.021962  0.000000      4.000000
  0.058754  0.021962  0.000000      4.000000
  0.068547  0.021962  0.000000      4.000000
  0.078339  0.021962  0.000000      4.000000
  0.088132  0.021962  0.000000      4.000000
  0.097924  0.021962  0.000000      4.000000
  0.107716  0.021962  0.000000      4.000000
  0.117509  0.021962  0.000000      2.000000
  0.000000  0.032943  0.000000      2.000000
  0.009792  0.032943  0.000000      4.000000
  0.019585  0.032943  0.000000      4.000000
  0.029377  0.032943  0.000000      4.000000
  0.039170  0.032943  0.000000      4.000000
  0.048962  0.032943  0.000000      4.000000
  0.058754  0.032943  0.000000      4.000000
  0.068547  0.032943  0.000000      4.000000
  0.078339  0.032943  0.000000      4.000000
  0.088132  0.032943  0.000000      4.000000
  0.097924  0.032943  0.000000      4.000000
  0.107716  0.032943  0.000000      4.000000
  0.117509  0.032943  0.000000      2.000000
  0.000000  0.043924  0.000000      2.000000
  0.009792  0.043924  0.000000      4.000000
  0.019585  0.043924  0.000000      4.000000
  0.029377  0.043924  0.000000      4.000000
  0.039170  0.043924  0.000000      4.000000
  0.048962  0.043924  0.000000      4.000000
  0.058754  0.043924  0.000000      4.000000
  0.068547  0.043924  0.000000      4.000000
[...]
  0.107716  0.186678  0.000000      4.000000
  0.117509  0.186678  0.000000      2.000000
  0.000000  0.197660  0.000000      1.000000
  0.009792  0.197660  0.000000      2.000000
  0.019585  0.197660  0.000000      2.000000
  0.029377  0.197660  0.000000      2.000000
  0.039170  0.197660  0.000000      2.000000
  0.048962  0.197660  0.000000      2.000000
  0.058754  0.197660  0.000000      2.000000
  0.068547  0.197660  0.000000      2.000000
  0.078339  0.197660  0.000000      2.000000
  0.088132  0.197660  0.000000      2.000000
  0.097924  0.197660  0.000000      2.000000
  0.107716  0.197660  0.000000      2.000000
  0.117509  0.197660  0.000000      1.000000

 I would recommend the setting:
   dimension x,y,z NGX =    62 NGY =   37 NGZ =  286
[...]
 k-point ** :   0.2917 0.2778 0.0000  plane waves:   42815
 k-point ** :   0.3333 0.2778 0.0000  plane waves:   42802
 k-point ** :   0.3750 0.2778 0.0000  plane waves:   42786
 k-point ** :   0.4167 0.2778 0.0000  plane waves:   42783
 k-point ** :   0.4583 0.2778 0.0000  plane waves:   42747
 k-point ** :   0.5000 0.2778 0.0000  plane waves:   42756
 k-point ** :   0.0000 0.3056 0.0000  plane waves:   42892
 k-point ** :   0.0417 0.3056 0.0000  plane waves:   42877
 k-point ** :   0.0833 0.3056 0.0000  plane waves:   42857
 k-point ** :   0.1250 0.3056 0.0000  plane waves:   42855
 k-point ** :   0.1667 0.3056 0.0000  plane waves:   42842
 k-point ** :   0.2083 0.3056 0.0000  plane waves:   42826
 k-point ** :   0.2500 0.3056 0.0000  plane waves:   42823
 k-point ** :   0.2917 0.3056 0.0000  plane waves:   42808
 k-point ** :   0.3333 0.3056 0.0000  plane waves:   42805
 k-point ** :   0.3750 0.3056 0.0000  plane waves:   42793
 k-point ** :   0.4167 0.3056 0.0000  plane waves:   42791
 k-point ** :   0.4583 0.3056 0.0000  plane waves:   42786
 k-point ** :   0.5000 0.3056 0.0000  plane waves:   42762
 k-point ** :   0.0000 0.3333 0.0000  plane waves:   42902
 k-point ** :   0.0417 0.3333 0.0000  plane waves:   42897
 k-point ** :   0.0833 0.3333 0.0000  plane waves:   42867
[...]
 k-point ** :   0.4583 0.4722 0.0000  plane waves:   42780
 k-point ** :   0.5000 0.4722 0.0000  plane waves:   42764
 k-point ** :   0.0000 0.5000 0.0000  plane waves:   42870
 k-point ** :   0.0417 0.5000 0.0000  plane waves:   42840
 k-point ** :   0.0833 0.5000 0.0000  plane waves:   42870
 k-point ** :   0.1250 0.5000 0.0000  plane waves:   42862
 k-point ** :   0.1667 0.5000 0.0000  plane waves:   42882
 k-point ** :   0.2083 0.5000 0.0000  plane waves:   42894
 k-point ** :   0.2500 0.5000 0.0000  plane waves:   42882
 k-point ** :   0.2917 0.5000 0.0000  plane waves:   42878
 k-point ** :   0.3333 0.5000 0.0000  plane waves:   42872
 k-point ** :   0.3750 0.5000 0.0000  plane waves:   42818
 k-point ** :   0.4167 0.5000 0.0000  plane waves:   42814
 k-point ** :   0.4583 0.5000 0.0000  plane waves:   42770
 k-point ** :   0.5000 0.5000 0.0000  plane waves:   42772

 maximum and minimum number of plane-waves per node :     21482    21329

 maximum number of plane-waves:     42921
 maximum index in each direction:
   IXMAX=   15   IYMAX=    9   IZMAX=   71
   IXMIN=  -16   IYMIN=   -9   IZMIN=  -71

 NGX is ok and might be reduce to  64
 NGY is ok and might be reduce to  38
 NGZ is ok and might be reduce to 286

 parallel 3D FFT for wavefunctions:
    minimum data exchange during FFTs selected (reduces bandwidth)
 parallel 3D FFT for charge:
    minimum data exchange during FFTs selected (reduces bandwidth)

 Broyden mixing: mesh for mixing (old mesh)
   NGX = 31   NGY = 19   NGZ =143
  (NGX  =128   NGY  = 80   NGZ  =576)
  gives a total of  84227 points

 initial charge density was supplied:
 charge density of overlapping atoms calculated
 number of electron      16.0000000 magnetization
 keeping initial charge density in first step

 Maximum index for augmentation-charges         5075 (set IRDMAX)

 First call to EWALD:  gamma=   0.298
 Maximum number of real-space cells 4x 6x 1
 Maximum number of reciprocal cells 2x 1x 8

 FEWALD executed in parallel

----------------------------------------- Iteration    1(   1)  ---------------------------------------

 eigenvalue-minimisations  :  5928
 total energy-change (2. order) : 0.1858087E+03  (-0.1058623E+04)
 number of electron      16.0000000 magnetization
 augmentation part       16.0000000 magnetization

 Free energy of the ion-electron system (eV)
  alpha Z        PSCENC =         6.18334092
  Ewald energy   TEWEN  =      2448.78112500
  -Hartree energ DENC   =     -2878.29796663
  -exchange      EXHF   =         0.00000000
  -V(xc)+E(xc)   XCENC  =        54.81557379
  PAW double counting   =       151.32577238     -155.92769107
  entropy T*S    EENTRO =        -0.00145379
  eigenvalues    EBANDS =       -29.69349631
  atomic energy  EATOM  =       588.62352690
  free energy    TOTEN  =       185.80873120 eV

  energy without entropy =      185.81018499  energy(sigma->0) =      185.80945809

[...]

 eigenvalue-minimisations  : 10408
 total energy-change (2. order) :-0.1955009E+03  (-0.1730143E+03)
 number of electron      16.0000000 magnetization
 augmentation part       16.0000000 magnetization

[...]

 Broyden mixing:
  rms(total) = 0.71029E+00    rms(broyden)= 0.71029E+00
  rms(prec ) = 0.77421E+00
  weight for this iteration     100.00

[...]

 eigenvalues of (default mixing * dielectric matrix)
  average eigenvalue GAMMA=   2.3073
  2.3073

[...]

WARNING in EDDRMM: call to ZHEGV failed, returncode =   6  3  1
WARNING in EDDRMM: call to ZHEGV failed, returncode =   6  3  1
WARNING in EDDRMM: call to ZHEGV failed, returncode =   6  3  1
WARNING in EDDRMM: call to ZHEGV failed, returncode =   6  3  1
WARNING in EDDRMM: call to ZHEGV failed, returncode =   6  3  1

[...]

 average (electrostatic) potential at core
  the test charge radii are     0.6991
  (the norm of the test charge is              1.0000)
       1 -58.3154       2 -58.3154       3 -58.3154       4 -58.3154

 E-fermi :  -2.8244     XC(G=0):  -2.1801     alpha+bet : -1.9046

 k-point     1 :       0.0000    0.0000    0.0000
  band No.  band energies     occupation
      1     -22.0799      2.00000
      2     -16.7014      2.00000
      3     -15.8640      2.00000
      4     -10.2248      2.00000
      5      -9.4765      2.00000
      6      -5.9921      2.00000
      7      -5.7426      2.00000
      8      -4.9026      2.00000
      9      -1.1442      0.00000
     10       0.5448      0.00000
     11       1.3423      0.00000
     12       1.7307      0.00000

[...]

 soft charge-density along one line, spin component           1
         0         1         2         3         4         5         6         7         8         9
 total charge-density along one line

------------------------ aborting loop because EDIFF is reached ----------------------------------------

  FORCE on cell =-STRESS in cart. coord.  units (eV):
  Direction    XX          YY          ZZ          XY          YZ          ZX
  Alpha Z     6.18334     6.18334     6.18334
  Ewald    2982.38550  2979.09112 -3512.69569     0.00000     0.00000     0.00000
  Hartree  2920.45465  2919.43513 -2896.82150     0.00000     0.00000    -0.00000
  E(xc)     -57.98513   -57.95512   -60.29147    -0.00000    -0.00000    -0.00000
  Local   -6075.80102 -6072.10845  6204.27038    -0.00000     0.00000    -0.00000
  n-local   -13.81836   -13.00320   -12.47855     0.08854     0.00000     0.00000
  augment    -1.48076    -1.47727    -1.37140    -0.00000    -0.00000     0.00000
  Kinetic   240.06356   234.39943   273.20355    -4.64078    -0.00000     0.00000
  Fock        0.00000     0.00000     0.00000     0.00000     0.00000     0.00000
  Total       0.00178    -5.43502    -0.00134     0.00000     0.00000     0.00000
  in kB       0.01355   -41.30127    -0.01022     0.00000     0.00000     0.00000

 VOLUME and BASIS-vectors are now :
  energy-cutoff  :     2000.00
  volume of cell :      210.84
      direct lattice vectors                 reciprocal lattice vectors
     4.254997069  0.000000000  0.000000000     0.235017788  0.000000000  0.000000000
     0.000000000  2.529601686  0.000000000     0.000000000  0.395319155  0.000000000
     0.000000000  0.000000000 19.588323935     0.000000000  0.000000000  0.051050820

[...]

 FORCES acting on ions
    electron-ion (+dipol)            ewald-force                    non-local-force                 convergence-correction
   -.537E+01 -.173E-15 0.796E-09   0.536E+01 0.445E-14 0.105E-17   0.910E-02 0.000E+00 -.414E-24   0.575E-06 -.176E-14 -.792E-13
   0.537E+01 -.590E-14 -.224E-08   -.536E+01 -.490E-14 -.881E-18   -.910E-02 0.000E+00 0.414E-24   -.575E-06 0.304E-15 -.794E-13
   -.537E+01 -.200E-12 0.805E-09   0.536E+01 0.309E-14 -.622E-18   0.910E-02 0.000E+00 0.000E+00   0.575E-06 -.107E-14 -.792E-13
   0.537E+01 -.144E-14 -.222E-08   -.536E+01 -.626E-14 0.448E-18   -.910E-02 0.000E+00 0.517E-25   -.575E-06 -.446E-15 -.793E-13
   -.259E-06 -.207E-12 -.285E-08   0.000E+00 -.362E-14 -.963E-34   0.347E-17 0.000E+00 0.517E-25   0.353E-12 -.297E-14 -.317E-12

 POSITION                                       TOTAL-FORCE (eV/Angst)
      0.00271      0.00000      0.00000         0.002056      0.000000      0.000000
      0.70645      1.26480      0.00000        -0.002056     -0.000000     -0.000000
      2.13021      1.26480      0.00000         0.002056      0.000000      0.000000
      2.83395      0.00000      0.00000        -0.002056     -0.000000     -0.000000
    total drift:                               -0.000000     -0.000000     -0.000000

  FREE ENERGIE OF THE ION-ELECTRON SYSTEM (eV)
  free  energy   TOTEN  =       -36.85714089 eV

  energy  without entropy=      -36.85714088  energy(sigma->0) =      -36.85714088

 Quasi-Newton relaxation of ions (Broydens 2nd method)
  g(Force)  = 0.816E-06   g(Stress)= 0.000E+00

 Reset! Starting new Quasi-Newton update for ions

[...]

WARNING in EDDRMM: call to ZHEGV failed, returncode =   6  3  1

[...]

 d Force =-0.1219266E-05[-0.325E-05, 0.816E-06]  d Energy =-0.1243582E-05 0.243E-07
 d Force = 0.2119450E-02[ 0.211E-02, 0.213E-02]  d Ewald  = 0.2119449E-02 0.763E-09

[...]

 retain information from N=  1 steps
 eigenvalues of (default step * inverse Hessian matrix)
  average eigenvalue of G=   0.2004
 eigenvalue spectrum of G is  0.2004

[...]

 d Force = 0.1301860E-05[ 0.167E-08, 0.260E-05]  d Energy = 0.1321242E-05-0.194E-07
 d Force =-0.1693539E-02[-0.170E-02,-0.169E-02]  d Ewald  =-0.1693539E-02-0.390E-09

[...]

 eigenvalue-minimisations  :  4916
 total energy-change (2. order) : 0.4729372E-09  ( 0.5949490E-09)
 number of electron      16.0000000 magnetization
 augmentation part        0.3725185 magnetization

[...]

 eigenvalue-minimisations  :  2441
 total energy-change (2. order) :-0.4596359E-09  ( 0.8891653E-13)
 number of electron      16.0000000 magnetization
 augmentation part        0.3725185 magnetization

[...]

 d Force = 0.2505671E-12[-0.567E-12, 0.107E-11]  d Energy =-0.1141416E-09 0.114E-09
 d Force =-0.1088257E-05[-0.109E-05,-0.109E-05]  d Ewald  =-0.1088257E-05 0.000E+00

[...]

 FEWALD executed in parallel

[...]

 eigenvalue-minimisations  :  4376
 total energy-change (2. order) : 0.3601599E-09  ( 0.5974376E-09)
 number of electron      16.0000000 magnetization
 augmentation part        0.3725185 magnetization

[...]

 eigenvalue-minimisations  :  1353
 total energy-change (2. order) : 0.4488356E-09  (-0.2376700E-14)
 number of electron      16.0000000 magnetization
 augmentation part        0.3725185 magnetization

[...]

 eigenvalue-minimisations  :  1341
 total energy-change (2. order) :-0.1316494E-09  ( 0.5472988E-14)
 number of electron      16.0000000 magnetization
 augmentation part        0.3725185 magnetization

[...]

 Broyden mixing:
  rms(total) = 0.57118E-09    rms(broyden)= 0.57118E-09
  rms(prec ) = 0.10405E-08
  weight for this iteration     100.00

 eigenvalues of (default mixing * dielectric matrix)
  average eigenvalue GAMMA=   2.0395
  3.4531  2.6284  1.3368  0.7397

[...]

----------------------------------------- Iteration    5(   6)  ---------------------------------------

 eigenvalue-minimisations  :  1289
 total energy-change (2. order) :-0.3979039E-10  (-0.1293615E-13)
 number of electron      16.0000000 magnetization
 augmentation part        0.3725185 magnetization

 Free energy of the ion-electron system (eV)
  alpha Z        PSCENC =         6.18334092
  Ewald energy   TEWEN  =      2448.78069980
  -Hartree energ DENC   =     -2943.06792287
  -exchange      EXHF   =         0.00000000
  -V(xc)+E(xc)   XCENC  =        57.13954138
  PAW double counting   =       268.77480342     -273.88609513
  entropy T*S    EENTRO =        -0.00000001
  eigenvalues    EBANDS =      -189.40503537
  atomic energy  EATOM  =       588.62352690
  free energy    TOTEN  =       -36.85714097 eV

  energy without entropy =      -36.85714096  energy(sigma->0) =      -36.85714096

 average (electrostatic) potential at core
  the test charge radii are     0.6991
  (the norm of the test charge is              1.0000)
       1 -58.3154       2 -58.3154       3 -58.3154       4 -58.3154

 E-fermi :  -2.8244     XC(G=0):  -2.1774     alpha+bet : -1.9046

[...]

 k-point   247 :       0.5000    0.5000    0.0000
  band No.  band energies     occupation
      1     -17.1224      2.00000
      2     -17.1224      2.00000
      3     -15.8411      2.00000
      4     -15.8411      2.00000
      5      -8.9665      2.00000
      6      -8.9665      2.00000
      7      -5.2280      2.00000
      8      -5.2280      2.00000
      9      -1.1738      0.00000
     10      -1.1738      0.00000
     11       4.5909      0.00000
     12       4.5909      0.00000

 soft charge-density along one line, spin component           1
         0         1         2         3         4         5         6         7         8         9
 total charge-density along one line

------------------------ aborting loop because EDIFF is reached ----------------------------------------

  FORCE on cell =-STRESS in cart. coord.  units (eV):
  Direction    XX          YY          ZZ          XY          YZ          ZX
  Alpha Z     6.18334     6.18334     6.18334
  Ewald    2982.36836  2979.10782 -3512.69569     0.00000     0.00000    -0.00000
  Hartree  2920.45220  2919.43726 -2896.82154     0.00000     0.00000    -0.00000
  E(xc)     -57.98517   -57.95504   -60.29145    -0.00000     0.00000    -0.00000
  Local   -6075.78480 -6072.12417  6204.27053     0.00000    -0.00000    -0.00000
  n-local   -13.81850   -13.00305   -12.47854     0.08856    -0.00000     0.00000
  augment    -1.48073    -1.47729    -1.37140    -0.00000     0.00000     0.00000
  Kinetic   240.06600   234.39674   273.20342    -4.64088     0.00000    -0.00000
  Fock        0.00000     0.00000     0.00000     0.00000     0.00000     0.00000
  Total       0.00071    -5.43438    -0.00133     0.00000     0.00000     0.00000
  in kB       0.00537   -41.29636    -0.01011     0.00000     0.00000     0.00000

 VOLUME and BASIS-vectors are now :
  energy-cutoff  :     2000.00
  volume of cell :      210.84
      direct lattice vectors                 reciprocal lattice vectors
     4.254997069  0.000000000  0.000000000     0.235017788  0.000000000  0.000000000
     0.000000000  2.529601686  0.000000000     0.000000000  0.395319155  0.000000000
     0.000000000  0.000000000 19.588323935     0.000000000  0.000000000  0.051050820

  length of vectors
     4.254997069  2.529601686 19.588323935     0.235017788  0.395319155  0.051050820

 FORCES acting on ions
    electron-ion (+dipol)            ewald-force                    non-local-force                 convergence-correction
   -.536E+01 -.243E-15 0.796E-09   0.535E+01 -.218E-15 0.361E-18   0.838E-02 0.694E-17 0.000E+00   -.208E-08 -.318E-14 -.170E-11
   0.536E+01 0.118E-13 -.222E-08   -.535E+01 -.647E-14 0.448E-18   -.838E-02 -.694E-17 0.000E+00   0.208E-08 0.176E-14 -.171E-11
   -.536E+01 0.590E-12 0.804E-09   0.535E+01 0.466E-14 -.686E-18   0.838E-02 0.694E-17 0.000E+00   -.208E-08 0.180E-14 -.166E-11
   0.536E+01 -.220E-15 -.220E-08   -.535E+01 -.159E-14 -.123E-18   -.838E-02 -.694E-17 0.000E+00   0.208E-08 -.321E-14 -.165E-11
   -.259E-06 0.601E-12 -.281E-08   0.000E+00 -.362E-14 -.481E-34   0.000E+00 0.000E+00 0.000E+00   0.209E-14 -.283E-14 -.672E-11

 POSITION                                       TOTAL-FORCE (eV/Angst)
      0.00273      0.00000      0.00000         0.000001     -0.000000     -0.000000
      0.70643      1.26480     -0.00000        -0.000001      0.000000      0.000000
      2.13023      1.26480      0.00000         0.000001     -0.000000     -0.000000
      2.83393     -0.00000     -0.00000        -0.000001      0.000000      0.000000
    total drift:                               -0.000000      0.000000     -0.000000

  FREE ENERGIE OF THE ION-ELECTRON SYSTEM (eV)
  free  energy   TOTEN  =       -36.85714097 eV

  energy  without entropy=      -36.85714096  energy(sigma->0) =      -36.85714096

 d Force = 0.1273455E-12[ 0.580E-13, 0.197E-12]  d Energy = 0.1629132E-09-0.163E-09
 d Force = 0.3773912E-06[ 0.377E-06, 0.377E-06]  d Ewald  = 0.3773912E-06 0.000E+00

 Quasi-Newton relaxation of ions (Broydens 2nd method)
  g(Force)  = 0.131E-12   g(Stress)= 0.000E+00

 retain information from N=  1 steps
 eigenvalues of (default step * inverse Hessian matrix)
  average eigenvalue of G=   0.1858
 eigenvalue spectrum of G is  0.1858

 reached required accuracy - stopping structural energy minimisation