 vasp.5.3.5 31Mar14 (build Mar 02 2015 18:14:16) complex

 executed on             LinuxIFC date 2018.08.11  01:37:01

 INCAR:
 POTCAR:   PAW_PBE C 08Apr2002
 POTCAR:   PAW_PBE C 08Apr2002
   VRHFIN =C: s2p2

   TITEL  = PAW_PBE C 08Apr2002
   POMASS =   12.011; ZVAL   =    4.000    mass and valenz
   ENMAX  =  400.000; ENMIN  =  300.000 eV
   QCUT   =   -5.516; QGAM   =   11.032    optimization parameters

   Description
     l     E      TYP  RCUT    TYP  RCUT
     0   .000     23  1.200
     0   .000     23  1.200
     1   .000     23  1.500
     1  2.500     23  1.500
     2   .000      7  1.500

 PAW_PBE C 08Apr2002                    :

 POSCAR: MD-kMC export data
  positions in direct lattice
  velocities in cartesian coordinates
 exchange correlation table for  LEXCH =        8
   RHO(1)=    0.500       N(1)  =     2000
   RHO(2)=  100.500       N(2)  =     4000

 ion  position               nearest neighbor table
   1  0.000  0.000  0.000-   2 1.42   2 1.42   4 1.43
   2  0.167  0.500  0.000-   1 1.42   1 1.42   3 1.43
   3  0.500  0.500  0.000-   4 1.42   4 1.42   2 1.43
   4  0.667  0.000  0.000-   3 1.42   3 1.42   1 1.43

  LATTYP: Found a simple orthorhombic cell.
 ALAT       =     2.4668057803
 B/A-ratio  =     1.7325642008
 C/A-ratio  =     8.1068936550

  Lattice vectors:

 A1 = (   0.0000000000,  -2.4668057803,   0.0000000000)
 A2 = (  -4.2738993851,   0.0000000000,   0.0000000000)
 A3 = (   0.0000000000,   0.0000000000, -19.9981321283)

Analysis of symmetry for initial positions (statically):
 Subroutine PRICEL returns following result:

  LATTYP: Found a base centered orthorhombic cell.
 ALAT       =     2.4668057803
 B/A-ratio  =     1.7325642008
 C/A-ratio  =     8.1068936550

[...]

   2 primitive cells build up your supercell.

 Routine SETGRP: Setting up the symmetry group for a
 simple orthorhombic supercell.

 Subroutine GETGRP returns: Found  8 space group operations
 (whereof  4 operations were pure point group operations)
 out of a pool of  8 trial point group operations.

The static configuration has the point symmetry C_2v.
 The point group associated with its full space group is D_2h.

Analysis of symmetry for dynamics (positions and initial velocities):
 Subroutine PRICEL returns following result:

  LATTYP: Found a base centered orthorhombic cell.
 ALAT       =     2.4668057803
 B/A-ratio  =     1.7325642008
 C/A-ratio  =     8.1068936550

  Lattice vectors:

 A1 = (   2.1369496926,  -1.2334028901,   0.0000000000)
 A2 = (  -2.1369496926,  -1.2334028901,   0.0000000000)
 A3 = (   0.0000000000,   0.0000000000, -19.9981321283)

   2 primitive cells build up your supercell.

 Routine SETGRP: Setting up the symmetry group for a
 simple orthorhombic supercell.

 Subroutine GETGRP returns: Found  8 space group operations
 (whereof  4 operations were pure point group operations)
 out of a pool of  8 trial point group operations.

The dynamic configuration has the point symmetry C_2v.
 The point group associated with its full space group is D_2h.

 KPOINTS: Automatic mesh

Automatic generation of k-mesh.
Space group operators:
 irot       det(A)        alpha          n_x          n_y          n_z        tau_x        tau_y        tau_z
    1     1.000000     0.000001     1.000000     0.000000     0.000000     0.000000     0.000000     0.000000
    2    -1.000000   180.000000     0.000000     0.000000     1.000000     0.000000     0.000000     0.000000
    3     1.000000   180.000000     1.000000     0.000000     0.000000     0.000000     0.000000     0.000000
    4    -1.000000   179.999999     0.000000     1.000000     0.000000     0.000000     0.000000     0.000000
    5    -1.000000     0.000001     1.000000     0.000000     0.000000     0.166667    -0.500000     0.000000
    6     1.000000   180.000000     0.000000     0.000000     1.000000     0.166667    -0.500000     0.000000
    7    -1.000000   180.000000     1.000000     0.000000     0.000000     0.166667    -0.500000     0.000000
    8     1.000000   179.999999     0.000000     1.000000     0.000000     0.166667    -0.500000     0.000000

 Subroutine IBZKPT returns following result:

 Found    247 irreducible k-points:

 Following reciprocal coordinates:
            Coordinates               Weight
  0.000000  0.000000  0.000000      1.000000
  0.041667  0.000000  0.000000      2.000000
  0.083333  0.000000  0.000000      2.000000
  0.125000  0.000000  0.000000      2.000000
  0.166667  0.000000  0.000000      2.000000
  0.208333  0.000000  0.000000      2.000000
  0.250000  0.000000  0.000000      2.000000
  0.291667  0.000000  0.000000      2.000000
  0.333333  0.000000  0.000000      2.000000
  0.375000  0.000000  0.000000      2.000000
  0.416667  0.000000  0.000000      2.000000
  0.458333  0.000000  0.000000      2.000000
  0.500000  0.000000  0.000000      1.000000
  0.000000  0.027778  0.000000      2.000000
  0.041667  0.027778  0.000000      4.000000
  0.083333  0.027778  0.000000      4.000000
  0.125000  0.027778  0.000000      4.000000
  0.166667  0.027778  0.000000      4.000000
  0.208333  0.027778  0.000000      4.000000
  0.250000  0.027778  0.000000      4.000000
  0.291667  0.027778  0.000000      4.000000
  0.333333  0.027778  0.000000      4.000000
  0.375000  0.027778  0.000000      4.000000
  0.416667  0.027778  0.000000      4.000000
  0.458333  0.027778  0.000000      4.000000
  0.500000  0.027778  0.000000      2.000000
  0.000000  0.055556  0.000000      2.000000
  0.041667  0.055556  0.000000      4.000000
  0.083333  0.055556  0.000000      4.000000
  0.125000  0.055556  0.000000      4.000000
  0.166667  0.055556  0.000000      4.000000
  0.208333  0.055556  0.000000      4.000000
  0.250000  0.055556  0.000000      4.000000
  0.291667  0.055556  0.000000      4.000000
  0.333333  0.055556  0.000000      4.000000
  0.375000  0.055556  0.000000      4.000000
  0.416667  0.055556  0.000000      4.000000
  0.458333  0.055556  0.000000      4.000000
  0.500000  0.055556  0.000000      2.000000
  0.000000  0.083333  0.000000      2.000000
  0.041667  0.083333  0.000000      4.000000
  0.083333  0.083333  0.000000      4.000000
  0.125000  0.083333  0.000000      4.000000
  0.166667  0.083333  0.000000      4.000000
  0.208333  0.083333  0.000000      4.000000
  0.250000  0.083333  0.000000      4.000000
  0.291667  0.083333  0.000000      4.000000
  0.333333  0.083333  0.000000      4.000000
  0.375000  0.083333  0.000000      4.000000
  0.416667  0.083333  0.000000      4.000000
  0.458333  0.083333  0.000000      4.000000
  0.500000  0.083333  0.000000      2.000000
  0.000000  0.111111  0.000000      2.000000
  0.041667  0.111111  0.000000      4.000000
  0.083333  0.111111  0.000000      4.000000
  0.125000  0.111111  0.000000      4.000000
  0.166667  0.111111  0.000000      4.000000
  0.208333  0.111111  0.000000      4.000000
  0.250000  0.111111  0.000000      4.000000
  0.291667  0.111111  0.000000      4.000000
[...]
  0.458333  0.472222  0.000000      4.000000
  0.500000  0.472222  0.000000      2.000000
  0.000000  0.500000  0.000000      1.000000
  0.041667  0.500000  0.000000      2.000000
  0.083333  0.500000  0.000000      2.000000
  0.125000  0.500000  0.000000      2.000000
  0.166667  0.500000  0.000000      2.000000
  0.208333  0.500000  0.000000      2.000000
  0.250000  0.500000  0.000000      2.000000
  0.291667  0.500000  0.000000      2.000000
  0.333333  0.500000  0.000000      2.000000
  0.375000  0.500000  0.000000      2.000000
  0.416667  0.500000  0.000000      2.000000
  0.458333  0.500000  0.000000      2.000000
  0.500000  0.500000  0.000000      1.000000

 Following cartesian coordinates:
            Coordinates               Weight
  0.000000  0.000000  0.000000      1.000000
  0.009749  0.000000  0.000000      2.000000
  0.019498  0.000000  0.000000      2.000000
  0.029247  0.000000  0.000000      2.000000
  0.038996  0.000000  0.000000      2.000000
  0.048745  0.000000  0.000000      2.000000
  0.058495  0.000000  0.000000      2.000000
  0.068244  0.000000  0.000000      2.000000
  0.077993  0.000000  0.000000      2.000000
  0.087742  0.000000  0.000000      2.000000
  0.097491  0.000000  0.000000      2.000000
  0.107240  0.000000  0.000000      2.000000
  0.116989  0.000000  0.000000      1.000000
  0.000000  0.011261  0.000000      2.000000
  0.009749  0.011261  0.000000      4.000000
  0.019498  0.011261  0.000000      4.000000
  0.029247  0.011261  0.000000      4.000000
  0.038996  0.011261  0.000000      4.000000
  0.048745  0.011261  0.000000      4.000000
  0.058495  0.011261  0.000000      4.000000
  0.068244  0.011261  0.000000      4.000000
  0.077993  0.011261  0.000000      4.000000
  0.087742  0.011261  0.000000      4.000000
  0.097491  0.011261  0.000000      4.000000
  0.107240  0.011261  0.000000      4.000000
  0.116989  0.011261  0.000000      2.000000
  0.000000  0.022521  0.000000      2.000000
  0.009749  0.022521  0.000000      4.000000
  0.019498  0.022521  0.000000      4.000000
  0.029247  0.022521  0.000000      4.000000
  0.038996  0.022521  0.000000      4.000000
  0.048745  0.022521  0.000000      4.000000
  0.058495  0.022521  0.000000      4.000000
  0.068244  0.022521  0.000000      4.000000
  0.077993  0.022521  0.000000      4.000000
  0.087742  0.022521  0.000000      4.000000
  0.097491  0.022521  0.000000      4.000000
  0.107240  0.022521  0.000000      4.000000
  0.116989  0.022521  0.000000      2.000000
  0.000000  0.033782  0.000000      2.000000
  0.009749  0.033782  0.000000      4.000000
  0.019498  0.033782  0.000000      4.000000
  0.029247  0.033782  0.000000      4.000000
  0.038996  0.033782  0.000000      4.000000
  0.048745  0.033782  0.000000      4.000000
  0.058495  0.033782  0.000000      4.000000
  0.068244  0.033782  0.000000      4.000000
  0.077993  0.033782  0.000000      4.000000
  0.087742  0.033782  0.000000      4.000000
  0.097491  0.033782  0.000000      4.000000
  0.107240  0.033782  0.000000      4.000000
  0.116989  0.033782  0.000000      2.000000
  0.000000  0.045043  0.000000      2.000000
  0.009749  0.045043  0.000000      4.000000
  0.019498  0.045043  0.000000      4.000000
  0.029247  0.045043  0.000000      4.000000
  0.038996  0.045043  0.000000      4.000000
  0.048745  0.045043  0.000000      4.000000
  0.058495  0.045043  0.000000      4.000000
  0.068244  0.045043  0.000000      4.000000
[...]
  0.107240  0.191431  0.000000      4.000000
  0.116989  0.191431  0.000000      2.000000
  0.000000  0.202691  0.000000      1.000000
  0.009749  0.202691  0.000000      2.000000
  0.019498  0.202691  0.000000      2.000000
  0.029247  0.202691  0.000000      2.000000
  0.038996  0.202691  0.000000      2.000000
  0.048745  0.202691  0.000000      2.000000
  0.058495  0.202691  0.000000      2.000000
  0.068244  0.202691  0.000000      2.000000
  0.077993  0.202691  0.000000      2.000000
  0.087742  0.202691  0.000000      2.000000
  0.097491  0.202691  0.000000      2.000000
  0.107240  0.202691  0.000000      2.000000
  0.116989  0.202691  0.000000      1.000000

 I would recommend the setting:
   dimension x,y,z NGX =    62 NGY =   36 NGZ =  292
[...]
 k-point ** :   0.3750 0.2778 0.0000  plane waves:   42817
 k-point ** :   0.4167 0.2778 0.0000  plane waves:   42810
 k-point ** :   0.4583 0.2778 0.0000  plane waves:   42822
 k-point ** :   0.5000 0.2778 0.0000  plane waves:   42834
 k-point ** :   0.0000 0.3056 0.0000  plane waves:   42888
 k-point ** :   0.0417 0.3056 0.0000  plane waves:   42902
 k-point ** :   0.0833 0.3056 0.0000  plane waves:   42865
 k-point ** :   0.1250 0.3056 0.0000  plane waves:   42865
 k-point ** :   0.1667 0.3056 0.0000  plane waves:   42886
 k-point ** :   0.2083 0.3056 0.0000  plane waves:   42868
 k-point ** :   0.2500 0.3056 0.0000  plane waves:   42847
 k-point ** :   0.2917 0.3056 0.0000  plane waves:   42835
 k-point ** :   0.3333 0.3056 0.0000  plane waves:   42842
 k-point ** :   0.3750 0.3056 0.0000  plane waves:   42830
 k-point ** :   0.4167 0.3056 0.0000  plane waves:   42820
 k-point ** :   0.4583 0.3056 0.0000  plane waves:   42818
 k-point ** :   0.5000 0.3056 0.0000  plane waves:   42852
 k-point ** :   0.0000 0.3333 0.0000  plane waves:   42912
 k-point ** :   0.0417 0.3333 0.0000  plane waves:   42901
 k-point ** :   0.0833 0.3333 0.0000  plane waves:   42869
[...]
 k-point ** :   0.4583 0.4722 0.0000  plane waves:   42821
 k-point ** :   0.5000 0.4722 0.0000  plane waves:   42838
 k-point ** :   0.0000 0.5000 0.0000  plane waves:   42878
 k-point ** :   0.0417 0.5000 0.0000  plane waves:   42944
 k-point ** :   0.0833 0.5000 0.0000  plane waves:   42928
 k-point ** :   0.1250 0.5000 0.0000  plane waves:   42926
 k-point ** :   0.1667 0.5000 0.0000  plane waves:   42910
 k-point ** :   0.2083 0.5000 0.0000  plane waves:   42938
 k-point ** :   0.2500 0.5000 0.0000  plane waves:   42932
 k-point ** :   0.2917 0.5000 0.0000  plane waves:   42888
 k-point ** :   0.3333 0.5000 0.0000  plane waves:   42858
 k-point ** :   0.3750 0.5000 0.0000  plane waves:   42814
 k-point ** :   0.4167 0.5000 0.0000  plane waves:   42792
 k-point ** :   0.4583 0.5000 0.0000  plane waves:   42822
 k-point ** :   0.5000 0.5000 0.0000  plane waves:   42816

 maximum and minimum number of plane-waves per node :     21509    21252

 maximum number of plane-waves:     42947
 maximum index in each direction:
   IXMAX=   15   IYMAX=    8   IZMAX=   72
   IXMIN=  -16   IYMIN=   -9   IZMIN=  -72

 NGX is ok and might be reduce to  64
 NGY is ok and might be reduce to  36
 NGZ is ok and might be reduce to 290

 parallel 3D FFT for wavefunctions:
    minimum data exchange during FFTs selected (reduces bandwidth)
 parallel 3D FFT for charge:
    minimum data exchange during FFTs selected (reduces bandwidth)

 Broyden mixing: mesh for mixing (old mesh)
   NGX = 31   NGY = 17   NGZ =145
  (NGX  =128   NGY  = 72   NGZ  =588)
  gives a total of  76415 points

 initial charge density was supplied:
 charge density of overlapping atoms calculated
 number of electron      16.0000000 magnetization
 keeping initial charge density in first step

 Maximum index for augmentation-charges         4659 (set IRDMAX)

 First call to EWALD:  gamma=   0.298
 Maximum number of real-space cells 4x 6x 1
 Maximum number of reciprocal cells 2x 1x 8

 FEWALD executed in parallel

----------------------------------------- Iteration    1(   1)  ---------------------------------------

 eigenvalue-minimisations  :  5928
 total energy-change (2. order) : 0.1908308E+03  (-0.1062857E+04)
 number of electron      16.0000000 magnetization
 augmentation part       16.0000000 magnetization

 Free energy of the ion-electron system (eV)
  alpha Z        PSCENC =         6.18334092
  Ewald energy   TEWEN  =      2586.23169032
  -Hartree energ DENC   =     -3011.63094867
  -exchange      EXHF   =         0.00000000
  -V(xc)+E(xc)   XCENC  =        55.09638185
  PAW double counting   =       151.32577238     -155.92769107
  entropy T*S    EENTRO =        -0.00192532
  eigenvalues    EBANDS =       -29.06930553
  atomic energy  EATOM  =       588.62352690
  free energy    TOTEN  =       190.83084179 eV

  energy without entropy =      190.83276710  energy(sigma->0) =      190.83180444

[...]

 eigenvalue-minimisations  : 10316
 total energy-change (2. order) :-0.1995120E+03  (-0.1754543E+03)
 number of electron      16.0000000 magnetization
 augmentation part       16.0000000 magnetization

[...]

 Broyden mixing:
  rms(total) = 0.73477E+00    rms(broyden)= 0.73477E+00
  rms(prec ) = 0.79877E+00
  weight for this iteration     100.00

[...]

 eigenvalues of (default mixing * dielectric matrix)
  average eigenvalue GAMMA=   2.3172
  2.3172

[...]

 average (electrostatic) potential at core
  the test charge radii are     0.6991
  (the norm of the test charge is              1.0000)
       1 -58.1896       2 -58.1896       3 -58.1896       4 -58.1896

 E-fermi :  -2.7538     XC(G=0):  -2.1427     alpha+bet : -1.9046

 k-point     1 :       0.0000    0.0000    0.0000
  band No.  band energies     occupation
      1     -22.2536      2.00000
      2     -17.0277      2.00000
      3     -15.9631      2.00000
      4     -10.3589      2.00000
      5      -9.1628      2.00000
      6      -5.8020      2.00000
      7      -5.7697      2.00000
      8      -5.1210      2.00000
      9      -1.0620      0.00000
     10       0.5239      0.00000
     11       1.3252      0.00000
     12       1.7061      0.00000

[...]

 soft charge-density along one line, spin component           1
         0         1         2         3         4         5         6         7         8         9
 total charge-density along one line

------------------------ aborting loop because EDIFF is reached ----------------------------------------

  FORCE on cell =-STRESS in cart. coord.  units (eV):
  Direction    XX          YY          ZZ          XY          YZ          ZX
  Alpha Z     6.18334     6.18334     6.18334
  Ewald    3123.18864  3124.25446 -3661.21168     0.00000     0.00000    -0.00000
  Hartree  3057.44045  3057.59403 -3034.85609    -0.00000    -0.00000    -0.00000
  E(xc)     -58.34112   -58.33748   -60.67837    -0.00000    -0.00000    -0.00000
  Local   -6353.17907 -6354.19540  6489.90959     0.00000    -0.00000    -0.00000
  n-local   -13.94796   -13.94824   -12.76719     0.05676     0.00000    -0.00000
  augment    -1.54096    -1.54259    -1.41437    -0.00000     0.00000    -0.00000
  Kinetic   240.15276   240.04748   274.83346    -4.60131    -0.00000     0.00000
  Fock        0.00000     0.00000     0.00000     0.00000     0.00000     0.00000
  Total      -0.04392     0.05559    -0.00132     0.00000     0.00000     0.00000
  in kB      -0.33378     0.42246    -0.01000     0.00000     0.00000     0.00000

 VOLUME and BASIS-vectors are now :
  energy-cutoff  :     2000.00
  volume of cell :      210.84
      direct lattice vectors                 reciprocal lattice vectors
     4.273899385  0.000000000  0.000000000     0.233978367  0.000000000  0.000000000
     0.000000000  2.466805780  0.000000000     0.000000000  0.405382543  0.000000000
     0.000000000  0.000000000 19.998132128     0.000000000  0.000000000  0.050004670

[...]

 FORCES acting on ions
    electron-ion (+dipol)            ewald-force                    non-local-force                 convergence-correction
   0.225E+00 0.717E-16 0.286E-09   -.264E+00 -.127E-14 0.289E-32   -.218E-01 0.000E+00 0.000E+00   0.223E-06 -.303E-14 0.194E-12
   -.225E+00 0.121E-13 -.453E-08   0.264E+00 -.323E-14 -.847E-20   0.218E-01 0.000E+00 0.000E+00   -.223E-06 0.875E-15 0.194E-12
   0.225E+00 0.589E-12 0.300E-09   -.264E+00 0.106E-14 -.289E-32   -.218E-01 0.000E+00 0.000E+00   0.223E-06 -.318E-14 0.194E-12
   -.225E+00 0.810E-16 -.454E-08   0.264E+00 -.907E-15 0.847E-20   0.218E-01 0.000E+00 0.000E+00   -.223E-06 0.982E-15 0.194E-12
   -.457E-06 0.601E-12 -.849E-08   0.400E-14 -.435E-14 -.181E-34   0.104E-16 0.000E+00 0.000E+00   -.105E-11 -.436E-14 0.777E-12

 POSITION                                       TOTAL-FORCE (eV/Angst)
      0.00056      0.00000      0.00000        -0.060758      0.000000      0.000000
      0.71175      1.23340      0.00000         0.060758     -0.000000      0.000000
      2.13751      1.23340      0.00000        -0.060758      0.000000      0.000000
      2.84870      0.00000      0.00000         0.060758     -0.000000      0.000000
    total drift:                               -0.000000      0.000000     -0.000000

  FREE ENERGIE OF THE ION-ELECTRON SYSTEM (eV)
  free  energy   TOTEN  =       -36.92541268 eV

  energy  without entropy=      -36.92528664  energy(sigma->0) =      -36.92534966

 Quasi-Newton relaxation of ions (Broydens 2nd method)
  g(Force)  = 0.712E-03   g(Stress)= 0.000E+00

 Reset! Starting new Quasi-Newton update for ions

[...]

WARNING in EDDRMM: call to ZHEGV failed, returncode =   6  3  1

[...]

 d Force =-0.1082704E-02[-0.288E-02, 0.712E-03]  d Energy =-0.1074650E-02-0.805E-05
 d Force =-0.3040665E-02[-0.918E-02, 0.310E-02]  d Ewald  =-0.3020452E-02-0.202E-04

[...]

 retain information from N=  1 steps
 eigenvalues of (default step * inverse Hessian matrix)
  average eigenvalue of G=   0.1984
 eigenvalue spectrum of G is  0.1984

[...]

WARNING in EDDRMM: call to ZHEGV failed, returncode =   6  3  1

[...]

 d Force = 0.1150819E-02[-0.512E-05, 0.231E-02]  d Energy = 0.1145956E-02 0.486E-05
 d Force = 0.3406013E-02[-0.546E-03, 0.736E-02]  d Ewald  = 0.3395598E-02 0.104E-04

[...]

 d Force = 0.5515882E-08[-0.302E-09, 0.113E-07]  d Energy = 0.6280743E-08-0.765E-09
 d Force = 0.1190099E-05[ 0.117E-05, 0.121E-05]  d Ewald  = 0.1190098E-05 0.909E-12

[...]

 eigenvalue-minimisations  :  6736
 total energy-change (2. order) : 0.5459242E-09  ( 0.5594148E-09)
 number of electron      16.0000000 magnetization
 augmentation part        0.3818452 magnetization

[...]

 eigenvalue-minimisations  :  2518
 total energy-change (2. order) :-0.6414211E-09  ( 0.1972620E-12)
 number of electron      16.0000000 magnetization
 augmentation part        0.3818452 magnetization

[...]

 eigenvalue-minimisations  :  1689
 total energy-change (2. order) : 0.2887646E-10  (-0.6697523E-13)
 number of electron      16.0000000 magnetization
 augmentation part        0.3818452 magnetization

[...]

 d Force = 0.1747710E-11[-0.435E-11, 0.784E-11]  d Energy =-0.1011813E-10 0.119E-10
 d Force =-0.3041479E-07[-0.304E-07,-0.304E-07]  d Ewald  =-0.3041396E-07-0.909E-12

[...]

 d Force = 0.1013571E-11[ 0.476E-12, 0.155E-11]  d Energy =-0.2675051E-09 0.269E-09
 d Force = 0.1085122E-07[ 0.108E-07, 0.109E-07]  d Ewald  = 0.1085073E-07 0.455E-12

[...]

 FEWALD executed in parallel

[...]

 eigenvalue-minimisations  :  1032
 total energy-change (2. order) :-0.4339427E-09  (-0.9621933E-15)
 number of electron      16.0000000 magnetization
 augmentation part        0.3818452 magnetization

[...]

 eigenvalue-minimisations  :  1106
 total energy-change (2. order) :-0.9242740E-10  ( 0.1282924E-14)
 number of electron      16.0000000 magnetization
 augmentation part        0.3818452 magnetization

 Broyden mixing:
  rms(total) = 0.24950E-09    rms(broyden)= 0.24948E-09
  rms(prec ) = 0.29234E-09
  weight for this iteration     100.00

 eigenvalues of (default mixing * dielectric matrix)
  average eigenvalue GAMMA=   2.0773
  1.0250  2.6483  2.5586

[...]

----------------------------------------- Iteration    7(   5)  ---------------------------------------

 eigenvalue-minimisations  :   963
 total energy-change (2. order) : 0.8367351E-10  ( 0.5057683E-15)
 number of electron      16.0000000 magnetization
 augmentation part        0.3818452 magnetization

 Free energy of the ion-electron system (eV)
  alpha Z        PSCENC =         6.18334092
  Ewald energy   TEWEN  =      2586.23131400
  -Hartree energ DENC   =     -3080.17808026
  -exchange      EXHF   =         0.00000000
  -V(xc)+E(xc)   XCENC  =        57.52090185
  PAW double counting   =       277.04286707     -282.19156436
  entropy T*S    EENTRO =        -0.00013047
  eigenvalues    EBANDS =      -190.15765965
  atomic energy  EATOM  =       588.62352690
  free energy    TOTEN  =       -36.92548399 eV

  energy without entropy =      -36.92535353  energy(sigma->0) =      -36.92541876

 average (electrostatic) potential at core
  the test charge radii are     0.6991
  (the norm of the test charge is              1.0000)
       1 -58.1896       2 -58.1896       3 -58.1896       4 -58.1896

 E-fermi :  -2.7538     XC(G=0):  -2.1422     alpha+bet : -1.9046

[...]

 k-point   247 :       0.5000    0.5000    0.0000
  band No.  band energies     occupation
      1     -17.0189      2.00000
      2     -17.0189      2.00000
      3     -15.9731      2.00000
      4     -15.9731      2.00000
      5      -9.1602      2.00000
      6      -9.1602      2.00000
      7      -5.1093      2.00000
      8      -5.1093      2.00000
      9      -1.0751      0.00000
     10      -1.0751      0.00000
     11       4.6044      0.00000
     12       4.6044      0.00000

 soft charge-density along one line, spin component           1
         0         1         2         3         4         5         6         7         8         9
 total charge-density along one line

------------------------ aborting loop because EDIFF is reached ----------------------------------------

  FORCE on cell =-STRESS in cart. coord.  units (eV):
  Direction    XX          YY          ZZ          XY          YZ          ZX
  Alpha Z     6.18334     6.18334     6.18334
  Ewald    3123.70292  3123.73980 -3661.21168    -0.00000     0.00000    -0.00000
  Hartree  3057.51111  3057.52304 -3034.85607    -0.00000    -0.00000    -0.00000
  E(xc)     -58.33915   -58.33942   -60.67836     0.00000    -0.00000    -0.00000
  Local   -6353.66566 -6353.70840  6489.90968    -0.00000     0.00000     0.00000
  n-local   -13.94381   -13.95240   -12.76718     0.05608     0.00000    -0.00000
  augment    -1.54177    -1.54177    -1.41437    -0.00000    -0.00000    -0.00000
  Kinetic   240.07156   240.12841   274.83332    -4.59875    -0.00000     0.00000
  Fock        0.00000     0.00000     0.00000     0.00000     0.00000     0.00000
  Total      -0.02146     0.03260    -0.00132     0.00000     0.00000     0.00000
  in kB      -0.16309     0.24776    -0.01006     0.00000     0.00000     0.00000

 VOLUME and BASIS-vectors are now :
  energy-cutoff  :     2000.00
  volume of cell :      210.84
      direct lattice vectors                 reciprocal lattice vectors
     4.273899385  0.000000000  0.000000000     0.233978367  0.000000000  0.000000000
     0.000000000  2.466805780  0.000000000     0.000000000  0.405382543  0.000000000
     0.000000000  0.000000000 19.998132128     0.000000000  0.000000000  0.050004670

  length of vectors
     4.273899385  2.466805780 19.998132128     0.233978367  0.405382543  0.050004670

 FORCES acting on ions
    electron-ion (+dipol)            ewald-force                    non-local-force                 convergence-correction
   0.562E-01 0.659E-16 -.138E-10   -.563E-01 0.385E-14 -.142E-17   0.610E-04 -.104E-16 0.323E-26   -.106E-09 -.121E-14 -.287E-11
   -.562E-01 -.160E-12 -.520E-08   0.563E-01 -.460E-14 0.129E-17   -.610E-04 -.694E-17 -.323E-26   0.106E-09 0.807E-16 -.286E-11
   0.562E-01 -.196E-12 -.290E-10   -.563E-01 -.428E-14 0.124E-18   0.610E-04 -.104E-16 0.323E-26   -.106E-09 0.641E-16 -.289E-11
   -.562E-01 0.819E-16 -.518E-08   0.563E-01 0.677E-15 0.678E-20   -.610E-04 -.694E-17 -.404E-26   0.106E-09 -.116E-14 -.291E-11
   -.481E-06 -.356E-12 -.104E-07   0.396E-14 -.435E-14 -.963E-34   -.136E-19 -.347E-16 -.808E-27   -.131E-14 -.223E-14 -.115E-10

 POSITION                                       TOTAL-FORCE (eV/Angst)
     -0.00002      0.00000     -0.00000        -0.000001     -0.000000      0.000000
      0.71234      1.23340      0.00000         0.000001     -0.000000     -0.000000
      2.13693      1.23340     -0.00000        -0.000001     -0.000000      0.000000
      2.84929     -0.00000      0.00000         0.000001      0.000000     -0.000000
    total drift:                               -0.000000     -0.000000     -0.000000

  FREE ENERGIE OF THE ION-ELECTRON SYSTEM (eV)
  free  energy   TOTEN  =       -36.92548399 eV

  energy  without entropy=      -36.92535353  energy(sigma->0) =      -36.92541876

 d Force = 0.1412043E-12[ 0.719E-13, 0.211E-12]  d Energy =-0.4774847E-11 0.492E-11
 d Force = 0.4799680E-08[ 0.480E-08, 0.480E-08]  d Ewald  = 0.4799858E-08 0.000E+00

 Quasi-Newton relaxation of ions (Broydens 2nd method)
  g(Force)  = 0.137E-12   g(Stress)= 0.000E+00

 retain information from N=  1 steps
 eigenvalues of (default step * inverse Hessian matrix)
  average eigenvalue of G=   0.2718
 eigenvalue spectrum of G is  0.2718

 reached required accuracy - stopping structural energy minimisation