 vasp.5.3.5 31Mar14 (build Mar 02 2015 18:14:16) complex

 executed on             LinuxIFC date 2018.08.10  14:34:56

 INCAR:
 POTCAR:   PAW_PBE C 08Apr2002
 POTCAR:   PAW_PBE C 08Apr2002
   VRHFIN =C: s2p2

   TITEL  = PAW_PBE C 08Apr2002
   POMASS =   12.011; ZVAL   =    4.000    mass and valenz
   ENMAX  =  400.000; ENMIN  =  300.000 eV
   QCUT   =   -5.516; QGAM   =   11.032    optimization parameters

   Description
     l     E      TYP  RCUT    TYP  RCUT
     0   .000     23  1.200
     0   .000     23  1.200
     1   .000     23  1.500
     1  2.500     23  1.500
     2   .000      7  1.500

 PAW_PBE C 08Apr2002                    :

 POSCAR: MD-kMC export data
  positions in direct lattice
  velocities in cartesian coordinates
 exchange correlation table for  LEXCH =        8
   RHO(1)=    0.500       N(1)  =     2000
   RHO(2)=  100.500       N(2)  =     4000

 ion  position               nearest neighbor table
   1  0.999  0.000  0.000-   2 1.43   2 1.43   4 1.46
   2  0.167  0.500  0.000-   1 1.43   1 1.43   3 1.46
   3  0.499  0.500  0.000-   4 1.43   4 1.43   2 1.46
   4  0.667  0.000  0.000-   3 1.43   3 1.43   1 1.46

  LATTYP: Found a simple orthorhombic cell.
 ALAT       =     2.4553804735
 B/A-ratio  =     1.7928408549
 C/A-ratio  =     7.9442069870

  Lattice vectors:

 A1 = (   0.0000000000,  -2.4553804735,   0.0000000000)
 A2 = (  -4.4021064270,   0.0000000000,   0.0000000000)
 A3 = (   0.0000000000,   0.0000000000, -19.5060507129)

Analysis of symmetry for initial positions (statically):
 Subroutine PRICEL returns following result:

  LATTYP: Found a base centered orthorhombic cell.
 ALAT       =     2.4553804735
 B/A-ratio  =     1.7928408549
 C/A-ratio  =     7.9442069870

[...]

   2 primitive cells build up your supercell.

 Routine SETGRP: Setting up the symmetry group for a
 simple orthorhombic supercell.

 Subroutine GETGRP returns: Found  8 space group operations
 (whereof  4 operations were pure point group operations)
 out of a pool of  8 trial point group operations.

The static configuration has the point symmetry C_2v.
 The point group associated with its full space group is D_2h.

Analysis of symmetry for dynamics (positions and initial velocities):
 Subroutine PRICEL returns following result:

  LATTYP: Found a base centered orthorhombic cell.
 ALAT       =     2.4553804735
 B/A-ratio  =     1.7928408549
 C/A-ratio  =     7.9442069870

  Lattice vectors:

 A1 = (   2.2010532135,  -1.2276902367,   0.0000000000)
 A2 = (  -2.2010532135,  -1.2276902367,   0.0000000000)
 A3 = (   0.0000000000,   0.0000000000, -19.5060507129)

   2 primitive cells build up your supercell.

 Routine SETGRP: Setting up the symmetry group for a
 simple orthorhombic supercell.

 Subroutine GETGRP returns: Found  8 space group operations
 (whereof  4 operations were pure point group operations)
 out of a pool of  8 trial point group operations.

The dynamic configuration has the point symmetry C_2v.
 The point group associated with its full space group is D_2h.

 KPOINTS: Automatic mesh

Automatic generation of k-mesh.
Space group operators:
 irot       det(A)        alpha          n_x          n_y          n_z        tau_x        tau_y        tau_z
    1     1.000000     0.000000     1.000000     0.000000     0.000000     0.000000     0.000000     0.000000
    2    -1.000000   180.000000     0.000000     0.000000     1.000000     0.000000     0.000000     0.000000
    3     1.000000   180.000000     1.000000     0.000000     0.000000     0.000000     0.000000     0.000000
    4    -1.000000   180.000000     0.000000     1.000000     0.000000     0.000000     0.000000     0.000000
    5    -1.000000     0.000000     1.000000     0.000000     0.000000     0.166667    -0.500000     0.000000
    6     1.000000   180.000000     0.000000     0.000000     1.000000     0.166667    -0.500000     0.000000
    7    -1.000000   180.000000     1.000000     0.000000     0.000000     0.166667    -0.500000     0.000000
    8     1.000000   180.000000     0.000000     1.000000     0.000000     0.166667    -0.500000     0.000000

 Subroutine IBZKPT returns following result:

 Found    247 irreducible k-points:

 Following reciprocal coordinates:
            Coordinates               Weight
  0.000000  0.000000  0.000000      1.000000
  0.041667  0.000000  0.000000      2.000000
  0.083333  0.000000  0.000000      2.000000
  0.125000  0.000000  0.000000      2.000000
  0.166667  0.000000  0.000000      2.000000
  0.208333  0.000000  0.000000      2.000000
  0.250000  0.000000  0.000000      2.000000
  0.291667  0.000000  0.000000      2.000000
  0.333333  0.000000  0.000000      2.000000
  0.375000  0.000000  0.000000      2.000000
  0.416667  0.000000  0.000000      2.000000
  0.458333  0.000000  0.000000      2.000000
  0.500000  0.000000  0.000000      1.000000
  0.000000  0.027778  0.000000      2.000000
  0.041667  0.027778  0.000000      4.000000
  0.083333  0.027778  0.000000      4.000000
  0.125000  0.027778  0.000000      4.000000
  0.166667  0.027778  0.000000      4.000000
  0.208333  0.027778  0.000000      4.000000
  0.250000  0.027778  0.000000      4.000000
  0.291667  0.027778  0.000000      4.000000
  0.333333  0.027778  0.000000      4.000000
  0.375000  0.027778  0.000000      4.000000
  0.416667  0.027778  0.000000      4.000000
  0.458333  0.027778  0.000000      4.000000
  0.500000  0.027778  0.000000      2.000000
  0.000000  0.055556  0.000000      2.000000
  0.041667  0.055556  0.000000      4.000000
  0.083333  0.055556  0.000000      4.000000
  0.125000  0.055556  0.000000      4.000000
  0.166667  0.055556  0.000000      4.000000
  0.208333  0.055556  0.000000      4.000000
  0.250000  0.055556  0.000000      4.000000
  0.291667  0.055556  0.000000      4.000000
  0.333333  0.055556  0.000000      4.000000
  0.375000  0.055556  0.000000      4.000000
  0.416667  0.055556  0.000000      4.000000
  0.458333  0.055556  0.000000      4.000000
  0.500000  0.055556  0.000000      2.000000
  0.000000  0.083333  0.000000      2.000000
  0.041667  0.083333  0.000000      4.000000
  0.083333  0.083333  0.000000      4.000000
  0.125000  0.083333  0.000000      4.000000
  0.166667  0.083333  0.000000      4.000000
  0.208333  0.083333  0.000000      4.000000
  0.250000  0.083333  0.000000      4.000000
  0.291667  0.083333  0.000000      4.000000
  0.333333  0.083333  0.000000      4.000000
  0.375000  0.083333  0.000000      4.000000
  0.416667  0.083333  0.000000      4.000000
  0.458333  0.083333  0.000000      4.000000
  0.500000  0.083333  0.000000      2.000000
  0.000000  0.111111  0.000000      2.000000
  0.041667  0.111111  0.000000      4.000000
  0.083333  0.111111  0.000000      4.000000
  0.125000  0.111111  0.000000      4.000000
  0.166667  0.111111  0.000000      4.000000
  0.208333  0.111111  0.000000      4.000000
  0.250000  0.111111  0.000000      4.000000
  0.291667  0.111111  0.000000      4.000000
[...]
  0.458333  0.472222  0.000000      4.000000
  0.500000  0.472222  0.000000      2.000000
  0.000000  0.500000  0.000000      1.000000
  0.041667  0.500000  0.000000      2.000000
  0.083333  0.500000  0.000000      2.000000
  0.125000  0.500000  0.000000      2.000000
  0.166667  0.500000  0.000000      2.000000
  0.208333  0.500000  0.000000      2.000000
  0.250000  0.500000  0.000000      2.000000
  0.291667  0.500000  0.000000      2.000000
  0.333333  0.500000  0.000000      2.000000
  0.375000  0.500000  0.000000      2.000000
  0.416667  0.500000  0.000000      2.000000
  0.458333  0.500000  0.000000      2.000000
  0.500000  0.500000  0.000000      1.000000

 Following cartesian coordinates:
            Coordinates               Weight
  0.000000  0.000000  0.000000      1.000000
  0.009465  0.000000  0.000000      2.000000
  0.018930  0.000000  0.000000      2.000000
  0.028395  0.000000  0.000000      2.000000
  0.037861  0.000000  0.000000      2.000000
  0.047326  0.000000  0.000000      2.000000
  0.056791  0.000000  0.000000      2.000000
  0.066256  0.000000  0.000000      2.000000
  0.075721  0.000000  0.000000      2.000000
  0.085186  0.000000  0.000000      2.000000
  0.094652  0.000000  0.000000      2.000000
  0.104117  0.000000  0.000000      2.000000
  0.113582  0.000000  0.000000      1.000000
  0.000000  0.011313  0.000000      2.000000
  0.009465  0.011313  0.000000      4.000000
  0.018930  0.011313  0.000000      4.000000
  0.028395  0.011313  0.000000      4.000000
  0.037861  0.011313  0.000000      4.000000
  0.047326  0.011313  0.000000      4.000000
  0.056791  0.011313  0.000000      4.000000
  0.066256  0.011313  0.000000      4.000000
  0.075721  0.011313  0.000000      4.000000
  0.085186  0.011313  0.000000      4.000000
  0.094652  0.011313  0.000000      4.000000
  0.104117  0.011313  0.000000      4.000000
  0.113582  0.011313  0.000000      2.000000
  0.000000  0.022626  0.000000      2.000000
  0.009465  0.022626  0.000000      4.000000
  0.018930  0.022626  0.000000      4.000000
  0.028395  0.022626  0.000000      4.000000
  0.037861  0.022626  0.000000      4.000000
  0.047326  0.022626  0.000000      4.000000
  0.056791  0.022626  0.000000      4.000000
  0.066256  0.022626  0.000000      4.000000
  0.075721  0.022626  0.000000      4.000000
  0.085186  0.022626  0.000000      4.000000
  0.094652  0.022626  0.000000      4.000000
  0.104117  0.022626  0.000000      4.000000
  0.113582  0.022626  0.000000      2.000000
  0.000000  0.033939  0.000000      2.000000
  0.009465  0.033939  0.000000      4.000000
  0.018930  0.033939  0.000000      4.000000
  0.028395  0.033939  0.000000      4.000000
  0.037861  0.033939  0.000000      4.000000
  0.047326  0.033939  0.000000      4.000000
  0.056791  0.033939  0.000000      4.000000
  0.066256  0.033939  0.000000      4.000000
  0.075721  0.033939  0.000000      4.000000
  0.085186  0.033939  0.000000      4.000000
  0.094652  0.033939  0.000000      4.000000
  0.104117  0.033939  0.000000      4.000000
  0.113582  0.033939  0.000000      2.000000
  0.000000  0.045252  0.000000      2.000000
  0.009465  0.045252  0.000000      4.000000
  0.018930  0.045252  0.000000      4.000000
  0.028395  0.045252  0.000000      4.000000
  0.037861  0.045252  0.000000      4.000000
  0.047326  0.045252  0.000000      4.000000
  0.056791  0.045252  0.000000      4.000000
  0.066256  0.045252  0.000000      4.000000
[...]
  0.104117  0.192321  0.000000      4.000000
  0.113582  0.192321  0.000000      2.000000
  0.000000  0.203634  0.000000      1.000000
  0.009465  0.203634  0.000000      2.000000
  0.018930  0.203634  0.000000      2.000000
  0.028395  0.203634  0.000000      2.000000
  0.037861  0.203634  0.000000      2.000000
  0.047326  0.203634  0.000000      2.000000
  0.056791  0.203634  0.000000      2.000000
  0.066256  0.203634  0.000000      2.000000
  0.075721  0.203634  0.000000      2.000000
  0.085186  0.203634  0.000000      2.000000
  0.094652  0.203634  0.000000      2.000000
  0.104117  0.203634  0.000000      2.000000
  0.113582  0.203634  0.000000      1.000000

 I would recommend the setting:
   dimension x,y,z NGX =    64 NGY =   36 NGZ =  285
[...]
 k-point ** :   0.2083 0.2778 0.0000  plane waves:   42862
 k-point ** :   0.2500 0.2778 0.0000  plane waves:   42857
 k-point ** :   0.2917 0.2778 0.0000  plane waves:   42847
 k-point ** :   0.3333 0.2778 0.0000  plane waves:   42840
 k-point ** :   0.3750 0.2778 0.0000  plane waves:   42825
 k-point ** :   0.4167 0.2778 0.0000  plane waves:   42858
 k-point ** :   0.4583 0.2778 0.0000  plane waves:   42859
 k-point ** :   0.5000 0.2778 0.0000  plane waves:   42870
 k-point ** :   0.0000 0.3056 0.0000  plane waves:   42816
 k-point ** :   0.0417 0.3056 0.0000  plane waves:   42816
 k-point ** :   0.0833 0.3056 0.0000  plane waves:   42828
 k-point ** :   0.1250 0.3056 0.0000  plane waves:   42863
 k-point ** :   0.1667 0.3056 0.0000  plane waves:   42877
 k-point ** :   0.2083 0.3056 0.0000  plane waves:   42873
 k-point ** :   0.2500 0.3056 0.0000  plane waves:   42848
 k-point ** :   0.2917 0.3056 0.0000  plane waves:   42861
 k-point ** :   0.3333 0.3056 0.0000  plane waves:   42853
 k-point ** :   0.3750 0.3056 0.0000  plane waves:   42860
 k-point ** :   0.4167 0.3056 0.0000  plane waves:   42863
 k-point ** :   0.4583 0.3056 0.0000  plane waves:   42873
 k-point ** :   0.5000 0.3056 0.0000  plane waves:   42902
 k-point ** :   0.0000 0.3333 0.0000  plane waves:   42832
 k-point ** :   0.0417 0.3333 0.0000  plane waves:   42829
 k-point ** :   0.0833 0.3333 0.0000  plane waves:   42820
[...]
 k-point ** :   0.4583 0.4722 0.0000  plane waves:   42960
 k-point ** :   0.5000 0.4722 0.0000  plane waves:   42960
 k-point ** :   0.0000 0.5000 0.0000  plane waves:   42746
 k-point ** :   0.0417 0.5000 0.0000  plane waves:   42750
 k-point ** :   0.0833 0.5000 0.0000  plane waves:   42800
 k-point ** :   0.1250 0.5000 0.0000  plane waves:   42814
 k-point ** :   0.1667 0.5000 0.0000  plane waves:   42842
 k-point ** :   0.2083 0.5000 0.0000  plane waves:   42868
 k-point ** :   0.2500 0.5000 0.0000  plane waves:   42904
 k-point ** :   0.2917 0.5000 0.0000  plane waves:   42956
 k-point ** :   0.3333 0.5000 0.0000  plane waves:   42964
 k-point ** :   0.3750 0.5000 0.0000  plane waves:   42970
 k-point ** :   0.4167 0.5000 0.0000  plane waves:   42932
 k-point ** :   0.4583 0.5000 0.0000  plane waves:   42956
 k-point ** :   0.5000 0.5000 0.0000  plane waves:   43008

 maximum and minimum number of plane-waves per node :     21504    21274

 maximum number of plane-waves:     43008
 maximum index in each direction:
   IXMAX=   16   IYMAX=    8   IZMAX=   71
   IXMIN=  -16   IYMIN=   -9   IZMIN=  -71

 WARNING: aliasing errors must be expected set NGX to  66 to avoid them
 NGY is ok and might be reduce to  36
 NGZ is ok and might be reduce to 286
 aliasing errors are usually negligible using standard VASP settings
 and one can safely disregard these warnings

 parallel 3D FFT for wavefunctions:
    minimum data exchange during FFTs selected (reduces bandwidth)
 parallel 3D FFT for charge:
    minimum data exchange during FFTs selected (reduces bandwidth)

 Broyden mixing: mesh for mixing (old mesh)
   NGX = 33   NGY = 17   NGZ =143
  (NGX  =128   NGY  = 72   NGZ  =576)
  gives a total of  80223 points

 initial charge density was supplied:
 charge density of overlapping atoms calculated
 number of electron      16.0000000 magnetization
 keeping initial charge density in first step

 Maximum index for augmentation-charges         4575 (set IRDMAX)

 First call to EWALD:  gamma=   0.298
 Maximum number of real-space cells 4x 6x 1
 Maximum number of reciprocal cells 2x 1x 8

 FEWALD executed in parallel

----------------------------------------- Iteration    1(   1)  ---------------------------------------

 eigenvalue-minimisations  :  5928
 total energy-change (2. order) : 0.1858442E+03  (-0.1071121E+04)
 number of electron      16.0000000 magnetization
 augmentation part       16.0000000 magnetization

 Free energy of the ion-electron system (eV)
  alpha Z        PSCENC =         6.18334092
  Ewald energy   TEWEN  =      2421.58177425
  -Hartree energ DENC   =     -2851.90984066
  -exchange      EXHF   =         0.00000000
  -V(xc)+E(xc)   XCENC  =        54.75916804
  PAW double counting   =       151.32577238     -155.92769107
  entropy T*S    EENTRO =        -0.00204965
  eigenvalues    EBANDS =       -28.78980269
  atomic energy  EATOM  =       588.62352690
  free energy    TOTEN  =       185.84419843 eV

  energy without entropy =      185.84624808  energy(sigma->0) =      185.84522325

[...]

 eigenvalue-minimisations  : 10436
 total energy-change (2. order) :-0.1950741E+03  (-0.1736782E+03)
 number of electron      16.0000000 magnetization
 augmentation part       16.0000000 magnetization

[...]

 Broyden mixing:
  rms(total) = 0.70164E+00    rms(broyden)= 0.70164E+00
  rms(prec ) = 0.76488E+00
  weight for this iteration     100.00

[...]

 eigenvalues of (default mixing * dielectric matrix)
  average eigenvalue GAMMA=   2.3255
  2.3255

[...]

WARNING in EDDRMM: call to ZHEGV failed, returncode =   6  3  1
WARNING in EDDRMM: call to ZHEGV failed, returncode =   6  3  1
WARNING in EDDRMM: call to ZHEGV failed, returncode =   6  3  1
WARNING in EDDRMM: call to ZHEGV failed, returncode =   6  3  1
WARNING in EDDRMM: call to ZHEGV failed, returncode =   6  3  1

[...]

 average (electrostatic) potential at core
  the test charge radii are     0.6991
  (the norm of the test charge is              1.0000)
       1 -58.3409       2 -58.3409       3 -58.3409       4 -58.3409

 E-fermi :  -2.8378     XC(G=0):  -2.1873     alpha+bet : -1.9046

 k-point     1 :       0.0000    0.0000    0.0000
  band No.  band energies     occupation
      1     -22.0450      2.00000
      2     -17.3030      2.00000
      3     -15.8005      2.00000
      4     -10.1979      2.00000
      5      -8.7360      2.00000
      6      -6.0471      2.00000
      7      -5.7177      2.00000
      8      -5.3801      2.00000
      9      -1.2053      0.00000
     10       0.5491      0.00000
     11       1.3461      0.00000
     12       1.7378      0.00000

[...]

 soft charge-density along one line, spin component           1
         0         1         2         3         4         5         6         7         8         9
 total charge-density along one line

------------------------ aborting loop because EDIFF is reached ----------------------------------------

  FORCE on cell =-STRESS in cart. coord.  units (eV):
  Direction    XX          YY          ZZ          XY          YZ          ZX
  Alpha Z     6.18334     6.18334     6.18334
  Ewald    2950.24236  2954.58936 -3483.25020     0.00000     0.00000    -0.00000
  Hartree  2891.97885  2893.43919 -2869.48337    -0.00000    -0.00000    -0.00000
  E(xc)     -57.87965   -57.91232   -60.21381     0.00000    -0.00000    -0.00000
  Local   -6015.98112 -6021.12308  6147.66737    -0.00000     0.00000     0.00000
  n-local   -12.82210   -13.78521   -12.42106     0.07050     0.00000     0.00000
  augment    -1.46541    -1.46807    -1.36284    -0.00000    -0.00000     0.00000
  Kinetic   233.25791   240.07703   272.87921    -4.42532    -0.00000    -0.00000
  Fock        0.00000     0.00000     0.00000     0.00000     0.00000     0.00000
  Total      -6.48582     0.00023    -0.00136     0.00000     0.00000     0.00000
  in kB     -49.28634     0.00172    -0.01032     0.00000     0.00000     0.00000

 VOLUME and BASIS-vectors are now :
  energy-cutoff  :     2000.00
  volume of cell :      210.84
      direct lattice vectors                 reciprocal lattice vectors
     4.402106427  0.000000000  0.000000000     0.227163976  0.000000000  0.000000000
     0.000000000  2.455380473  0.000000000     0.000000000  0.407268857  0.000000000
     0.000000000  0.000000000 19.506050713     0.000000000  0.000000000  0.051266144

[...]

 FORCES acting on ions
    electron-ion (+dipol)            ewald-force                    non-local-force                 convergence-correction
   0.644E+01 -.435E-16 -.303E-08   -.643E+01 0.422E-14 0.119E-17   -.101E-01 0.139E-16 0.103E-24   -.300E-06 -.575E-15 -.822E-13
   -.644E+01 0.646E-14 -.121E-07   0.643E+01 -.644E-14 -.225E-17   0.101E-01 -.104E-16 0.000E+00   0.300E-06 -.881E-15 -.833E-13
   0.644E+01 -.210E-12 -.306E-08   -.643E+01 0.404E-14 0.241E-17   -.101E-01 0.139E-16 0.000E+00   -.300E-06 -.553E-15 -.822E-13
   -.644E+01 0.490E-15 -.120E-07   0.643E+01 -.661E-14 -.136E-17   0.101E-01 -.347E-17 0.000E+00   0.300E-06 -.850E-15 -.832E-13
   -.738E-06 -.203E-12 -.302E-07   -.178E-14 -.479E-14 0.193E-33   -.173E-17 0.139E-16 0.103E-24   -.121E-12 -.286E-14 -.331E-12

 POSITION                                       TOTAL-FORCE (eV/Angst)
      4.39942      0.00000      0.00000        -0.000273      0.000000     -0.000000
      0.73637      1.22769      0.00000         0.000273     -0.000000      0.000000
      2.19837      1.22769      0.00000        -0.000273     -0.000000     -0.000000
      2.93742      0.00000      0.00000         0.000273      0.000000      0.000000
    total drift:                               -0.000001     -0.000000     -0.000000

  FREE ENERGIE OF THE ION-ELECTRON SYSTEM (eV)
  free  energy   TOTEN  =       -36.82857906 eV

  energy  without entropy=      -36.82857906  energy(sigma->0) =      -36.82857906

 Quasi-Newton relaxation of ions (Broydens 2nd method)
  g(Force)  = 0.144E-07   g(Stress)= 0.000E+00

 Reset! Starting new Quasi-Newton update for ions

[...]

 d Force =-0.1886613E-07[-0.521E-07, 0.144E-07]  d Energy =-0.2194338E-07 0.308E-08
 d Force = 0.3392519E-03[ 0.339E-03, 0.339E-03]  d Ewald  = 0.3392519E-03-0.136E-11

[...]

 retain information from N=  1 steps
 eigenvalues of (default step * inverse Hessian matrix)
  average eigenvalue of G=   0.2166
 eigenvalue spectrum of G is  0.2166

[...]

 d Force = 0.2036038E-07[-0.133E-09, 0.409E-07]  d Energy = 0.2285083E-07-0.249E-08
 d Force =-0.2657628E-03[-0.266E-03,-0.266E-03]  d Ewald  =-0.2657628E-03 0.136E-11

[...]

 eigenvalue-minimisations  :  4896
 total energy-change (2. order) : 0.6124310E-09  ( 0.5280089E-09)
 number of electron      16.0000000 magnetization
 augmentation part        0.3706636 magnetization

[...]

 eigenvalue-minimisations  :  1630
 total energy-change (2. order) : 0.7048584E-11  (-0.2269789E-13)
 number of electron      16.0000000 magnetization
 augmentation part        0.3706636 magnetization

[...]

 d Force =-0.3359436E-13[-0.500E-12, 0.433E-12]  d Energy =-0.1166427E-09 0.117E-09
 d Force = 0.8638089E-06[ 0.864E-06, 0.864E-06]  d Ewald  = 0.8638094E-06-0.455E-12

[...]

 FEWALD executed in parallel

[...]

 eigenvalue-minimisations  :  4416
 total energy-change (2. order) : 0.5525180E-09  ( 0.5301264E-09)
 number of electron      16.0000000 magnetization
 augmentation part        0.3706636 magnetization

[...]

 eigenvalue-minimisations  :  1287
 total energy-change (2. order) :-0.5541096E-09  ( 0.2861908E-14)
 number of electron      16.0000000 magnetization
 augmentation part        0.3706636 magnetization

[...]

 Broyden mixing:
  rms(total) = 0.48381E-09    rms(broyden)= 0.48380E-09
  rms(prec ) = 0.71150E-09
  weight for this iteration     100.00

 eigenvalues of (default mixing * dielectric matrix)
  average eigenvalue GAMMA=   2.1502
  3.1515  2.5859  0.7133

[...]

----------------------------------------- Iteration    5(   5)  ---------------------------------------

 eigenvalue-minimisations  :  1257
 total energy-change (2. order) :-0.1818989E-11  (-0.9745291E-15)
 number of electron      16.0000000 magnetization
 augmentation part        0.3706636 magnetization

 Free energy of the ion-electron system (eV)
  alpha Z        PSCENC =         6.18334092
  Ewald energy   TEWEN  =      2421.58170036
  -Hartree energ DENC   =     -2915.93462762
  -exchange      EXHF   =         0.00000000
  -V(xc)+E(xc)   XCENC  =        57.06298039
  PAW double counting   =       267.15223834     -272.25625636
  entropy T*S    EENTRO =        -0.00000000
  eigenvalues    EBANDS =      -189.24148199
  atomic energy  EATOM  =       588.62352690
  free energy    TOTEN  =       -36.82857906 eV

  energy without entropy =      -36.82857906  energy(sigma->0) =      -36.82857906

 average (electrostatic) potential at core
  the test charge radii are     0.6991
  (the norm of the test charge is              1.0000)
       1 -58.3409       2 -58.3409       3 -58.3409       4 -58.3409

 E-fermi :  -2.8383     XC(G=0):  -2.1847     alpha+bet : -1.9046

[...]

 k-point   247 :       0.5000    0.5000    0.0000
  band No.  band energies     occupation
      1     -16.8093      2.00000
      2     -16.8093      2.00000
      3     -15.8346      2.00000
      4     -15.8346      2.00000
      5      -9.3268      2.00000
      6      -9.3268      2.00000
      7      -4.9912      2.00000
      8      -4.9912      2.00000
      9      -1.1695      0.00000
     10      -1.1695      0.00000
     11       3.7546      0.00000
     12       3.7546      0.00000

 soft charge-density along one line, spin component           1
         0         1         2         3         4         5         6         7         8         9
 total charge-density along one line

------------------------ aborting loop because EDIFF is reached ----------------------------------------

  FORCE on cell =-STRESS in cart. coord.  units (eV):
  Direction    XX          YY          ZZ          XY          YZ          ZX
  Alpha Z     6.18334     6.18334     6.18334
  Ewald    2950.24479  2954.58685 -3483.25020     0.00000     0.00000    -0.00000
  Hartree  2891.97920  2893.43882 -2869.48339    -0.00000    -0.00000    -0.00000
  E(xc)     -57.87964   -57.91233   -60.21381    -0.00000    -0.00000    -0.00000
  Local   -6015.98349 -6021.12067  6147.66742     0.00000    -0.00000     0.00000
  n-local   -12.82208   -13.78523   -12.42106     0.07050    -0.00000     0.00000
  augment    -1.46541    -1.46806    -1.36284    -0.00000    -0.00000    -0.00000
  Kinetic   233.25751   240.07740   272.87921    -4.42531    -0.00000    -0.00000
  Fock        0.00000     0.00000     0.00000     0.00000     0.00000     0.00000
  Total      -6.48577     0.00011    -0.00133     0.00000     0.00000     0.00000
  in kB     -49.28599     0.00085    -0.01012     0.00000     0.00000     0.00000

 VOLUME and BASIS-vectors are now :
  energy-cutoff  :     2000.00
  volume of cell :      210.84
      direct lattice vectors                 reciprocal lattice vectors
     4.402106427  0.000000000  0.000000000     0.227163976  0.000000000  0.000000000
     0.000000000  2.455380473  0.000000000     0.000000000  0.407268857  0.000000000
     0.000000000  0.000000000 19.506050713     0.000000000  0.000000000  0.051266144

  length of vectors
     4.402106427  2.455380473 19.506050713     0.227163976  0.407268857  0.051266144

 FORCES acting on ions
    electron-ion (+dipol)            ewald-force                    non-local-force                 convergence-correction
   0.644E+01 0.910E-16 -.306E-08   -.643E+01 0.274E-14 0.571E-18   -.100E-01 0.139E-16 0.000E+00   -.133E-09 -.161E-14 -.601E-11
   -.644E+01 0.218E-12 -.121E-07   0.643E+01 -.583E-16 0.168E-18   0.100E-01 -.347E-17 0.000E+00   0.133E-09 0.171E-14 -.602E-11
   0.644E+01 0.698E-12 -.304E-08   -.643E+01 -.234E-14 -.542E-18   -.100E-01 0.139E-16 0.000E+00   -.133E-09 -.880E-15 -.599E-11
   -.644E+01 0.128E-15 -.120E-07   0.643E+01 -.513E-14 -.197E-18   0.100E-01 -.347E-17 0.000E+00   0.133E-09 0.958E-15 -.596E-11
   -.738E-06 0.916E-12 -.302E-07   -.178E-14 -.479E-14 0.000E+00   0.000E+00 0.208E-16 0.000E+00   0.311E-14 0.183E-15 -.240E-10

 POSITION                                       TOTAL-FORCE (eV/Angst)
      4.39942      0.00000      0.00000        -0.000001      0.000000      0.000000
      0.73637      1.22769     -0.00000         0.000001     -0.000000      0.000000
      2.19836      1.22769      0.00000        -0.000001      0.000000      0.000000
      2.93743      0.00000     -0.00000         0.000001     -0.000000      0.000000
    total drift:                               -0.000001      0.000000     -0.000000

  FREE ENERGIE OF THE ION-ELECTRON SYSTEM (eV)
  free  energy   TOTEN  =       -36.82857906 eV

  energy  without entropy=      -36.82857906  energy(sigma->0) =      -36.82857906

 d Force = 0.1049795E-12[-0.580E-13, 0.268E-12]  d Energy = 0.1318767E-10-0.131E-10
 d Force =-0.4630163E-06[-0.463E-06,-0.463E-06]  d Ewald  =-0.4630160E-06-0.455E-12

 Quasi-Newton relaxation of ions (Broydens 2nd method)
  g(Force)  = 0.125E-12   g(Stress)= 0.000E+00

 retain information from N=  1 steps
 eigenvalues of (default step * inverse Hessian matrix)
  average eigenvalue of G=   0.0823
 eigenvalue spectrum of G is  0.0823

 reached required accuracy - stopping structural energy minimisation