 vasp.5.3.5 31Mar14 (build Mar 02 2015 18:14:16) complex

 executed on             LinuxIFC date 2018.08.10  15:18:32

 INCAR:
 POTCAR:   PAW_PBE C 08Apr2002
 POTCAR:   PAW_PBE C 08Apr2002
   VRHFIN =C: s2p2

   TITEL  = PAW_PBE C 08Apr2002
   POMASS =   12.011; ZVAL   =    4.000    mass and valenz
   ENMAX  =  400.000; ENMIN  =  300.000 eV
   QCUT   =   -5.516; QGAM   =   11.032    optimization parameters

   Description
     l     E      TYP  RCUT    TYP  RCUT
     0   .000     23  1.200
     0   .000     23  1.200
     1   .000     23  1.500
     1  2.500     23  1.500
     2   .000      7  1.500

 PAW_PBE C 08Apr2002                    :

 POSCAR: MD-kMC export data
  positions in direct lattice
  velocities in cartesian coordinates
 exchange correlation table for  LEXCH =        8
   RHO(1)=    0.500       N(1)  =     2000
   RHO(2)=  100.500       N(2)  =     4000

 ion  position               nearest neighbor table
   1  0.000  0.000  0.000-   2 1.42   2 1.42   4 1.43
   2  0.167  0.500  0.000-   1 1.42   1 1.42   3 1.43
   3  0.500  0.500  0.000-   4 1.42   4 1.42   2 1.43
   4  0.667  0.000  0.000-   3 1.42   3 1.42   1 1.43

  LATTYP: Found a simple orthorhombic cell.
 ALAT       =     2.4672992648
 B/A-ratio  =     1.7321472744
 C/A-ratio  =     8.1039803999

  Lattice vectors:

 A1 = (   0.0000000000,  -2.4672992648,   0.0000000000)
 A2 = (  -4.2737256968,   0.0000000000,   0.0000000000)
 A3 = (   0.0000000000,   0.0000000000, -19.9949448828)

Analysis of symmetry for initial positions (statically):
 Subroutine PRICEL returns following result:

  LATTYP: Found a base centered orthorhombic cell.
 ALAT       =     2.4672992648
 B/A-ratio  =     1.7321472744
 C/A-ratio  =     8.1039803999

[...]

   2 primitive cells build up your supercell.

 Routine SETGRP: Setting up the symmetry group for a
 simple orthorhombic supercell.

 Subroutine GETGRP returns: Found  8 space group operations
 (whereof  4 operations were pure point group operations)
 out of a pool of  8 trial point group operations.

The static configuration has the point symmetry C_2v.
 The point group associated with its full space group is D_2h.

Analysis of symmetry for dynamics (positions and initial velocities):
 Subroutine PRICEL returns following result:

  LATTYP: Found a base centered orthorhombic cell.
 ALAT       =     2.4672992648
 B/A-ratio  =     1.7321472744
 C/A-ratio  =     8.1039803999

  Lattice vectors:

 A1 = (   2.1368628484,  -1.2336496324,   0.0000000000)
 A2 = (  -2.1368628484,  -1.2336496324,   0.0000000000)
 A3 = (   0.0000000000,   0.0000000000, -19.9949448828)

   2 primitive cells build up your supercell.

 Routine SETGRP: Setting up the symmetry group for a
 simple orthorhombic supercell.

 Subroutine GETGRP returns: Found  8 space group operations
 (whereof  4 operations were pure point group operations)
 out of a pool of  8 trial point group operations.

The dynamic configuration has the point symmetry C_2v.
 The point group associated with its full space group is D_2h.

 KPOINTS: Automatic mesh

Automatic generation of k-mesh.
Space group operators:
 irot       det(A)        alpha          n_x          n_y          n_z        tau_x        tau_y        tau_z
    1     1.000000     0.000000     1.000000     0.000000     0.000000     0.000000     0.000000     0.000000
    2    -1.000000   180.000000     0.000000     0.000000     1.000000     0.000000     0.000000     0.000000
    3     1.000000   180.000000     1.000000     0.000000     0.000000     0.000000     0.000000     0.000000
    4    -1.000000   180.000000     0.000000     1.000000     0.000000     0.000000     0.000000     0.000000
    5    -1.000000     0.000000     1.000000     0.000000     0.000000     0.166667    -0.500000     0.000000
    6     1.000000   180.000000     0.000000     0.000000     1.000000     0.166667    -0.500000     0.000000
    7    -1.000000   180.000000     1.000000     0.000000     0.000000     0.166667    -0.500000     0.000000
    8     1.000000   180.000000     0.000000     1.000000     0.000000     0.166667    -0.500000     0.000000

 Subroutine IBZKPT returns following result:

 Found    247 irreducible k-points:

 Following reciprocal coordinates:
            Coordinates               Weight
  0.000000  0.000000  0.000000      1.000000
  0.041667  0.000000  0.000000      2.000000
  0.083333  0.000000  0.000000      2.000000
  0.125000  0.000000  0.000000      2.000000
  0.166667  0.000000  0.000000      2.000000
  0.208333  0.000000  0.000000      2.000000
  0.250000  0.000000  0.000000      2.000000
  0.291667  0.000000  0.000000      2.000000
  0.333333  0.000000  0.000000      2.000000
  0.375000  0.000000  0.000000      2.000000
  0.416667  0.000000  0.000000      2.000000
  0.458333  0.000000  0.000000      2.000000
  0.500000  0.000000  0.000000      1.000000
  0.000000  0.027778  0.000000      2.000000
  0.041667  0.027778  0.000000      4.000000
  0.083333  0.027778  0.000000      4.000000
  0.125000  0.027778  0.000000      4.000000
  0.166667  0.027778  0.000000      4.000000
  0.208333  0.027778  0.000000      4.000000
  0.250000  0.027778  0.000000      4.000000
  0.291667  0.027778  0.000000      4.000000
  0.333333  0.027778  0.000000      4.000000
  0.375000  0.027778  0.000000      4.000000
  0.416667  0.027778  0.000000      4.000000
  0.458333  0.027778  0.000000      4.000000
  0.500000  0.027778  0.000000      2.000000
  0.000000  0.055556  0.000000      2.000000
  0.041667  0.055556  0.000000      4.000000
  0.083333  0.055556  0.000000      4.000000
  0.125000  0.055556  0.000000      4.000000
  0.166667  0.055556  0.000000      4.000000
  0.208333  0.055556  0.000000      4.000000
  0.250000  0.055556  0.000000      4.000000
  0.291667  0.055556  0.000000      4.000000
  0.333333  0.055556  0.000000      4.000000
  0.375000  0.055556  0.000000      4.000000
  0.416667  0.055556  0.000000      4.000000
  0.458333  0.055556  0.000000      4.000000
  0.500000  0.055556  0.000000      2.000000
  0.000000  0.083333  0.000000      2.000000
  0.041667  0.083333  0.000000      4.000000
  0.083333  0.083333  0.000000      4.000000
  0.125000  0.083333  0.000000      4.000000
  0.166667  0.083333  0.000000      4.000000
  0.208333  0.083333  0.000000      4.000000
  0.250000  0.083333  0.000000      4.000000
  0.291667  0.083333  0.000000      4.000000
  0.333333  0.083333  0.000000      4.000000
  0.375000  0.083333  0.000000      4.000000
  0.416667  0.083333  0.000000      4.000000
  0.458333  0.083333  0.000000      4.000000
  0.500000  0.083333  0.000000      2.000000
  0.000000  0.111111  0.000000      2.000000
  0.041667  0.111111  0.000000      4.000000
  0.083333  0.111111  0.000000      4.000000
  0.125000  0.111111  0.000000      4.000000
  0.166667  0.111111  0.000000      4.000000
  0.208333  0.111111  0.000000      4.000000
  0.250000  0.111111  0.000000      4.000000
  0.291667  0.111111  0.000000      4.000000
[...]
  0.458333  0.472222  0.000000      4.000000
  0.500000  0.472222  0.000000      2.000000
  0.000000  0.500000  0.000000      1.000000
  0.041667  0.500000  0.000000      2.000000
  0.083333  0.500000  0.000000      2.000000
  0.125000  0.500000  0.000000      2.000000
  0.166667  0.500000  0.000000      2.000000
  0.208333  0.500000  0.000000      2.000000
  0.250000  0.500000  0.000000      2.000000
  0.291667  0.500000  0.000000      2.000000
  0.333333  0.500000  0.000000      2.000000
  0.375000  0.500000  0.000000      2.000000
  0.416667  0.500000  0.000000      2.000000
  0.458333  0.500000  0.000000      2.000000
  0.500000  0.500000  0.000000      1.000000

 Following cartesian coordinates:
            Coordinates               Weight
  0.000000  0.000000  0.000000      1.000000
  0.009749  0.000000  0.000000      2.000000
  0.019499  0.000000  0.000000      2.000000
  0.029248  0.000000  0.000000      2.000000
  0.038998  0.000000  0.000000      2.000000
  0.048747  0.000000  0.000000      2.000000
  0.058497  0.000000  0.000000      2.000000
  0.068246  0.000000  0.000000      2.000000
  0.077996  0.000000  0.000000      2.000000
  0.087745  0.000000  0.000000      2.000000
  0.097495  0.000000  0.000000      2.000000
  0.107244  0.000000  0.000000      2.000000
  0.116994  0.000000  0.000000      1.000000
  0.000000  0.011258  0.000000      2.000000
  0.009749  0.011258  0.000000      4.000000
  0.019499  0.011258  0.000000      4.000000
  0.029248  0.011258  0.000000      4.000000
  0.038998  0.011258  0.000000      4.000000
  0.048747  0.011258  0.000000      4.000000
  0.058497  0.011258  0.000000      4.000000
  0.068246  0.011258  0.000000      4.000000
  0.077996  0.011258  0.000000      4.000000
  0.087745  0.011258  0.000000      4.000000
  0.097495  0.011258  0.000000      4.000000
  0.107244  0.011258  0.000000      4.000000
  0.116994  0.011258  0.000000      2.000000
  0.000000  0.022517  0.000000      2.000000
  0.009749  0.022517  0.000000      4.000000
  0.019499  0.022517  0.000000      4.000000
  0.029248  0.022517  0.000000      4.000000
  0.038998  0.022517  0.000000      4.000000
  0.048747  0.022517  0.000000      4.000000
  0.058497  0.022517  0.000000      4.000000
  0.068246  0.022517  0.000000      4.000000
  0.077996  0.022517  0.000000      4.000000
  0.087745  0.022517  0.000000      4.000000
  0.097495  0.022517  0.000000      4.000000
  0.107244  0.022517  0.000000      4.000000
  0.116994  0.022517  0.000000      2.000000
  0.000000  0.033775  0.000000      2.000000
  0.009749  0.033775  0.000000      4.000000
  0.019499  0.033775  0.000000      4.000000
  0.029248  0.033775  0.000000      4.000000
  0.038998  0.033775  0.000000      4.000000
  0.048747  0.033775  0.000000      4.000000
  0.058497  0.033775  0.000000      4.000000
  0.068246  0.033775  0.000000      4.000000
  0.077996  0.033775  0.000000      4.000000
  0.087745  0.033775  0.000000      4.000000
  0.097495  0.033775  0.000000      4.000000
  0.107244  0.033775  0.000000      4.000000
  0.116994  0.033775  0.000000      2.000000
  0.000000  0.045033  0.000000      2.000000
  0.009749  0.045033  0.000000      4.000000
  0.019499  0.045033  0.000000      4.000000
  0.029248  0.045033  0.000000      4.000000
  0.038998  0.045033  0.000000      4.000000
  0.048747  0.045033  0.000000      4.000000
  0.058497  0.045033  0.000000      4.000000
  0.068246  0.045033  0.000000      4.000000
[...]
  0.107244  0.191392  0.000000      4.000000
  0.116994  0.191392  0.000000      2.000000
  0.000000  0.202651  0.000000      1.000000
  0.009749  0.202651  0.000000      2.000000
  0.019499  0.202651  0.000000      2.000000
  0.029248  0.202651  0.000000      2.000000
  0.038998  0.202651  0.000000      2.000000
  0.048747  0.202651  0.000000      2.000000
  0.058497  0.202651  0.000000      2.000000
  0.068246  0.202651  0.000000      2.000000
  0.077996  0.202651  0.000000      2.000000
  0.087745  0.202651  0.000000      2.000000
  0.097495  0.202651  0.000000      2.000000
  0.107244  0.202651  0.000000      2.000000
  0.116994  0.202651  0.000000      1.000000

 I would recommend the setting:
   dimension x,y,z NGX =    62 NGY =   36 NGZ =  292
[...]
 k-point ** :   0.0000 0.2778 0.0000  plane waves:   42892
 k-point ** :   0.0417 0.2778 0.0000  plane waves:   42884
 k-point ** :   0.0833 0.2778 0.0000  plane waves:   42869
 k-point ** :   0.1250 0.2778 0.0000  plane waves:   42870
 k-point ** :   0.1667 0.2778 0.0000  plane waves:   42869
 k-point ** :   0.2083 0.2778 0.0000  plane waves:   42865
 k-point ** :   0.2500 0.2778 0.0000  plane waves:   42839
 k-point ** :   0.2917 0.2778 0.0000  plane waves:   42841
 k-point ** :   0.3333 0.2778 0.0000  plane waves:   42816
 k-point ** :   0.3750 0.2778 0.0000  plane waves:   42819
 k-point ** :   0.4167 0.2778 0.0000  plane waves:   42808
 k-point ** :   0.4583 0.2778 0.0000  plane waves:   42824
 k-point ** :   0.5000 0.2778 0.0000  plane waves:   42834
 k-point ** :   0.0000 0.3056 0.0000  plane waves:   42886
 k-point ** :   0.0417 0.3056 0.0000  plane waves:   42896
 k-point ** :   0.0833 0.3056 0.0000  plane waves:   42877
 k-point ** :   0.1250 0.3056 0.0000  plane waves:   42861
 k-point ** :   0.1667 0.3056 0.0000  plane waves:   42890
 k-point ** :   0.2083 0.3056 0.0000  plane waves:   42862
 k-point ** :   0.2500 0.3056 0.0000  plane waves:   42847
 k-point ** :   0.2917 0.3056 0.0000  plane waves:   42837
 k-point ** :   0.3333 0.3056 0.0000  plane waves:   42838
 k-point ** :   0.3750 0.3056 0.0000  plane waves:   42828
 k-point ** :   0.4167 0.3056 0.0000  plane waves:   42818
 k-point ** :   0.4583 0.3056 0.0000  plane waves:   42814
 k-point ** :   0.5000 0.3056 0.0000  plane waves:   42856
 k-point ** :   0.0000 0.3333 0.0000  plane waves:   42916
 k-point ** :   0.0417 0.3333 0.0000  plane waves:   42901
 k-point ** :   0.0833 0.3333 0.0000  plane waves:   42877
[...]
 k-point ** :   0.4583 0.4722 0.0000  plane waves:   42813
 k-point ** :   0.5000 0.4722 0.0000  plane waves:   42830
 k-point ** :   0.0000 0.5000 0.0000  plane waves:   42870
 k-point ** :   0.0417 0.5000 0.0000  plane waves:   42948
 k-point ** :   0.0833 0.5000 0.0000  plane waves:   42924
 k-point ** :   0.1250 0.5000 0.0000  plane waves:   42930
 k-point ** :   0.1667 0.5000 0.0000  plane waves:   42910
 k-point ** :   0.2083 0.5000 0.0000  plane waves:   42950
 k-point ** :   0.2500 0.5000 0.0000  plane waves:   42932
 k-point ** :   0.2917 0.5000 0.0000  plane waves:   42892
 k-point ** :   0.3333 0.5000 0.0000  plane waves:   42846
 k-point ** :   0.3750 0.5000 0.0000  plane waves:   42818
 k-point ** :   0.4167 0.5000 0.0000  plane waves:   42796
 k-point ** :   0.4583 0.5000 0.0000  plane waves:   42818
 k-point ** :   0.5000 0.5000 0.0000  plane waves:   42816

 maximum and minimum number of plane-waves per node :     21511    21250

 maximum number of plane-waves:     42950
 maximum index in each direction:
   IXMAX=   15   IYMAX=    8   IZMAX=   72
   IXMIN=  -16   IYMIN=   -9   IZMIN=  -72

 NGX is ok and might be reduce to  64
 NGY is ok and might be reduce to  36
 NGZ is ok and might be reduce to 290

 parallel 3D FFT for wavefunctions:
    minimum data exchange during FFTs selected (reduces bandwidth)
 parallel 3D FFT for charge:
    minimum data exchange during FFTs selected (reduces bandwidth)

 Broyden mixing: mesh for mixing (old mesh)
   NGX = 31   NGY = 17   NGZ =145
  (NGX  =128   NGY  = 72   NGZ  =588)
  gives a total of  76415 points

 initial charge density was supplied:
 charge density of overlapping atoms calculated
 number of electron      16.0000000 magnetization
 keeping initial charge density in first step

 Maximum index for augmentation-charges         4659 (set IRDMAX)

 First call to EWALD:  gamma=   0.298
 Maximum number of real-space cells 4x 6x 1
 Maximum number of reciprocal cells 2x 1x 8

 FEWALD executed in parallel

----------------------------------------- Iteration    1(   1)  ---------------------------------------

 eigenvalue-minimisations  :  5928
 total energy-change (2. order) : 0.1904958E+03  (-0.1059143E+04)
 number of electron      16.0000000 magnetization
 augmentation part       16.0000000 magnetization

 Free energy of the ion-electron system (eV)
  alpha Z        PSCENC =         6.18334092
  Ewald energy   TEWEN  =      2585.15029899
  -Hartree energ DENC   =     -3010.58194022
  -exchange      EXHF   =         0.00000000
  -V(xc)+E(xc)   XCENC  =        55.09420637
  PAW double counting   =       151.32577238     -155.92769107
  entropy T*S    EENTRO =        -0.00201625
  eigenvalues    EBANDS =       -29.36965920
  atomic energy  EATOM  =       588.62352690
  free energy    TOTEN  =       190.49583883 eV

  energy without entropy =      190.49785509  energy(sigma->0) =      190.49684696

[...]

 eigenvalue-minimisations  : 10456
 total energy-change (2. order) :-0.1992918E+03  (-0.1772329E+03)
 number of electron      16.0000000 magnetization
 augmentation part       16.0000000 magnetization

[...]

 Broyden mixing:
  rms(total) = 0.73491E+00    rms(broyden)= 0.73491E+00
  rms(prec ) = 0.79896E+00
  weight for this iteration     100.00

[...]

 eigenvalues of (default mixing * dielectric matrix)
  average eigenvalue GAMMA=   2.3135
  2.3135

[...]

 average (electrostatic) potential at core
  the test charge radii are     0.6991
  (the norm of the test charge is              1.0000)
       1 -58.1906       2 -58.1906       3 -58.1906       4 -58.1906

 E-fermi :  -2.7543     XC(G=0):  -2.1425     alpha+bet : -1.9046

 k-point     1 :       0.0000    0.0000    0.0000
  band No.  band energies     occupation
      1     -22.2523      2.00000
      2     -17.0250      2.00000
      3     -15.9626      2.00000
      4     -10.3579      2.00000
      5      -9.1653      2.00000
      6      -5.8032      2.00000
      7      -5.7698      2.00000
      8      -5.1190      2.00000
      9      -1.0629      0.00000
     10       0.5240      0.00000
     11       1.3251      0.00000
     12       1.7080      0.00000

[...]

 soft charge-density along one line, spin component           1
         0         1         2         3         4         5         6         7         8         9
 total charge-density along one line

------------------------ aborting loop because EDIFF is reached ----------------------------------------

  FORCE on cell =-STRESS in cart. coord.  units (eV):
  Direction    XX          YY          ZZ          XY          YZ          ZX
  Alpha Z     6.18334     6.18334     6.18334
  Ewald    3122.09694  3123.09783 -3660.04474     0.00000     0.00000    -0.00000
  Hartree  3056.36552  3056.50476 -3033.77058    -0.00000    -0.00000    -0.00000
  E(xc)     -58.33830   -58.33458   -60.67538    -0.00000    -0.00000    -0.00000
  Local   -6351.01318 -6351.96219  6487.66431     0.00000     0.00000    -0.00000
  n-local   -13.94713   -13.94076   -12.76497     0.05701     0.00000     0.00000
  augment    -1.54051    -1.54205    -1.41404    -0.00000    -0.00000    -0.00000
  Kinetic   240.15091   240.00405   274.82074    -4.60166    -0.00000    -0.00000
  Fock        0.00000     0.00000     0.00000     0.00000     0.00000     0.00000
  Total      -0.04241     0.01041    -0.00132     0.00000     0.00000     0.00000
  in kB      -0.32230     0.07913    -0.01002     0.00000     0.00000     0.00000

 VOLUME and BASIS-vectors are now :
  energy-cutoff  :     2000.00
  volume of cell :      210.84
      direct lattice vectors                 reciprocal lattice vectors
     4.273725697  0.000000000  0.000000000     0.233987876  0.000000000  0.000000000
     0.000000000  2.467299265  0.000000000     0.000000000  0.405301462  0.000000000
     0.000000000  0.000000000 19.994944883     0.000000000  0.000000000  0.050012641

[...]

 FORCES acting on ions
    electron-ion (+dipol)            ewald-force                    non-local-force                 convergence-correction
   0.174E+00 0.326E-15 0.286E-09   -.211E+00 0.385E-14 0.263E-31   -.210E-01 0.104E-16 0.646E-26   -.291E-07 -.185E-14 0.194E-12
   -.174E+00 0.105E-13 -.454E-08   0.211E+00 -.647E-14 -.115E-18   0.210E-01 -.347E-17 0.517E-25   0.291E-07 -.165E-14 0.194E-12
   0.174E+00 0.586E-12 0.300E-09   -.211E+00 0.874E-14 -.263E-31   -.210E-01 0.347E-17 0.000E+00   -.291E-07 -.173E-14 0.194E-12
   -.174E+00 -.501E-16 -.454E-08   0.211E+00 -.158E-14 0.115E-18   0.210E-01 -.347E-17 0.000E+00   0.291E-07 -.176E-14 0.194E-12
   -.453E-06 0.597E-12 -.849E-08   -.402E-14 0.454E-14 0.000E+00   0.000E+00 0.694E-17 0.582E-25   0.264E-13 -.699E-14 0.776E-12

 POSITION                                       TOTAL-FORCE (eV/Angst)
      0.00056      0.00000      0.00000        -0.058399     -0.000000      0.000000
      0.71173      1.23365      0.00000         0.058399      0.000000     -0.000000
      2.13743      1.23365      0.00000        -0.058399      0.000000      0.000000
      2.84859      0.00000      0.00000         0.058399     -0.000000     -0.000000
    total drift:                               -0.000000      0.000000     -0.000000

  FREE ENERGIE OF THE ION-ELECTRON SYSTEM (eV)
  free  energy   TOTEN  =       -36.92542105 eV

  energy  without entropy=      -36.92529364  energy(sigma->0) =      -36.92535735

 Quasi-Newton relaxation of ions (Broydens 2nd method)
  g(Force)  = 0.658E-03   g(Stress)= 0.000E+00

 Reset! Starting new Quasi-Newton update for ions

[...]

WARNING in EDDRMM: call to ZHEGV failed, returncode =   6  3  1
WARNING in EDDRMM: call to ZHEGV failed, returncode =   6  3  1

[...]

 d Force =-0.9995913E-03[-0.266E-02, 0.658E-03]  d Energy =-0.9921876E-03-0.740E-05
 d Force =-0.3285613E-02[-0.895E-02, 0.238E-02]  d Ewald  =-0.3267670E-02-0.179E-04

[...]

 retain information from N=  1 steps
 eigenvalues of (default step * inverse Hessian matrix)
  average eigenvalue of G=   0.1985
 eigenvalue spectrum of G is  0.1985

[...]

 d Force = 0.1062553E-02[-0.471E-05, 0.213E-02]  d Energy = 0.1058099E-02 0.445E-05
 d Force = 0.3528482E-02[-0.120E-03, 0.718E-02]  d Ewald  = 0.3519239E-02 0.924E-05

[...]

WARNING in EDDRMM: call to ZHEGV failed, returncode =   6  3  1

[...]

 eigenvalue-minimisations  :  2545
 total energy-change (2. order) : 0.8924417E-10  (-0.6683265E-12)
 number of electron      16.0000000 magnetization
 augmentation part        0.3817728 magnetization

[...]

 d Force = 0.5234924E-08[ 0.621E-10, 0.104E-07]  d Energy = 0.5066568E-08 0.168E-09
 d Force = 0.2476215E-06[ 0.230E-06, 0.265E-06]  d Ewald  = 0.2476213E-06 0.000E+00

[...]

 FEWALD executed in parallel

[...]

 eigenvalue-minimisations  :  4696
 total energy-change (2. order) : 0.4207550E-09  ( 0.5789891E-09)
 number of electron      16.0000000 magnetization
 augmentation part        0.3817728 magnetization

[...]

 eigenvalue-minimisations  :  1499
 total energy-change (2. order) :-0.5054517E-09  ( 0.9936085E-13)
 number of electron      16.0000000 magnetization
 augmentation part        0.3817728 magnetization

[...]

 eigenvalue-minimisations  :  1403
 total energy-change (2. order) : 0.2460183E-09  ( 0.3885781E-13)
 number of electron      16.0000000 magnetization
 augmentation part        0.3817728 magnetization

 Broyden mixing:
  rms(total) = 0.10508E-08    rms(broyden)= 0.10508E-08
  rms(prec ) = 0.11408E-08
  weight for this iteration     100.00

 eigenvalues of (default mixing * dielectric matrix)
  average eigenvalue GAMMA=   1.7042
  2.6193  2.1747  1.4832  0.5396

[...]

----------------------------------------- Iteration    5(   6)  ---------------------------------------

 eigenvalue-minimisations  :  1307
 total energy-change (2. order) :-0.2137313E-10  (-0.6084845E-13)
 number of electron      16.0000000 magnetization
 augmentation part        0.3817728 magnetization

 Free energy of the ion-electron system (eV)
  alpha Z        PSCENC =         6.18334092
  Ewald energy   TEWEN  =      2585.15004718
  -Hartree energ DENC   =     -3079.09950452
  -exchange      EXHF   =         0.00000000
  -V(xc)+E(xc)   XCENC  =        57.51795261
  PAW double counting   =       276.97784184     -282.12624250
  entropy T*S    EENTRO =        -0.00013059
  eigenvalues    EBANDS =      -190.15231881
  atomic energy  EATOM  =       588.62352690
  free energy    TOTEN  =       -36.92548697 eV

  energy without entropy =      -36.92535637  energy(sigma->0) =      -36.92542167

 average (electrostatic) potential at core
  the test charge radii are     0.6991
  (the norm of the test charge is              1.0000)
       1 -58.1906       2 -58.1906       3 -58.1906       4 -58.1906

 E-fermi :  -2.7543     XC(G=0):  -2.1425     alpha+bet : -1.9046

[...]

 k-point   247 :       0.5000    0.5000    0.0000
  band No.  band energies     occupation
      1     -17.0198      2.00000
      2     -17.0198      2.00000
      3     -15.9721      2.00000
      4     -15.9721      2.00000
      5      -9.1586      2.00000
      6      -9.1586      2.00000
      7      -5.1103      2.00000
      8      -5.1103      2.00000
      9      -1.0759      0.00000
     10      -1.0759      0.00000
     11       4.6044      0.00000
     12       4.6044      0.00000

 soft charge-density along one line, spin component           1
         0         1         2         3         4         5         6         7         8         9
 total charge-density along one line

------------------------ aborting loop because EDIFF is reached ----------------------------------------

  FORCE on cell =-STRESS in cart. coord.  units (eV):
  Direction    XX          YY          ZZ          XY          YZ          ZX
  Alpha Z     6.18334     6.18334     6.18334
  Ewald    3122.59147  3122.60305 -3660.04474    -0.00000     0.00000     0.00000
  Hartree  3056.43351  3056.43656 -3033.77057    -0.00000    -0.00000    -0.00000
  E(xc)     -58.33642   -58.33644   -60.67536    -0.00000    -0.00000    -0.00000
  Local   -6351.48112 -6351.49400  6487.66436     0.00000     0.00000     0.00000
  n-local   -13.94313   -13.94476   -12.76496     0.05635    -0.00000    -0.00000
  augment    -1.54129    -1.54126    -1.41404     0.00000     0.00000    -0.00000
  Kinetic   240.07285   240.08192   274.82065    -4.59920     0.00000     0.00000
  Fock        0.00000     0.00000     0.00000     0.00000     0.00000     0.00000
  Total      -0.02079    -0.01159    -0.00132     0.00000     0.00000     0.00000
  in kB      -0.15802    -0.08811    -0.01002     0.00000     0.00000     0.00000

 VOLUME and BASIS-vectors are now :
  energy-cutoff  :     2000.00
  volume of cell :      210.84
      direct lattice vectors                 reciprocal lattice vectors
     4.273725697  0.000000000  0.000000000     0.233987876  0.000000000  0.000000000
     0.000000000  2.467299265  0.000000000     0.000000000  0.405301462  0.000000000
     0.000000000  0.000000000 19.994944883     0.000000000  0.000000000  0.050012641

  length of vectors
     4.273725697  2.467299265 19.994944883     0.233987876  0.405301462  0.050012641

 FORCES acting on ions
    electron-ion (+dipol)            ewald-force                    non-local-force                 convergence-correction
   0.115E-01 0.898E-16 -.109E-11   -.115E-01 0.684E-14 0.116E-17   -.194E-04 -.104E-16 0.000E+00   -.267E-07 -.216E-14 -.212E-11
   -.115E-01 -.172E-12 -.518E-08   0.115E-01 -.602E-14 -.984E-18   0.194E-04 -.104E-16 0.000E+00   0.267E-07 0.507E-15 -.211E-11
   0.115E-01 -.135E-12 0.114E-10   -.115E-01 0.182E-14 0.681E-18   -.194E-04 -.104E-16 0.000E+00   -.267E-07 0.221E-15 -.213E-11
   -.115E-01 0.117E-14 -.519E-08   0.115E-01 0.191E-14 -.859E-18   0.194E-04 -.104E-16 0.000E+00   0.267E-07 -.179E-14 -.213E-11
   -.476E-06 -.306E-12 -.104E-07   -.410E-14 0.454E-14 0.963E-34   0.339E-20 -.416E-16 0.000E+00   0.886E-14 -.323E-14 -.849E-11

 POSITION                                       TOTAL-FORCE (eV/Angst)
     -0.00000     -0.00000      0.00000        -0.000000      0.000000      0.000000
      0.71229      1.23365     -0.00000         0.000000     -0.000000      0.000000
      2.13686      1.23365      0.00000        -0.000000      0.000000      0.000000
      2.84915     -0.00000     -0.00000         0.000000     -0.000000      0.000000
    total drift:                               -0.000000     -0.000000     -0.000000

  FREE ENERGIE OF THE ION-ELECTRON SYSTEM (eV)
  free  energy   TOTEN  =       -36.92548697 eV

  energy  without entropy=      -36.92535637  energy(sigma->0) =      -36.92542167

 d Force = 0.1949595E-12[ 0.167E-13, 0.373E-12]  d Energy = 0.1325589E-09-0.132E-09
 d Force = 0.1380530E-08[ 0.138E-08, 0.138E-08]  d Ewald  = 0.1380613E-08 0.000E+00

 Quasi-Newton relaxation of ions (Broydens 2nd method)
  g(Force)  = 0.377E-14   g(Stress)= 0.000E+00

 retain information from N=  1 steps
 eigenvalues of (default step * inverse Hessian matrix)
  average eigenvalue of G=   0.2086
 eigenvalue spectrum of G is  0.2086

 reached required accuracy - stopping structural energy minimisation