 vasp.5.3.5 31Mar14 (build Mar 02 2015 18:14:16) complex

 executed on             LinuxIFC date 2018.08.10  14:45:14

 INCAR:
 POTCAR:   PAW_PBE C 08Apr2002
 POTCAR:   PAW_PBE C 08Apr2002
   VRHFIN =C: s2p2

   TITEL  = PAW_PBE C 08Apr2002
   POMASS =   12.011; ZVAL   =    4.000    mass and valenz
   ENMAX  =  400.000; ENMIN  =  300.000 eV
   QCUT   =   -5.516; QGAM   =   11.032    optimization parameters

   Description
     l     E      TYP  RCUT    TYP  RCUT
     0   .000     23  1.200
     0   .000     23  1.200
     1   .000     23  1.500
     1  2.500     23  1.500
     2   .000      7  1.500

 PAW_PBE C 08Apr2002                    :

 POSCAR: MD-kMC export data
  positions in direct lattice
  velocities in cartesian coordinates
 exchange correlation table for  LEXCH =        8
   RHO(1)=    0.500       N(1)  =     2000
   RHO(2)=  100.500       N(2)  =     4000

 ion  position               nearest neighbor table
   1  1.000  0.000  0.000-   4 1.42   2 1.43   2 1.43
   2  0.167  0.500  0.000-   3 1.42   1 1.43   1 1.43
   3  0.500  0.500  0.000-   2 1.42   4 1.43   4 1.43
   4  0.667  0.000  0.000-   1 1.42   3 1.43   3 1.43

  LATTYP: Found a simple orthorhombic cell.
 ALAT       =     2.4674978467
 B/A-ratio  =     1.7317304767
 C/A-ratio  =     8.1039739733

  Lattice vectors:

 A1 = (   0.0000000000,  -2.4674978467,   0.0000000000)
 A2 = (  -4.2730412223,   0.0000000000,   0.0000000000)
 A3 = (   0.0000000000,   0.0000000000, -19.9965383286)

Analysis of symmetry for initial positions (statically):
 Subroutine PRICEL returns following result:

  LATTYP: Found a base centered orthorhombic cell.
 ALAT       =     2.4674978467
 B/A-ratio  =     1.7317304767
 C/A-ratio  =     8.1039739733

[...]

   2 primitive cells build up your supercell.

 Routine SETGRP: Setting up the symmetry group for a
 simple orthorhombic supercell.

 Subroutine GETGRP returns: Found  8 space group operations
 (whereof  4 operations were pure point group operations)
 out of a pool of  8 trial point group operations.

The static configuration has the point symmetry C_2v.
 The point group associated with its full space group is D_2h.

Analysis of symmetry for dynamics (positions and initial velocities):
 Subroutine PRICEL returns following result:

  LATTYP: Found a base centered orthorhombic cell.
 ALAT       =     2.4674978467
 B/A-ratio  =     1.7317304767
 C/A-ratio  =     8.1039739733

  Lattice vectors:

 A1 = (   2.1365206112,  -1.2337489233,   0.0000000000)
 A2 = (  -2.1365206112,  -1.2337489233,   0.0000000000)
 A3 = (   0.0000000000,   0.0000000000, -19.9965383286)

   2 primitive cells build up your supercell.

 Routine SETGRP: Setting up the symmetry group for a
 simple orthorhombic supercell.

 Subroutine GETGRP returns: Found  8 space group operations
 (whereof  4 operations were pure point group operations)
 out of a pool of  8 trial point group operations.

The dynamic configuration has the point symmetry C_2v.
 The point group associated with its full space group is D_2h.

 KPOINTS: Automatic mesh

Automatic generation of k-mesh.
Space group operators:
 irot       det(A)        alpha          n_x          n_y          n_z        tau_x        tau_y        tau_z
    1     1.000000     0.000000     1.000000     0.000000     0.000000     0.000000     0.000000     0.000000
    2    -1.000000   179.999999     0.000000     0.000000     1.000000     0.000000     0.000000     0.000000
    3     1.000000   180.000000     1.000000     0.000000     0.000000     0.000000     0.000000     0.000000
    4    -1.000000   180.000000     0.000000     1.000000     0.000000     0.000000     0.000000     0.000000
    5    -1.000000     0.000000     1.000000     0.000000     0.000000     0.166667    -0.500000     0.000000
    6     1.000000   179.999999     0.000000     0.000000     1.000000     0.166667    -0.500000     0.000000
    7    -1.000000   180.000000     1.000000     0.000000     0.000000     0.166667    -0.500000     0.000000
    8     1.000000   180.000000     0.000000     1.000000     0.000000     0.166667    -0.500000     0.000000

 Subroutine IBZKPT returns following result:

 Found    247 irreducible k-points:

 Following reciprocal coordinates:
            Coordinates               Weight
  0.000000  0.000000  0.000000      1.000000
  0.041667  0.000000  0.000000      2.000000
  0.083333  0.000000  0.000000      2.000000
  0.125000  0.000000  0.000000      2.000000
  0.166667  0.000000  0.000000      2.000000
  0.208333  0.000000  0.000000      2.000000
  0.250000  0.000000  0.000000      2.000000
  0.291667  0.000000  0.000000      2.000000
  0.333333  0.000000  0.000000      2.000000
  0.375000  0.000000  0.000000      2.000000
  0.416667  0.000000  0.000000      2.000000
  0.458333  0.000000  0.000000      2.000000
  0.500000  0.000000  0.000000      1.000000
  0.000000  0.027778  0.000000      2.000000
  0.041667  0.027778  0.000000      4.000000
  0.083333  0.027778  0.000000      4.000000
  0.125000  0.027778  0.000000      4.000000
  0.166667  0.027778  0.000000      4.000000
  0.208333  0.027778  0.000000      4.000000
  0.250000  0.027778  0.000000      4.000000
  0.291667  0.027778  0.000000      4.000000
  0.333333  0.027778  0.000000      4.000000
  0.375000  0.027778  0.000000      4.000000
  0.416667  0.027778  0.000000      4.000000
  0.458333  0.027778  0.000000      4.000000
  0.500000  0.027778  0.000000      2.000000
  0.000000  0.055556  0.000000      2.000000
  0.041667  0.055556  0.000000      4.000000
  0.083333  0.055556  0.000000      4.000000
  0.125000  0.055556  0.000000      4.000000
  0.166667  0.055556  0.000000      4.000000
  0.208333  0.055556  0.000000      4.000000
  0.250000  0.055556  0.000000      4.000000
  0.291667  0.055556  0.000000      4.000000
  0.333333  0.055556  0.000000      4.000000
  0.375000  0.055556  0.000000      4.000000
  0.416667  0.055556  0.000000      4.000000
  0.458333  0.055556  0.000000      4.000000
  0.500000  0.055556  0.000000      2.000000
  0.000000  0.083333  0.000000      2.000000
  0.041667  0.083333  0.000000      4.000000
  0.083333  0.083333  0.000000      4.000000
  0.125000  0.083333  0.000000      4.000000
  0.166667  0.083333  0.000000      4.000000
  0.208333  0.083333  0.000000      4.000000
  0.250000  0.083333  0.000000      4.000000
  0.291667  0.083333  0.000000      4.000000
  0.333333  0.083333  0.000000      4.000000
  0.375000  0.083333  0.000000      4.000000
  0.416667  0.083333  0.000000      4.000000
  0.458333  0.083333  0.000000      4.000000
  0.500000  0.083333  0.000000      2.000000
  0.000000  0.111111  0.000000      2.000000
  0.041667  0.111111  0.000000      4.000000
  0.083333  0.111111  0.000000      4.000000
  0.125000  0.111111  0.000000      4.000000
  0.166667  0.111111  0.000000      4.000000
  0.208333  0.111111  0.000000      4.000000
  0.250000  0.111111  0.000000      4.000000
  0.291667  0.111111  0.000000      4.000000
[...]
  0.458333  0.472222  0.000000      4.000000
  0.500000  0.472222  0.000000      2.000000
  0.000000  0.500000  0.000000      1.000000
  0.041667  0.500000  0.000000      2.000000
  0.083333  0.500000  0.000000      2.000000
  0.125000  0.500000  0.000000      2.000000
  0.166667  0.500000  0.000000      2.000000
  0.208333  0.500000  0.000000      2.000000
  0.250000  0.500000  0.000000      2.000000
  0.291667  0.500000  0.000000      2.000000
  0.333333  0.500000  0.000000      2.000000
  0.375000  0.500000  0.000000      2.000000
  0.416667  0.500000  0.000000      2.000000
  0.458333  0.500000  0.000000      2.000000
  0.500000  0.500000  0.000000      1.000000

 Following cartesian coordinates:
            Coordinates               Weight
  0.000000  0.000000  0.000000      1.000000
  0.009751  0.000000  0.000000      2.000000
  0.019502  0.000000  0.000000      2.000000
  0.029253  0.000000  0.000000      2.000000
  0.039004  0.000000  0.000000      2.000000
  0.048755  0.000000  0.000000      2.000000
  0.058506  0.000000  0.000000      2.000000
  0.068257  0.000000  0.000000      2.000000
  0.078008  0.000000  0.000000      2.000000
  0.087760  0.000000  0.000000      2.000000
  0.097511  0.000000  0.000000      2.000000
  0.107262  0.000000  0.000000      2.000000
  0.117013  0.000000  0.000000      1.000000
  0.000000  0.011257  0.000000      2.000000
  0.009751  0.011257  0.000000      4.000000
  0.019502  0.011257  0.000000      4.000000
  0.029253  0.011257  0.000000      4.000000
  0.039004  0.011257  0.000000      4.000000
  0.048755  0.011257  0.000000      4.000000
  0.058506  0.011257  0.000000      4.000000
  0.068257  0.011257  0.000000      4.000000
  0.078008  0.011257  0.000000      4.000000
  0.087760  0.011257  0.000000      4.000000
  0.097511  0.011257  0.000000      4.000000
  0.107262  0.011257  0.000000      4.000000
  0.117013  0.011257  0.000000      2.000000
  0.000000  0.022515  0.000000      2.000000
  0.009751  0.022515  0.000000      4.000000
  0.019502  0.022515  0.000000      4.000000
  0.029253  0.022515  0.000000      4.000000
  0.039004  0.022515  0.000000      4.000000
  0.048755  0.022515  0.000000      4.000000
  0.058506  0.022515  0.000000      4.000000
  0.068257  0.022515  0.000000      4.000000
  0.078008  0.022515  0.000000      4.000000
  0.087760  0.022515  0.000000      4.000000
  0.097511  0.022515  0.000000      4.000000
  0.107262  0.022515  0.000000      4.000000
  0.117013  0.022515  0.000000      2.000000
  0.000000  0.033772  0.000000      2.000000
  0.009751  0.033772  0.000000      4.000000
  0.019502  0.033772  0.000000      4.000000
  0.029253  0.033772  0.000000      4.000000
  0.039004  0.033772  0.000000      4.000000
  0.048755  0.033772  0.000000      4.000000
  0.058506  0.033772  0.000000      4.000000
  0.068257  0.033772  0.000000      4.000000
  0.078008  0.033772  0.000000      4.000000
  0.087760  0.033772  0.000000      4.000000
  0.097511  0.033772  0.000000      4.000000
  0.107262  0.033772  0.000000      4.000000
  0.117013  0.033772  0.000000      2.000000
  0.000000  0.045030  0.000000      2.000000
  0.009751  0.045030  0.000000      4.000000
  0.019502  0.045030  0.000000      4.000000
  0.029253  0.045030  0.000000      4.000000
  0.039004  0.045030  0.000000      4.000000
  0.048755  0.045030  0.000000      4.000000
  0.058506  0.045030  0.000000      4.000000
  0.068257  0.045030  0.000000      4.000000
[...]
  0.107262  0.191377  0.000000      4.000000
  0.117013  0.191377  0.000000      2.000000
  0.000000  0.202634  0.000000      1.000000
  0.009751  0.202634  0.000000      2.000000
  0.019502  0.202634  0.000000      2.000000
  0.029253  0.202634  0.000000      2.000000
  0.039004  0.202634  0.000000      2.000000
  0.048755  0.202634  0.000000      2.000000
  0.058506  0.202634  0.000000      2.000000
  0.068257  0.202634  0.000000      2.000000
  0.078008  0.202634  0.000000      2.000000
  0.087760  0.202634  0.000000      2.000000
  0.097511  0.202634  0.000000      2.000000
  0.107262  0.202634  0.000000      2.000000
  0.117013  0.202634  0.000000      1.000000

 I would recommend the setting:
   dimension x,y,z NGX =    62 NGY =   36 NGZ =  292
[...]
 k-point ** :   0.5000 0.2500 0.0000  plane waves:   42818
 k-point ** :   0.0000 0.2778 0.0000  plane waves:   42888
 k-point ** :   0.0417 0.2778 0.0000  plane waves:   42886
 k-point ** :   0.0833 0.2778 0.0000  plane waves:   42873
 k-point ** :   0.1250 0.2778 0.0000  plane waves:   42868
 k-point ** :   0.1667 0.2778 0.0000  plane waves:   42873
 k-point ** :   0.2083 0.2778 0.0000  plane waves:   42865
 k-point ** :   0.2500 0.2778 0.0000  plane waves:   42839
 k-point ** :   0.2917 0.2778 0.0000  plane waves:   42844
 k-point ** :   0.3333 0.2778 0.0000  plane waves:   42814
 k-point ** :   0.3750 0.2778 0.0000  plane waves:   42821
 k-point ** :   0.4167 0.2778 0.0000  plane waves:   42806
 k-point ** :   0.4583 0.2778 0.0000  plane waves:   42818
 k-point ** :   0.5000 0.2778 0.0000  plane waves:   42838
 k-point ** :   0.0000 0.3056 0.0000  plane waves:   42882
 k-point ** :   0.0417 0.3056 0.0000  plane waves:   42902
 k-point ** :   0.0833 0.3056 0.0000  plane waves:   42873
 k-point ** :   0.1250 0.3056 0.0000  plane waves:   42857
 k-point ** :   0.1667 0.3056 0.0000  plane waves:   42886
 k-point ** :   0.2083 0.3056 0.0000  plane waves:   42857
 k-point ** :   0.2500 0.3056 0.0000  plane waves:   42841
 k-point ** :   0.2917 0.3056 0.0000  plane waves:   42837
 k-point ** :   0.3333 0.3056 0.0000  plane waves:   42842
 k-point ** :   0.3750 0.3056 0.0000  plane waves:   42832
 k-point ** :   0.4167 0.3056 0.0000  plane waves:   42809
 k-point ** :   0.4583 0.3056 0.0000  plane waves:   42816
 k-point ** :   0.5000 0.3056 0.0000  plane waves:   42856
 k-point ** :   0.0000 0.3333 0.0000  plane waves:   42916
 k-point ** :   0.0417 0.3333 0.0000  plane waves:   42899
 k-point ** :   0.0833 0.3333 0.0000  plane waves:   42877
[...]
 k-point ** :   0.4583 0.4722 0.0000  plane waves:   42805
 k-point ** :   0.5000 0.4722 0.0000  plane waves:   42834
 k-point ** :   0.0000 0.5000 0.0000  plane waves:   42878
 k-point ** :   0.0417 0.5000 0.0000  plane waves:   42948
 k-point ** :   0.0833 0.5000 0.0000  plane waves:   42924
 k-point ** :   0.1250 0.5000 0.0000  plane waves:   42922
 k-point ** :   0.1667 0.5000 0.0000  plane waves:   42910
 k-point ** :   0.2083 0.5000 0.0000  plane waves:   42950
 k-point ** :   0.2500 0.5000 0.0000  plane waves:   42932
 k-point ** :   0.2917 0.5000 0.0000  plane waves:   42880
 k-point ** :   0.3333 0.5000 0.0000  plane waves:   42850
 k-point ** :   0.3750 0.5000 0.0000  plane waves:   42822
 k-point ** :   0.4167 0.5000 0.0000  plane waves:   42800
 k-point ** :   0.4583 0.5000 0.0000  plane waves:   42822
 k-point ** :   0.5000 0.5000 0.0000  plane waves:   42816

 maximum and minimum number of plane-waves per node :     21507    21247

 maximum number of plane-waves:     42950
 maximum index in each direction:
   IXMAX=   15   IYMAX=    8   IZMAX=   72
   IXMIN=  -16   IYMIN=   -9   IZMIN=  -72

 NGX is ok and might be reduce to  64
 NGY is ok and might be reduce to  36
 NGZ is ok and might be reduce to 290

 parallel 3D FFT for wavefunctions:
    minimum data exchange during FFTs selected (reduces bandwidth)
 parallel 3D FFT for charge:
    minimum data exchange during FFTs selected (reduces bandwidth)

 Broyden mixing: mesh for mixing (old mesh)
   NGX = 31   NGY = 17   NGZ =145
  (NGX  =128   NGY  = 72   NGZ  =588)
  gives a total of  76415 points

 initial charge density was supplied:
 charge density of overlapping atoms calculated
 number of electron      16.0000000 magnetization
 keeping initial charge density in first step

 Maximum index for augmentation-charges         4659 (set IRDMAX)

 First call to EWALD:  gamma=   0.298
 Maximum number of real-space cells 4x 6x 1
 Maximum number of reciprocal cells 2x 1x 8

 FEWALD executed in parallel

----------------------------------------- Iteration    1(   1)  ---------------------------------------

 eigenvalue-minimisations  :  5928
 total energy-change (2. order) : 0.1899270E+03  (-0.1065282E+04)
 number of electron      16.0000000 magnetization
 augmentation part       16.0000000 magnetization

 Free energy of the ion-electron system (eV)
  alpha Z        PSCENC =         6.18334092
  Ewald energy   TEWEN  =      2585.69089252
  -Hartree energ DENC   =     -3011.10635900
  -exchange      EXHF   =         0.00000000
  -V(xc)+E(xc)   XCENC  =        55.09529374
  PAW double counting   =       151.32577238     -155.92769107
  entropy T*S    EENTRO =        -0.00136231
  eigenvalues    EBANDS =       -29.95637283
  atomic energy  EATOM  =       588.62352690
  free energy    TOTEN  =       189.92704127 eV

  energy without entropy =      189.92840357  energy(sigma->0) =      189.92772242

[...]

 eigenvalue-minimisations  : 10368
 total energy-change (2. order) :-0.1987549E+03  (-0.1758816E+03)
 number of electron      16.0000000 magnetization
 augmentation part       16.0000000 magnetization

[...]

 Broyden mixing:
  rms(total) = 0.73560E+00    rms(broyden)= 0.73560E+00
  rms(prec ) = 0.79972E+00
  weight for this iteration     100.00

[...]

 eigenvalues of (default mixing * dielectric matrix)
  average eigenvalue GAMMA=   2.3183
  2.3183

[...]

WARNING in EDDRMM: call to ZHEGV failed, returncode =   6  3  1
WARNING in EDDRMM: call to ZHEGV failed, returncode =   6  3  1
WARNING in EDDRMM: call to ZHEGV failed, returncode =   6  3  1
WARNING in EDDRMM: call to ZHEGV failed, returncode =   6  3  1
WARNING in EDDRMM: call to ZHEGV failed, returncode =   6  3  1
WARNING in EDDRMM: call to ZHEGV failed, returncode =   6  3  1
WARNING in EDDRMM: call to ZHEGV failed, returncode =   6  3  1
WARNING in EDDRMM: call to ZHEGV failed, returncode =   6  3  1
WARNING in EDDRMM: call to ZHEGV failed, returncode =   6  3  1

[...]

 average (electrostatic) potential at core
  the test charge radii are     0.6991
  (the norm of the test charge is              1.0000)
       1 -58.1901       2 -58.1901       3 -58.1901       4 -58.1901

 E-fermi :  -2.7540     XC(G=0):  -2.1454     alpha+bet : -1.9046

 k-point     1 :       0.0000    0.0000    0.0000
  band No.  band energies     occupation
      1     -22.2529      2.00000
      2     -17.0141      2.00000
      3     -15.9819      2.00000
      4     -10.3584      2.00000
      5      -9.1531      2.00000
      6      -5.8019      2.00000
      7      -5.7705      2.00000
      8      -5.1012      2.00000
      9      -1.0881      0.00000
     10       0.5238      0.00000
     11       1.3243      0.00000
     12       1.7016      0.00000

[...]

 soft charge-density along one line, spin component           1
         0         1         2         3         4         5         6         7         8         9
 total charge-density along one line

------------------------ aborting loop because EDIFF is reached ----------------------------------------

  FORCE on cell =-STRESS in cart. coord.  units (eV):
  Direction    XX          YY          ZZ          XY          YZ          ZX
  Alpha Z     6.18334     6.18334     6.18334
  Ewald    3123.65645  3122.66230 -3660.62812    -0.00000     0.00000    -0.00000
  Hartree  3057.04645  3056.90572 -3034.31324    -0.00000    -0.00000    -0.00000
  E(xc)     -58.33612   -58.33962   -60.67687     0.00000    -0.00000    -0.00000
  Local   -6353.05947 -6352.11506  6488.78677    -0.00000    -0.00000     0.00000
  n-local   -13.94476   -13.94729   -12.76608     0.05571     0.00000     0.00000
  augment    -1.54233    -1.54072    -1.41421     0.00000     0.00000    -0.00000
  Kinetic   240.03091   240.14667   274.82708    -4.59776    -0.00000    -0.00000
  Fock        0.00000     0.00000     0.00000     0.00000     0.00000     0.00000
  Total       0.03448    -0.04467    -0.00134     0.00000     0.00000     0.00000
  in kB       0.26201    -0.33945    -0.01016     0.00000     0.00000     0.00000

 VOLUME and BASIS-vectors are now :
  energy-cutoff  :     2000.00
  volume of cell :      210.84
      direct lattice vectors                 reciprocal lattice vectors
     4.273041222  0.000000000  0.000000000     0.234025358  0.000000000  0.000000000
     0.000000000  2.467497847  0.000000000     0.000000000  0.405268844  0.000000000
     0.000000000  0.000000000 19.996538329     0.000000000  0.000000000  0.050008656

[...]

 FORCES acting on ions
    electron-ion (+dipol)            ewald-force                    non-local-force                 convergence-correction
   -.195E+00 0.750E-15 -.317E-09   0.232E+00 0.201E-14 0.120E-33   0.208E-01 0.000E+00 0.000E+00   0.422E-06 -.106E-14 0.194E-12
   0.195E+00 0.112E-13 -.580E-08   -.232E+00 -.471E-14 -.310E-18   -.208E-01 0.000E+00 0.000E+00   -.422E-06 -.126E-15 0.194E-12
   -.195E+00 -.203E-12 -.351E-09   0.232E+00 0.494E-14 -.963E-34   0.208E-01 0.000E+00 0.103E-24   0.422E-06 -.861E-15 0.194E-12
   0.195E+00 0.160E-15 -.583E-08   -.232E+00 -.179E-14 0.310E-18   -.208E-01 0.000E+00 0.000E+00   -.422E-06 -.375E-15 0.194E-12
   -.487E-06 -.191E-12 -.123E-07   -.833E-16 0.450E-15 0.481E-34   -.694E-17 0.000E+00 0.103E-24   -.167E-12 -.242E-14 0.777E-12

 POSITION                                       TOTAL-FORCE (eV/Angst)
      4.27250      0.00000      0.00000         0.058082      0.000000      0.000000
      0.71271      1.23375      0.00000        -0.058082     -0.000000      0.000000
      2.13598      1.23375      0.00000         0.058082      0.000000      0.000000
      2.84923      0.00000      0.00000        -0.058082     -0.000000      0.000000
    total drift:                               -0.000000     -0.000000     -0.000000

  FREE ENERGIE OF THE ION-ELECTRON SYSTEM (eV)
  free  energy   TOTEN  =       -36.92542128 eV

  energy  without entropy=      -36.92529432  energy(sigma->0) =      -36.92535780

 Quasi-Newton relaxation of ions (Broydens 2nd method)
  g(Force)  = 0.651E-03   g(Stress)= 0.000E+00

 Reset! Starting new Quasi-Newton update for ions

[...]

WARNING in EDDRMM: call to ZHEGV failed, returncode =   6  3  1

[...]

 d Force =-0.9760622E-03[-0.260E-02, 0.651E-03]  d Energy =-0.9762985E-03 0.236E-06
 d Force =-0.2941672E-02[-0.849E-02, 0.260E-02]  d Ewald  =-0.2959288E-02 0.176E-04

[...]

 retain information from N=  1 steps
 eigenvalues of (default step * inverse Hessian matrix)
  average eigenvalue of G=   0.2001
 eigenvalue spectrum of G is  0.2001

[...]

 d Force = 0.1041732E-02[ 0.111E-05, 0.208E-02]  d Energy = 0.1041226E-02 0.506E-06
 d Force = 0.3247280E-02[-0.294E-03, 0.679E-02]  d Ewald  = 0.3256295E-02-0.901E-05

[...]

 FEWALD executed in parallel

[...]

 eigenvalue-minimisations  :  1691
 total energy-change (2. order) :-0.4527010E-09  (-0.1921919E-13)
 number of electron      16.0000000 magnetization
 augmentation part        0.3818090 magnetization

[...]

 eigenvalue-minimisations  :  1630
 total energy-change (2. order) : 0.2012257E-09  (-0.6920185E-13)
 number of electron      16.0000000 magnetization
 augmentation part        0.3818090 magnetization

 Broyden mixing:
  rms(total) = 0.35838E-07    rms(broyden)= 0.35838E-07
  rms(prec ) = 0.38222E-07
  weight for this iteration     100.00

 eigenvalues of (default mixing * dielectric matrix)
  average eigenvalue GAMMA=   1.3769
  4.8316  2.7214  2.7214  2.4414  1.1454  1.1454  0.8936  0.8936  0.9159  0.9159
  0.6082  0.6082  0.0208  0.3956  0.3956

[...]

----------------------------------------- Iteration    4(  17)  ---------------------------------------

 eigenvalue-minimisations  :  1410
 total energy-change (2. order) : 0.6798473E-10  ( 0.1280868E-13)
 number of electron      16.0000000 magnetization
 augmentation part        0.3818090 magnetization

 Free energy of the ion-electron system (eV)
  alpha Z        PSCENC =         6.18334092
  Ewald energy   TEWEN  =      2585.69059567
  -Hartree energ DENC   =     -3079.63870893
  -exchange      EXHF   =         0.00000000
  -V(xc)+E(xc)   XCENC  =        57.51942709
  PAW double counting   =       277.01034923     -282.15889819
  entropy T*S    EENTRO =        -0.00013055
  eigenvalues    EBANDS =      -190.15498836
  atomic energy  EATOM  =       588.62352690
  free energy    TOTEN  =       -36.92548621 eV

  energy without entropy =      -36.92535566  energy(sigma->0) =      -36.92542093

 average (electrostatic) potential at core
  the test charge radii are     0.6991
  (the norm of the test charge is              1.0000)
       1 -58.1901       2 -58.1901       3 -58.1901       4 -58.1901

 E-fermi :  -2.7540     XC(G=0):  -2.1424     alpha+bet : -1.9046

[...]

 k-point   247 :       0.5000    0.5000    0.0000
  band No.  band energies     occupation
      1     -17.0211      2.00000
      2     -17.0211      2.00000
      3     -15.9725      2.00000
      4     -15.9725      2.00000
      5      -9.1572      2.00000
      6      -9.1572      2.00000
      7      -5.1112      2.00000
      8      -5.1112      2.00000
      9      -1.0757      0.00000
     10      -1.0757      0.00000
     11       4.6088      0.00000
     12       4.6088      0.00000

 soft charge-density along one line, spin component           1
         0         1         2         3         4         5         6         7         8         9
 total charge-density along one line

------------------------ aborting loop because EDIFF is reached ----------------------------------------

  FORCE on cell =-STRESS in cart. coord.  units (eV):
  Direction    XX          YY          ZZ          XY          YZ          ZX
  Alpha Z     6.18334     6.18334     6.18334
  Ewald    3123.16605  3123.15240 -3660.62812     0.00000     0.00000    -0.00000
  Hartree  3056.97888  3056.97306 -3034.31324    -0.00000    -0.00000    -0.00000
  E(xc)     -58.33796   -58.33775   -60.67686     0.00000     0.00000    -0.00000
  Local   -6352.59557 -6352.57869  6488.78685     0.00000     0.00000    -0.00000
  n-local   -13.94870   -13.94336   -12.76607     0.05636    -0.00000     0.00000
  augment    -1.54155    -1.54150    -1.41421     0.00000     0.00000    -0.00000
  Kinetic   240.10803   240.06934   274.82698    -4.60025     0.00000    -0.00000
  Fock        0.00000     0.00000     0.00000     0.00000     0.00000     0.00000
  Total       0.01252    -0.02314    -0.00132     0.00000     0.00000     0.00000
  in kB       0.09510    -0.17587    -0.01004     0.00000     0.00000     0.00000

 VOLUME and BASIS-vectors are now :
  energy-cutoff  :     2000.00
  volume of cell :      210.84
      direct lattice vectors                 reciprocal lattice vectors
     4.273041222  0.000000000  0.000000000     0.234025358  0.000000000  0.000000000
     0.000000000  2.467497847  0.000000000     0.000000000  0.405268844  0.000000000
     0.000000000  0.000000000 19.996538329     0.000000000  0.000000000  0.050008656

  length of vectors
     4.273041222  2.467497847 19.996538329     0.234025358  0.405268844  0.050008656

 FORCES acting on ions
    electron-ion (+dipol)            ewald-force                    non-local-force                 convergence-correction
   -.331E-01 0.789E-16 0.232E-10   0.332E-01 0.360E-14 0.481E-34   -.101E-03 0.000E+00 0.000E+00   0.483E-06 0.130E-13 0.224E-12
   0.331E-01 -.177E-12 -.515E-08   -.332E-01 -.274E-14 -.728E-19   0.101E-03 0.000E+00 0.000E+00   -.483E-06 -.107E-13 0.223E-12
   -.331E-01 0.698E-12 0.127E-10   0.332E-01 0.297E-14 -.481E-34   -.101E-03 0.000E+00 -.323E-26   0.483E-06 0.136E-13 0.226E-12
   0.331E-01 0.833E-16 -.518E-08   -.332E-01 -.337E-14 0.728E-19   0.101E-03 0.000E+00 0.323E-26   -.483E-06 -.116E-13 0.226E-12
   -.463E-06 0.521E-12 -.103E-07   -.111E-15 0.450E-15 0.120E-34   0.813E-19 0.000E+00 0.000E+00   -.135E-12 0.424E-14 0.899E-12

 POSITION                                       TOTAL-FORCE (eV/Angst)
      4.27306     -0.00000     -0.00000         0.000000      0.000000      0.000000
      0.71215      1.23375      0.00000        -0.000000     -0.000000     -0.000000
      2.13654      1.23375     -0.00000         0.000000     -0.000000      0.000000
      2.84867      0.00000      0.00000        -0.000000     -0.000000     -0.000000
    total drift:                               -0.000000      0.000000     -0.000000

  FREE ENERGIE OF THE ION-ELECTRON SYSTEM (eV)
  free  energy   TOTEN  =       -36.92548621 eV

  energy  without entropy=      -36.92535566  energy(sigma->0) =      -36.92542093

 d Force = 0.2948352E-09[-0.912E-13, 0.590E-09]  d Energy = 0.3504965E-09-0.557E-10
 d Force =-0.1575778E-06[-0.159E-06,-0.157E-06]  d Ewald  =-0.1575772E-06-0.455E-12

 Quasi-Newton relaxation of ions (Broydens 2nd method)
  g(Force)  = 0.705E-16   g(Stress)= 0.000E+00

 retain information from N=  1 steps
 eigenvalues of (default step * inverse Hessian matrix)
  average eigenvalue of G=   0.2001
 eigenvalue spectrum of G is  0.2001

 reached required accuracy - stopping structural energy minimisation