 vasp.5.3.5 31Mar14 (build Mar 02 2015 18:14:16) complex

 executed on             LinuxIFC date 2018.08.10  14:45:14

 INCAR:
 POTCAR:   PAW_PBE C 08Apr2002
 POTCAR:   PAW_PBE C 08Apr2002
   VRHFIN =C: s2p2

   TITEL  = PAW_PBE C 08Apr2002
   POMASS =   12.011; ZVAL   =    4.000    mass and valenz
   ENMAX  =  400.000; ENMIN  =  300.000 eV
   QCUT   =   -5.516; QGAM   =   11.032    optimization parameters

   Description
     l     E      TYP  RCUT    TYP  RCUT
     0   .000     23  1.200
     0   .000     23  1.200
     1   .000     23  1.500
     1  2.500     23  1.500
     2   .000      7  1.500

 PAW_PBE C 08Apr2002                    :

 POSCAR: MD-kMC export data
  positions in direct lattice
  velocities in cartesian coordinates
 exchange correlation table for  LEXCH =        8
   RHO(1)=    0.500       N(1)  =     2000
   RHO(2)=  100.500       N(2)  =     4000

 ion  position               nearest neighbor table
   1  1.000  0.000  0.000-   4 1.42   2 1.43   2 1.43
   2  0.167  0.500  0.000-   3 1.42   1 1.43   1 1.43
   3  0.500  0.500  0.000-   2 1.42   4 1.43   4 1.43
   4  0.667  0.000  0.000-   1 1.42   3 1.43   3 1.43

  LATTYP: Found a simple orthorhombic cell.
 ALAT       =     2.4674727764
 B/A-ratio  =     1.7318346720
 C/A-ratio  =     8.1037334042

  Lattice vectors:

 A1 = (   0.0000000000,  -2.4674727764,   0.0000000000)
 A2 = (  -4.2732549065,   0.0000000000,   0.0000000000)
 A3 = (   0.0000000000,   0.0000000000, -19.9957415622)

Analysis of symmetry for initial positions (statically):
 Subroutine PRICEL returns following result:

  LATTYP: Found a base centered orthorhombic cell.
 ALAT       =     2.4674727764
 B/A-ratio  =     1.7318346720
 C/A-ratio  =     8.1037334042

[...]

   2 primitive cells build up your supercell.

 Routine SETGRP: Setting up the symmetry group for a
 simple orthorhombic supercell.

 Subroutine GETGRP returns: Found  8 space group operations
 (whereof  4 operations were pure point group operations)
 out of a pool of  8 trial point group operations.

The static configuration has the point symmetry C_2v.
 The point group associated with its full space group is D_2h.

Analysis of symmetry for dynamics (positions and initial velocities):
 Subroutine PRICEL returns following result:

  LATTYP: Found a base centered orthorhombic cell.
 ALAT       =     2.4674727764
 B/A-ratio  =     1.7318346720
 C/A-ratio  =     8.1037334042

  Lattice vectors:

 A1 = (   2.1366274532,  -1.2337363882,   0.0000000000)
 A2 = (  -2.1366274532,  -1.2337363882,   0.0000000000)
 A3 = (   0.0000000000,   0.0000000000, -19.9957415622)

   2 primitive cells build up your supercell.

 Routine SETGRP: Setting up the symmetry group for a
 simple orthorhombic supercell.

 Subroutine GETGRP returns: Found  8 space group operations
 (whereof  4 operations were pure point group operations)
 out of a pool of  8 trial point group operations.

The dynamic configuration has the point symmetry C_2v.
 The point group associated with its full space group is D_2h.

 KPOINTS: Automatic mesh

Automatic generation of k-mesh.
Space group operators:
 irot       det(A)        alpha          n_x          n_y          n_z        tau_x        tau_y        tau_z
    1     1.000000     0.000000     1.000000     0.000000     0.000000     0.000000     0.000000     0.000000
    2    -1.000000   180.000000     0.000000     0.000000     1.000000     0.000000     0.000000     0.000000
    3     1.000000   180.000000     1.000000     0.000000     0.000000     0.000000     0.000000     0.000000
    4    -1.000000   180.000000     0.000000     1.000000     0.000000     0.000000     0.000000     0.000000
    5    -1.000000     0.000000     1.000000     0.000000     0.000000     0.166667    -0.500000     0.000000
    6     1.000000   180.000000     0.000000     0.000000     1.000000     0.166667    -0.500000     0.000000
    7    -1.000000   180.000000     1.000000     0.000000     0.000000     0.166667    -0.500000     0.000000
    8     1.000000   180.000000     0.000000     1.000000     0.000000     0.166667    -0.500000     0.000000

 Subroutine IBZKPT returns following result:

 Found    247 irreducible k-points:

 Following reciprocal coordinates:
            Coordinates               Weight
  0.000000  0.000000  0.000000      1.000000
  0.041667  0.000000  0.000000      2.000000
  0.083333  0.000000  0.000000      2.000000
  0.125000  0.000000  0.000000      2.000000
  0.166667  0.000000  0.000000      2.000000
  0.208333  0.000000  0.000000      2.000000
  0.250000  0.000000  0.000000      2.000000
  0.291667  0.000000  0.000000      2.000000
  0.333333  0.000000  0.000000      2.000000
  0.375000  0.000000  0.000000      2.000000
  0.416667  0.000000  0.000000      2.000000
  0.458333  0.000000  0.000000      2.000000
  0.500000  0.000000  0.000000      1.000000
  0.000000  0.027778  0.000000      2.000000
  0.041667  0.027778  0.000000      4.000000
  0.083333  0.027778  0.000000      4.000000
  0.125000  0.027778  0.000000      4.000000
  0.166667  0.027778  0.000000      4.000000
  0.208333  0.027778  0.000000      4.000000
  0.250000  0.027778  0.000000      4.000000
  0.291667  0.027778  0.000000      4.000000
  0.333333  0.027778  0.000000      4.000000
  0.375000  0.027778  0.000000      4.000000
  0.416667  0.027778  0.000000      4.000000
  0.458333  0.027778  0.000000      4.000000
  0.500000  0.027778  0.000000      2.000000
  0.000000  0.055556  0.000000      2.000000
  0.041667  0.055556  0.000000      4.000000
  0.083333  0.055556  0.000000      4.000000
  0.125000  0.055556  0.000000      4.000000
  0.166667  0.055556  0.000000      4.000000
  0.208333  0.055556  0.000000      4.000000
  0.250000  0.055556  0.000000      4.000000
  0.291667  0.055556  0.000000      4.000000
  0.333333  0.055556  0.000000      4.000000
  0.375000  0.055556  0.000000      4.000000
  0.416667  0.055556  0.000000      4.000000
  0.458333  0.055556  0.000000      4.000000
  0.500000  0.055556  0.000000      2.000000
  0.000000  0.083333  0.000000      2.000000
  0.041667  0.083333  0.000000      4.000000
  0.083333  0.083333  0.000000      4.000000
  0.125000  0.083333  0.000000      4.000000
  0.166667  0.083333  0.000000      4.000000
  0.208333  0.083333  0.000000      4.000000
  0.250000  0.083333  0.000000      4.000000
  0.291667  0.083333  0.000000      4.000000
  0.333333  0.083333  0.000000      4.000000
  0.375000  0.083333  0.000000      4.000000
  0.416667  0.083333  0.000000      4.000000
  0.458333  0.083333  0.000000      4.000000
  0.500000  0.083333  0.000000      2.000000
  0.000000  0.111111  0.000000      2.000000
  0.041667  0.111111  0.000000      4.000000
  0.083333  0.111111  0.000000      4.000000
  0.125000  0.111111  0.000000      4.000000
  0.166667  0.111111  0.000000      4.000000
  0.208333  0.111111  0.000000      4.000000
  0.250000  0.111111  0.000000      4.000000
  0.291667  0.111111  0.000000      4.000000
[...]
  0.458333  0.472222  0.000000      4.000000
  0.500000  0.472222  0.000000      2.000000
  0.000000  0.500000  0.000000      1.000000
  0.041667  0.500000  0.000000      2.000000
  0.083333  0.500000  0.000000      2.000000
  0.125000  0.500000  0.000000      2.000000
  0.166667  0.500000  0.000000      2.000000
  0.208333  0.500000  0.000000      2.000000
  0.250000  0.500000  0.000000      2.000000
  0.291667  0.500000  0.000000      2.000000
  0.333333  0.500000  0.000000      2.000000
  0.375000  0.500000  0.000000      2.000000
  0.416667  0.500000  0.000000      2.000000
  0.458333  0.500000  0.000000      2.000000
  0.500000  0.500000  0.000000      1.000000

 Following cartesian coordinates:
            Coordinates               Weight
  0.000000  0.000000  0.000000      1.000000
  0.009751  0.000000  0.000000      2.000000
  0.019501  0.000000  0.000000      2.000000
  0.029252  0.000000  0.000000      2.000000
  0.039002  0.000000  0.000000      2.000000
  0.048753  0.000000  0.000000      2.000000
  0.058503  0.000000  0.000000      2.000000
  0.068254  0.000000  0.000000      2.000000
  0.078005  0.000000  0.000000      2.000000
  0.087755  0.000000  0.000000      2.000000
  0.097506  0.000000  0.000000      2.000000
  0.107256  0.000000  0.000000      2.000000
  0.117007  0.000000  0.000000      1.000000
  0.000000  0.011258  0.000000      2.000000
  0.009751  0.011258  0.000000      4.000000
  0.019501  0.011258  0.000000      4.000000
  0.029252  0.011258  0.000000      4.000000
  0.039002  0.011258  0.000000      4.000000
  0.048753  0.011258  0.000000      4.000000
  0.058503  0.011258  0.000000      4.000000
  0.068254  0.011258  0.000000      4.000000
  0.078005  0.011258  0.000000      4.000000
  0.087755  0.011258  0.000000      4.000000
  0.097506  0.011258  0.000000      4.000000
  0.107256  0.011258  0.000000      4.000000
  0.117007  0.011258  0.000000      2.000000
  0.000000  0.022515  0.000000      2.000000
  0.009751  0.022515  0.000000      4.000000
  0.019501  0.022515  0.000000      4.000000
  0.029252  0.022515  0.000000      4.000000
  0.039002  0.022515  0.000000      4.000000
  0.048753  0.022515  0.000000      4.000000
  0.058503  0.022515  0.000000      4.000000
  0.068254  0.022515  0.000000      4.000000
  0.078005  0.022515  0.000000      4.000000
  0.087755  0.022515  0.000000      4.000000
  0.097506  0.022515  0.000000      4.000000
  0.107256  0.022515  0.000000      4.000000
  0.117007  0.022515  0.000000      2.000000
  0.000000  0.033773  0.000000      2.000000
  0.009751  0.033773  0.000000      4.000000
  0.019501  0.033773  0.000000      4.000000
  0.029252  0.033773  0.000000      4.000000
  0.039002  0.033773  0.000000      4.000000
  0.048753  0.033773  0.000000      4.000000
  0.058503  0.033773  0.000000      4.000000
  0.068254  0.033773  0.000000      4.000000
  0.078005  0.033773  0.000000      4.000000
  0.087755  0.033773  0.000000      4.000000
  0.097506  0.033773  0.000000      4.000000
  0.107256  0.033773  0.000000      4.000000
  0.117007  0.033773  0.000000      2.000000
  0.000000  0.045030  0.000000      2.000000
  0.009751  0.045030  0.000000      4.000000
  0.019501  0.045030  0.000000      4.000000
  0.029252  0.045030  0.000000      4.000000
  0.039002  0.045030  0.000000      4.000000
  0.048753  0.045030  0.000000      4.000000
  0.058503  0.045030  0.000000      4.000000
  0.068254  0.045030  0.000000      4.000000
[...]
  0.107256  0.191379  0.000000      4.000000
  0.117007  0.191379  0.000000      2.000000
  0.000000  0.202636  0.000000      1.000000
  0.009751  0.202636  0.000000      2.000000
  0.019501  0.202636  0.000000      2.000000
  0.029252  0.202636  0.000000      2.000000
  0.039002  0.202636  0.000000      2.000000
  0.048753  0.202636  0.000000      2.000000
  0.058503  0.202636  0.000000      2.000000
  0.068254  0.202636  0.000000      2.000000
  0.078005  0.202636  0.000000      2.000000
  0.087755  0.202636  0.000000      2.000000
  0.097506  0.202636  0.000000      2.000000
  0.107256  0.202636  0.000000      2.000000
  0.117007  0.202636  0.000000      1.000000

 I would recommend the setting:
   dimension x,y,z NGX =    62 NGY =   36 NGZ =  292
[...]
 k-point ** :   0.0000 0.2778 0.0000  plane waves:   42888
 k-point ** :   0.0417 0.2778 0.0000  plane waves:   42884
 k-point ** :   0.0833 0.2778 0.0000  plane waves:   42873
 k-point ** :   0.1250 0.2778 0.0000  plane waves:   42868
 k-point ** :   0.1667 0.2778 0.0000  plane waves:   42875
 k-point ** :   0.2083 0.2778 0.0000  plane waves:   42865
 k-point ** :   0.2500 0.2778 0.0000  plane waves:   42839
 k-point ** :   0.2917 0.2778 0.0000  plane waves:   42843
 k-point ** :   0.3333 0.2778 0.0000  plane waves:   42818
 k-point ** :   0.3750 0.2778 0.0000  plane waves:   42821
 k-point ** :   0.4167 0.2778 0.0000  plane waves:   42806
 k-point ** :   0.4583 0.2778 0.0000  plane waves:   42818
 k-point ** :   0.5000 0.2778 0.0000  plane waves:   42838
 k-point ** :   0.0000 0.3056 0.0000  plane waves:   42882
 k-point ** :   0.0417 0.3056 0.0000  plane waves:   42902
 k-point ** :   0.0833 0.3056 0.0000  plane waves:   42875
 k-point ** :   0.1250 0.3056 0.0000  plane waves:   42855
 k-point ** :   0.1667 0.3056 0.0000  plane waves:   42886
 k-point ** :   0.2083 0.3056 0.0000  plane waves:   42863
 k-point ** :   0.2500 0.3056 0.0000  plane waves:   42843
 k-point ** :   0.2917 0.3056 0.0000  plane waves:   42841
 k-point ** :   0.3333 0.3056 0.0000  plane waves:   42840
 k-point ** :   0.3750 0.3056 0.0000  plane waves:   42830
 k-point ** :   0.4167 0.3056 0.0000  plane waves:   42810
 k-point ** :   0.4583 0.3056 0.0000  plane waves:   42816
 k-point ** :   0.5000 0.3056 0.0000  plane waves:   42856
 k-point ** :   0.0000 0.3333 0.0000  plane waves:   42912
 k-point ** :   0.0417 0.3333 0.0000  plane waves:   42901
 k-point ** :   0.0833 0.3333 0.0000  plane waves:   42877
[...]
 k-point ** :   0.4583 0.4722 0.0000  plane waves:   42809
 k-point ** :   0.5000 0.4722 0.0000  plane waves:   42834
 k-point ** :   0.0000 0.5000 0.0000  plane waves:   42878
 k-point ** :   0.0417 0.5000 0.0000  plane waves:   42948
 k-point ** :   0.0833 0.5000 0.0000  plane waves:   42928
 k-point ** :   0.1250 0.5000 0.0000  plane waves:   42922
 k-point ** :   0.1667 0.5000 0.0000  plane waves:   42910
 k-point ** :   0.2083 0.5000 0.0000  plane waves:   42950
 k-point ** :   0.2500 0.5000 0.0000  plane waves:   42932
 k-point ** :   0.2917 0.5000 0.0000  plane waves:   42884
 k-point ** :   0.3333 0.5000 0.0000  plane waves:   42846
 k-point ** :   0.3750 0.5000 0.0000  plane waves:   42826
 k-point ** :   0.4167 0.5000 0.0000  plane waves:   42796
 k-point ** :   0.4583 0.5000 0.0000  plane waves:   42818
 k-point ** :   0.5000 0.5000 0.0000  plane waves:   42816

 maximum and minimum number of plane-waves per node :     21507    21249

 maximum number of plane-waves:     42950
 maximum index in each direction:
   IXMAX=   15   IYMAX=    8   IZMAX=   72
   IXMIN=  -16   IYMIN=   -9   IZMIN=  -72

 NGX is ok and might be reduce to  64
 NGY is ok and might be reduce to  36
 NGZ is ok and might be reduce to 290

 parallel 3D FFT for wavefunctions:
    minimum data exchange during FFTs selected (reduces bandwidth)
 parallel 3D FFT for charge:
    minimum data exchange during FFTs selected (reduces bandwidth)

 Broyden mixing: mesh for mixing (old mesh)
   NGX = 31   NGY = 17   NGZ =145
  (NGX  =128   NGY  = 72   NGZ  =588)
  gives a total of  76415 points

 initial charge density was supplied:
 charge density of overlapping atoms calculated
 number of electron      16.0000000 magnetization
 keeping initial charge density in first step

 Maximum index for augmentation-charges         4659 (set IRDMAX)

 First call to EWALD:  gamma=   0.298
 Maximum number of real-space cells 4x 6x 1
 Maximum number of reciprocal cells 2x 1x 8

 FEWALD executed in parallel

----------------------------------------- Iteration    1(   1)  ---------------------------------------

 eigenvalue-minimisations  :  5928
 total energy-change (2. order) : 0.1901383E+03  (-0.1059233E+04)
 number of electron      16.0000000 magnetization
 augmentation part       16.0000000 magnetization

 Free energy of the ion-electron system (eV)
  alpha Z        PSCENC =         6.18334092
  Ewald energy   TEWEN  =      2585.42056741
  -Hartree energ DENC   =     -3010.84412800
  -exchange      EXHF   =         0.00000000
  -V(xc)+E(xc)   XCENC  =        55.09474992
  PAW double counting   =       151.32577238     -155.92769107
  entropy T*S    EENTRO =        -0.00127343
  eigenvalues    EBANDS =       -29.73657544
  atomic energy  EATOM  =       588.62352690
  free energy    TOTEN  =       190.13828960 eV

  energy without entropy =      190.13956304  energy(sigma->0) =      190.13892632

[...]

 eigenvalue-minimisations  : 10448
 total energy-change (2. order) :-0.1997572E+03  (-0.1784120E+03)
 number of electron      16.0000000 magnetization
 augmentation part       16.0000000 magnetization

[...]

 Broyden mixing:
  rms(total) = 0.73776E+00    rms(broyden)= 0.73776E+00
  rms(prec ) = 0.80216E+00
  weight for this iteration     100.00

[...]

 eigenvalues of (default mixing * dielectric matrix)
  average eigenvalue GAMMA=   2.3101
  2.3101

[...]

WARNING in EDDRMM: call to ZHEGV failed, returncode =   6  3  1
WARNING in EDDRMM: call to ZHEGV failed, returncode =   6  3  1

[...]

 average (electrostatic) potential at core
  the test charge radii are     0.6991
  (the norm of the test charge is              1.0000)
       1 -58.1904       2 -58.1904       3 -58.1904       4 -58.1904

 E-fermi :  -2.7542     XC(G=0):  -2.1425     alpha+bet : -1.9046

 k-point     1 :       0.0000    0.0000    0.0000
  band No.  band energies     occupation
      1     -22.2526      2.00000
      2     -17.0147      2.00000
      3     -15.9816      2.00000
      4     -10.3581      2.00000
      5      -9.1524      2.00000
      6      -5.8022      2.00000
      7      -5.7705      2.00000
      8      -5.1018      2.00000
      9      -1.0882      0.00000
     10       0.5240      0.00000
     11       1.3251      0.00000
     12       1.7081      0.00000

[...]

 soft charge-density along one line, spin component           1
         0         1         2         3         4         5         6         7         8         9
 total charge-density along one line

------------------------ aborting loop because EDIFF is reached ----------------------------------------

  FORCE on cell =-STRESS in cart. coord.  units (eV):
  Direction    XX          YY          ZZ          XY          YZ          ZX
  Alpha Z     6.18334     6.18334     6.18334
  Ewald    3123.36736  3122.38935 -3660.33641     0.00000     0.00000    -0.00000
  Hartree  3056.77419  3056.63701 -3034.04190    -0.00000    -0.00000    -0.00000
  E(xc)     -58.33539   -58.33892   -60.67612    -0.00000    -0.00000    -0.00000
  Local   -6352.50129 -6351.57359  6488.22551    -0.00000    -0.00000     0.00000
  n-local   -13.94289   -13.94708   -12.76553     0.05573     0.00000     0.00000
  augment    -1.54220    -1.54061    -1.41413    -0.00000    -0.00000    -0.00000
  Kinetic   240.02005   240.14622   274.82392    -4.59747    -0.00000    -0.00000
  Fock        0.00000     0.00000     0.00000     0.00000     0.00000     0.00000
  Total       0.02317    -0.04428    -0.00132     0.00000     0.00000     0.00000
  in kB       0.17609    -0.33647    -0.01002     0.00000     0.00000     0.00000

 VOLUME and BASIS-vectors are now :
  energy-cutoff  :     2000.00
  volume of cell :      210.84
      direct lattice vectors                 reciprocal lattice vectors
     4.273254906  0.000000000  0.000000000     0.234013655  0.000000000  0.000000000
     0.000000000  2.467472776  0.000000000     0.000000000  0.405272962  0.000000000
     0.000000000  0.000000000 19.995741562     0.000000000  0.000000000  0.050010648

[...]

 FORCES acting on ions
    electron-ion (+dipol)            ewald-force                    non-local-force                 convergence-correction
   -.182E+00 0.106E-15 -.317E-09   0.219E+00 -.326E-14 0.000E+00   0.206E-01 -.347E-17 0.000E+00   -.643E-08 -.352E-14 0.195E-12
   0.182E+00 0.122E-13 -.580E-08   -.219E+00 0.113E-13 0.557E-18   -.206E-01 0.000E+00 0.103E-24   0.643E-08 0.224E-14 0.195E-12
   -.182E+00 -.202E-12 -.351E-09   0.219E+00 -.987E-14 0.000E+00   0.206E-01 -.104E-16 0.000E+00   -.643E-08 -.368E-14 0.195E-12
   0.182E+00 0.120E-16 -.583E-08   -.219E+00 0.470E-14 -.557E-18   -.206E-01 0.139E-16 0.000E+00   0.643E-08 0.239E-14 0.194E-12
   -.491E-06 -.189E-12 -.123E-07   -.552E-14 0.287E-14 0.000E+00   0.694E-17 0.000E+00 0.103E-24   -.246E-13 -.257E-14 0.779E-12

 POSITION                                       TOTAL-FORCE (eV/Angst)
      4.27272      0.00000      0.00000         0.057483      0.000000      0.000000
      0.71275      1.23374      0.00000        -0.057483     -0.000000     -0.000000
      2.13609      1.23374      0.00000         0.057483     -0.000000      0.000000
      2.84938      0.00000      0.00000        -0.057483      0.000000     -0.000000
    total drift:                               -0.000000     -0.000000     -0.000000

  FREE ENERGIE OF THE ION-ELECTRON SYSTEM (eV)
  free  energy   TOTEN  =       -36.92542319 eV

  energy  without entropy=      -36.92529590  energy(sigma->0) =      -36.92535954

 Quasi-Newton relaxation of ions (Broydens 2nd method)
  g(Force)  = 0.638E-03   g(Stress)= 0.000E+00

 Reset! Starting new Quasi-Newton update for ions

[...]

 d Force =-0.9558053E-03[-0.255E-02, 0.638E-03]  d Energy =-0.9559824E-03 0.177E-06
 d Force =-0.3001194E-02[-0.843E-02, 0.243E-02]  d Ewald  =-0.3018270E-02 0.171E-04

[...]

 retain information from N=  1 steps
 eigenvalues of (default step * inverse Hessian matrix)
  average eigenvalue of G=   0.2001
 eigenvalue spectrum of G is  0.2001

[...]

WARNING in EDDRMM: call to ZHEGV failed, returncode =   6  3  1

[...]

 d Force = 0.1020105E-02[ 0.102E-05, 0.204E-02]  d Energy = 0.1019599E-02 0.506E-06
 d Force = 0.3276502E-02[-0.192E-03, 0.675E-02]  d Ewald  = 0.3285239E-02-0.874E-05

[...]

 d Force = 0.2637195E-09[ 0.179E-10, 0.510E-09]  d Energy = 0.6614300E-09-0.398E-09
 d Force =-0.9691461E-07[-0.978E-07,-0.960E-07]  d Ewald  =-0.9691439E-07 0.000E+00

[...]

 eigenvalue-minimisations  :  4780
 total energy-change (2. order) : 0.4029062E-09  ( 0.5771980E-09)
 number of electron      16.0000000 magnetization
 augmentation part        0.3817909 magnetization

[...]

 eigenvalue-minimisations  :  1570
 total energy-change (2. order) : 0.2683009E-09  (-0.6611173E-13)
 number of electron      16.0000000 magnetization
 augmentation part        0.3817909 magnetization

[...]

 d Force =-0.2300417E-15[-0.651E-12, 0.651E-12]  d Energy =-0.1675744E-09 0.168E-09
 d Force =-0.3558153E-08[-0.356E-08,-0.356E-08]  d Ewald  =-0.3557943E-08 0.000E+00

[...]

 FEWALD executed in parallel

[...]

 eigenvalue-minimisations  :   780
 total energy-change (2. order) :-0.3492460E-09  (-0.9292978E-14)
 number of electron      16.0000000 magnetization
 augmentation part        0.3817909 magnetization

[...]

 Broyden mixing:
  rms(total) = 0.26107E-09    rms(broyden)= 0.26103E-09
  rms(prec ) = 0.39876E-09
  weight for this iteration     100.00

 eigenvalues of (default mixing * dielectric matrix)
  average eigenvalue GAMMA=   1.5801
  2.6825  2.2956  0.6711  0.6711

[...]

----------------------------------------- Iteration    6(   6)  ---------------------------------------

 eigenvalue-minimisations  :   619
 total energy-change (2. order) : 0.4945377E-10  ( 0.2289115E-13)
 number of electron      16.0000000 magnetization
 augmentation part        0.3817909 magnetization

 Free energy of the ion-electron system (eV)
  alpha Z        PSCENC =         6.18334092
  Ewald energy   TEWEN  =      2585.42030054
  -Hartree energ DENC   =     -3079.36908585
  -exchange      EXHF   =         0.00000000
  -V(xc)+E(xc)   XCENC  =        57.51868981
  PAW double counting   =       276.99409348     -282.14256828
  entropy T*S    EENTRO =        -0.00013058
  eigenvalues    EBANDS =      -190.15365376
  atomic energy  EATOM  =       588.62352690
  free energy    TOTEN  =       -36.92548680 eV

  energy without entropy =      -36.92535622  energy(sigma->0) =      -36.92542151

 average (electrostatic) potential at core
  the test charge radii are     0.6991
  (the norm of the test charge is              1.0000)
       1 -58.1904       2 -58.1904       3 -58.1904       4 -58.1904

 E-fermi :  -2.7542     XC(G=0):  -2.1424     alpha+bet : -1.9046

[...]

 k-point   247 :       0.5000    0.5000    0.0000
  band No.  band energies     occupation
      1     -17.0207      2.00000
      2     -17.0207      2.00000
      3     -15.9723      2.00000
      4     -15.9723      2.00000
      5      -9.1576      2.00000
      6      -9.1576      2.00000
      7      -5.1110      2.00000
      8      -5.1110      2.00000
      9      -1.0758      0.00000
     10      -1.0758      0.00000
     11       4.6074      0.00000
     12       4.6074      0.00000

 soft charge-density along one line, spin component           1
         0         1         2         3         4         5         6         7         8         9
 total charge-density along one line

------------------------ aborting loop because EDIFF is reached ----------------------------------------

  FORCE on cell =-STRESS in cart. coord.  units (eV):
  Direction    XX          YY          ZZ          XY          YZ          ZX
  Alpha Z     6.18334     6.18334     6.18334
  Ewald    3122.88191  3122.87453 -3660.33641     0.00000     0.00000    -0.00000
  Hartree  3056.70729  3056.70368 -3034.04188     0.00000    -0.00000    -0.00000
  E(xc)     -58.33722   -58.33707   -60.67611    -0.00000    -0.00000    -0.00000
  Local   -6352.04205 -6352.03256  6488.22557    -0.00000     0.00000     0.00000
  n-local   -13.94679   -13.94319   -12.76551     0.05638    -0.00000     0.00000
  augment    -1.54143    -1.54138    -1.41412    -0.00000     0.00000     0.00000
  Kinetic   240.09640   240.06966   274.82382    -4.59994     0.00000    -0.00000
  Fock        0.00000     0.00000     0.00000     0.00000     0.00000     0.00000
  Total       0.00147    -0.02298    -0.00132     0.00000     0.00000     0.00000
  in kB       0.01115    -0.17460    -0.01003     0.00000     0.00000     0.00000

 VOLUME and BASIS-vectors are now :
  energy-cutoff  :     2000.00
  volume of cell :      210.84
      direct lattice vectors                 reciprocal lattice vectors
     4.273254906  0.000000000  0.000000000     0.234013655  0.000000000  0.000000000
     0.000000000  2.467472776  0.000000000     0.000000000  0.405272962  0.000000000
     0.000000000  0.000000000 19.995741562     0.000000000  0.000000000  0.050010648

  length of vectors
     4.273254906  2.467472776 19.995741562     0.234013655  0.405272962  0.050010648

 FORCES acting on ions
    electron-ion (+dipol)            ewald-force                    non-local-force                 convergence-correction
   -.220E-01 0.794E-15 0.271E-10   0.220E-01 0.517E-14 -.433E-33   -.805E-04 -.694E-17 0.000E+00   0.297E-08 -.688E-15 0.612E-12
   0.220E-01 0.191E-12 -.515E-08   -.220E-01 -.795E-15 0.571E-18   0.805E-04 0.139E-16 0.485E-26   -.297E-08 0.834E-16 0.616E-12
   -.220E-01 -.207E-12 -.638E-11   0.220E-01 0.223E-14 0.433E-33   -.805E-04 -.694E-17 0.000E+00   0.297E-08 -.264E-15 0.604E-12
   0.220E-01 0.296E-15 -.514E-08   -.220E-01 -.373E-14 -.571E-18   0.805E-04 0.000E+00 0.323E-26   -.297E-08 -.438E-15 0.601E-12
   -.467E-06 -.154E-13 -.103E-07   -.552E-14 0.287E-14 0.000E+00   0.271E-19 0.000E+00 0.808E-26   0.191E-14 -.131E-14 0.243E-11

 POSITION                                       TOTAL-FORCE (eV/Angst)
      4.27327      0.00000     -0.00000        -0.000000      0.000000     -0.000000
      0.71219      1.23374      0.00000         0.000000     -0.000000      0.000000
      2.13664      1.23374     -0.00000        -0.000000      0.000000     -0.000000
      2.84882      0.00000      0.00000         0.000000     -0.000000      0.000000
    total drift:                               -0.000000     -0.000000     -0.000000

  FREE ENERGIE OF THE ION-ELECTRON SYSTEM (eV)
  free  energy   TOTEN  =       -36.92548680 eV

  energy  without entropy=      -36.92535622  energy(sigma->0) =      -36.92542151

 d Force = 0.1588636E-12[-0.788E-14, 0.326E-12]  d Energy =-0.1658691E-09 0.166E-09
 d Force = 0.1779995E-08[ 0.178E-08, 0.178E-08]  d Ewald  = 0.1779426E-08 0.455E-12

 Quasi-Newton relaxation of ions (Broydens 2nd method)
  g(Force)  = 0.184E-14   g(Stress)= 0.000E+00

 retain information from N=  1 steps
 eigenvalues of (default step * inverse Hessian matrix)
  average eigenvalue of G=   0.1012
 eigenvalue spectrum of G is  0.1012

 reached required accuracy - stopping structural energy minimisation