 vasp.5.3.5 31Mar14 (build Mar 02 2015 18:14:16) complex

 executed on             LinuxIFC date 2018.08.09  21:00:42

 INCAR:
 POTCAR:   PAW_PBE C 08Apr2002
 POTCAR:   PAW_PBE C 08Apr2002
   VRHFIN =C: s2p2

   TITEL  = PAW_PBE C 08Apr2002
   POMASS =   12.011; ZVAL   =    4.000    mass and valenz
   ENMAX  =  400.000; ENMIN  =  300.000 eV
   QCUT   =   -5.516; QGAM   =   11.032    optimization parameters

   Description
     l     E      TYP  RCUT    TYP  RCUT
     0   .000     23  1.200
     0   .000     23  1.200
     1   .000     23  1.500
     1  2.500     23  1.500
     2   .000      7  1.500

 PAW_PBE C 08Apr2002                    :

 POSCAR: MD-kMC export data
  positions in direct lattice
  velocities in cartesian coordinates
 exchange correlation table for  LEXCH =        8
   RHO(1)=    0.500       N(1)  =     2000
   RHO(2)=  100.500       N(2)  =     4000

 ion  position               nearest neighbor table
   1  0.001  0.000  0.000-   4 1.42   2 1.45   2 1.45
   2  0.166  0.500  0.000-   3 1.42   1 1.45   1 1.45
   3  0.501  0.500  0.000-   2 1.42   4 1.45   4 1.45
   4  0.666  0.000  0.000-   1 1.42   3 1.45   3 1.45

  LATTYP: Found a simple orthorhombic cell.
 ALAT       =     2.5284913462
 B/A-ratio  =     1.6829524609
 C/A-ratio  =     7.7498343832

  Lattice vectors:

 A1 = (   0.0000000000,  -2.5284913462,   0.0000000000)
 A2 = (  -4.2553307334,   0.0000000000,   0.0000000000)
 A3 = (   0.0000000000,   0.0000000000, -19.5953891722)

Analysis of symmetry for initial positions (statically):
 Subroutine PRICEL returns following result:

  LATTYP: Found a base centered orthorhombic cell.
 ALAT       =     2.5284913462
 B/A-ratio  =     1.6829524609
 C/A-ratio  =     7.7498343832

[...]

   2 primitive cells build up your supercell.

 Routine SETGRP: Setting up the symmetry group for a
 simple orthorhombic supercell.

 Subroutine GETGRP returns: Found  8 space group operations
 (whereof  4 operations were pure point group operations)
 out of a pool of  8 trial point group operations.

The static configuration has the point symmetry C_2v.
 The point group associated with its full space group is D_2h.

Analysis of symmetry for dynamics (positions and initial velocities):
 Subroutine PRICEL returns following result:

  LATTYP: Found a base centered orthorhombic cell.
 ALAT       =     2.5284913462
 B/A-ratio  =     1.6829524609
 C/A-ratio  =     7.7498343832

  Lattice vectors:

 A1 = (   2.1276653667,  -1.2642456731,   0.0000000000)
 A2 = (  -2.1276653667,  -1.2642456731,   0.0000000000)
 A3 = (   0.0000000000,   0.0000000000, -19.5953891722)

   2 primitive cells build up your supercell.

 Routine SETGRP: Setting up the symmetry group for a
 simple orthorhombic supercell.

 Subroutine GETGRP returns: Found  8 space group operations
 (whereof  4 operations were pure point group operations)
 out of a pool of  8 trial point group operations.

The dynamic configuration has the point symmetry C_2v.
 The point group associated with its full space group is D_2h.

 KPOINTS: Automatic mesh

Automatic generation of k-mesh.
Space group operators:
 irot       det(A)        alpha          n_x          n_y          n_z        tau_x        tau_y        tau_z
    1     1.000000     0.000001     1.000000     0.000000     0.000000     0.000000     0.000000     0.000000
    2    -1.000000   180.000000     0.000000     0.000000     1.000000     0.000000     0.000000     0.000000
    3     1.000000   180.000000     1.000000     0.000000     0.000000     0.000000     0.000000     0.000000
    4    -1.000000   180.000000     0.000000     1.000000     0.000000     0.000000     0.000000     0.000000
    5    -1.000000     0.000001     1.000000     0.000000     0.000000     0.166667    -0.500000     0.000000
    6     1.000000   180.000000     0.000000     0.000000     1.000000     0.166667    -0.500000     0.000000
    7    -1.000000   180.000000     1.000000     0.000000     0.000000     0.166667    -0.500000     0.000000
    8     1.000000   180.000000     0.000000     1.000000     0.000000     0.166667    -0.500000     0.000000

 Subroutine IBZKPT returns following result:

 Found    247 irreducible k-points:

 Following reciprocal coordinates:
            Coordinates               Weight
  0.000000  0.000000  0.000000      1.000000
  0.041667  0.000000  0.000000      2.000000
  0.083333  0.000000  0.000000      2.000000
  0.125000  0.000000  0.000000      2.000000
  0.166667  0.000000  0.000000      2.000000
  0.208333  0.000000  0.000000      2.000000
  0.250000  0.000000  0.000000      2.000000
  0.291667  0.000000  0.000000      2.000000
  0.333333  0.000000  0.000000      2.000000
  0.375000  0.000000  0.000000      2.000000
  0.416667  0.000000  0.000000      2.000000
  0.458333  0.000000  0.000000      2.000000
  0.500000  0.000000  0.000000      1.000000
  0.000000  0.027778  0.000000      2.000000
  0.041667  0.027778  0.000000      4.000000
  0.083333  0.027778  0.000000      4.000000
  0.125000  0.027778  0.000000      4.000000
  0.166667  0.027778  0.000000      4.000000
  0.208333  0.027778  0.000000      4.000000
  0.250000  0.027778  0.000000      4.000000
  0.291667  0.027778  0.000000      4.000000
  0.333333  0.027778  0.000000      4.000000
  0.375000  0.027778  0.000000      4.000000
  0.416667  0.027778  0.000000      4.000000
  0.458333  0.027778  0.000000      4.000000
  0.500000  0.027778  0.000000      2.000000
  0.000000  0.055556  0.000000      2.000000
  0.041667  0.055556  0.000000      4.000000
  0.083333  0.055556  0.000000      4.000000
  0.125000  0.055556  0.000000      4.000000
  0.166667  0.055556  0.000000      4.000000
  0.208333  0.055556  0.000000      4.000000
  0.250000  0.055556  0.000000      4.000000
  0.291667  0.055556  0.000000      4.000000
  0.333333  0.055556  0.000000      4.000000
  0.375000  0.055556  0.000000      4.000000
  0.416667  0.055556  0.000000      4.000000
  0.458333  0.055556  0.000000      4.000000
  0.500000  0.055556  0.000000      2.000000
  0.000000  0.083333  0.000000      2.000000
  0.041667  0.083333  0.000000      4.000000
  0.083333  0.083333  0.000000      4.000000
  0.125000  0.083333  0.000000      4.000000
  0.166667  0.083333  0.000000      4.000000
  0.208333  0.083333  0.000000      4.000000
  0.250000  0.083333  0.000000      4.000000
  0.291667  0.083333  0.000000      4.000000
  0.333333  0.083333  0.000000      4.000000
  0.375000  0.083333  0.000000      4.000000
  0.416667  0.083333  0.000000      4.000000
  0.458333  0.083333  0.000000      4.000000
  0.500000  0.083333  0.000000      2.000000
  0.000000  0.111111  0.000000      2.000000
  0.041667  0.111111  0.000000      4.000000
  0.083333  0.111111  0.000000      4.000000
  0.125000  0.111111  0.000000      4.000000
  0.166667  0.111111  0.000000      4.000000
  0.208333  0.111111  0.000000      4.000000
  0.250000  0.111111  0.000000      4.000000
  0.291667  0.111111  0.000000      4.000000
[...]
  0.458333  0.472222  0.000000      4.000000
  0.500000  0.472222  0.000000      2.000000
  0.000000  0.500000  0.000000      1.000000
  0.041667  0.500000  0.000000      2.000000
  0.083333  0.500000  0.000000      2.000000
  0.125000  0.500000  0.000000      2.000000
  0.166667  0.500000  0.000000      2.000000
  0.208333  0.500000  0.000000      2.000000
  0.250000  0.500000  0.000000      2.000000
  0.291667  0.500000  0.000000      2.000000
  0.333333  0.500000  0.000000      2.000000
  0.375000  0.500000  0.000000      2.000000
  0.416667  0.500000  0.000000      2.000000
  0.458333  0.500000  0.000000      2.000000
  0.500000  0.500000  0.000000      1.000000

 Following cartesian coordinates:
            Coordinates               Weight
  0.000000  0.000000  0.000000      1.000000
  0.009792  0.000000  0.000000      2.000000
  0.019583  0.000000  0.000000      2.000000
  0.029375  0.000000  0.000000      2.000000
  0.039167  0.000000  0.000000      2.000000
  0.048958  0.000000  0.000000      2.000000
  0.058750  0.000000  0.000000      2.000000
  0.068541  0.000000  0.000000      2.000000
  0.078333  0.000000  0.000000      2.000000
  0.088125  0.000000  0.000000      2.000000
  0.097916  0.000000  0.000000      2.000000
  0.107708  0.000000  0.000000      2.000000
  0.117500  0.000000  0.000000      1.000000
  0.000000  0.010986  0.000000      2.000000
  0.009792  0.010986  0.000000      4.000000
  0.019583  0.010986  0.000000      4.000000
  0.029375  0.010986  0.000000      4.000000
  0.039167  0.010986  0.000000      4.000000
  0.048958  0.010986  0.000000      4.000000
  0.058750  0.010986  0.000000      4.000000
  0.068541  0.010986  0.000000      4.000000
  0.078333  0.010986  0.000000      4.000000
  0.088125  0.010986  0.000000      4.000000
  0.097916  0.010986  0.000000      4.000000
  0.107708  0.010986  0.000000      4.000000
  0.117500  0.010986  0.000000      2.000000
  0.000000  0.021972  0.000000      2.000000
  0.009792  0.021972  0.000000      4.000000
  0.019583  0.021972  0.000000      4.000000
  0.029375  0.021972  0.000000      4.000000
  0.039167  0.021972  0.000000      4.000000
  0.048958  0.021972  0.000000      4.000000
  0.058750  0.021972  0.000000      4.000000
  0.068541  0.021972  0.000000      4.000000
  0.078333  0.021972  0.000000      4.000000
  0.088125  0.021972  0.000000      4.000000
  0.097916  0.021972  0.000000      4.000000
  0.107708  0.021972  0.000000      4.000000
  0.117500  0.021972  0.000000      2.000000
  0.000000  0.032958  0.000000      2.000000
  0.009792  0.032958  0.000000      4.000000
  0.019583  0.032958  0.000000      4.000000
  0.029375  0.032958  0.000000      4.000000
  0.039167  0.032958  0.000000      4.000000
  0.048958  0.032958  0.000000      4.000000
  0.058750  0.032958  0.000000      4.000000
  0.068541  0.032958  0.000000      4.000000
  0.078333  0.032958  0.000000      4.000000
  0.088125  0.032958  0.000000      4.000000
  0.097916  0.032958  0.000000      4.000000
  0.107708  0.032958  0.000000      4.000000
  0.117500  0.032958  0.000000      2.000000
  0.000000  0.043944  0.000000      2.000000
  0.009792  0.043944  0.000000      4.000000
  0.019583  0.043944  0.000000      4.000000
  0.029375  0.043944  0.000000      4.000000
  0.039167  0.043944  0.000000      4.000000
  0.048958  0.043944  0.000000      4.000000
  0.058750  0.043944  0.000000      4.000000
  0.068541  0.043944  0.000000      4.000000
[...]
  0.107708  0.186760  0.000000      4.000000
  0.117500  0.186760  0.000000      2.000000
  0.000000  0.197746  0.000000      1.000000
  0.009792  0.197746  0.000000      2.000000
  0.019583  0.197746  0.000000      2.000000
  0.029375  0.197746  0.000000      2.000000
  0.039167  0.197746  0.000000      2.000000
  0.048958  0.197746  0.000000      2.000000
  0.058750  0.197746  0.000000      2.000000
  0.068541  0.197746  0.000000      2.000000
  0.078333  0.197746  0.000000      2.000000
  0.088125  0.197746  0.000000      2.000000
  0.097916  0.197746  0.000000      2.000000
  0.107708  0.197746  0.000000      2.000000
  0.117500  0.197746  0.000000      1.000000

 I would recommend the setting:
   dimension x,y,z NGX =    62 NGY =   37 NGZ =  286
[...]
 k-point ** :   0.3750 0.2778 0.0000  plane waves:   42788
 k-point ** :   0.4167 0.2778 0.0000  plane waves:   42783
 k-point ** :   0.4583 0.2778 0.0000  plane waves:   42753
 k-point ** :   0.5000 0.2778 0.0000  plane waves:   42772
 k-point ** :   0.0000 0.3056 0.0000  plane waves:   42880
 k-point ** :   0.0417 0.3056 0.0000  plane waves:   42883
 k-point ** :   0.0833 0.3056 0.0000  plane waves:   42871
 k-point ** :   0.1250 0.3056 0.0000  plane waves:   42857
 k-point ** :   0.1667 0.3056 0.0000  plane waves:   42847
 k-point ** :   0.2083 0.3056 0.0000  plane waves:   42838
 k-point ** :   0.2500 0.3056 0.0000  plane waves:   42837
 k-point ** :   0.2917 0.3056 0.0000  plane waves:   42806
 k-point ** :   0.3333 0.3056 0.0000  plane waves:   42815
 k-point ** :   0.3750 0.3056 0.0000  plane waves:   42789
 k-point ** :   0.4167 0.3056 0.0000  plane waves:   42783
 k-point ** :   0.4583 0.3056 0.0000  plane waves:   42778
 k-point ** :   0.5000 0.3056 0.0000  plane waves:   42774
 k-point ** :   0.0000 0.3333 0.0000  plane waves:   42902
 k-point ** :   0.0417 0.3333 0.0000  plane waves:   42897
 k-point ** :   0.0833 0.3333 0.0000  plane waves:   42875
[...]
 k-point ** :   0.4583 0.4722 0.0000  plane waves:   42786
 k-point ** :   0.5000 0.4722 0.0000  plane waves:   42768
 k-point ** :   0.0000 0.5000 0.0000  plane waves:   42846
 k-point ** :   0.0417 0.5000 0.0000  plane waves:   42840
 k-point ** :   0.0833 0.5000 0.0000  plane waves:   42850
 k-point ** :   0.1250 0.5000 0.0000  plane waves:   42866
 k-point ** :   0.1667 0.5000 0.0000  plane waves:   42878
 k-point ** :   0.2083 0.5000 0.0000  plane waves:   42902
 k-point ** :   0.2500 0.5000 0.0000  plane waves:   42894
 k-point ** :   0.2917 0.5000 0.0000  plane waves:   42874
 k-point ** :   0.3333 0.5000 0.0000  plane waves:   42864
 k-point ** :   0.3750 0.5000 0.0000  plane waves:   42822
 k-point ** :   0.4167 0.5000 0.0000  plane waves:   42814
 k-point ** :   0.4583 0.5000 0.0000  plane waves:   42778
 k-point ** :   0.5000 0.5000 0.0000  plane waves:   42764

 maximum and minimum number of plane-waves per node :     21473    21360

 maximum number of plane-waves:     42918
 maximum index in each direction:
   IXMAX=   15   IYMAX=    9   IZMAX=   71
   IXMIN=  -16   IYMIN=   -9   IZMIN=  -71

 NGX is ok and might be reduce to  64
 NGY is ok and might be reduce to  38
 NGZ is ok and might be reduce to 286

 parallel 3D FFT for wavefunctions:
    minimum data exchange during FFTs selected (reduces bandwidth)
 parallel 3D FFT for charge:
    minimum data exchange during FFTs selected (reduces bandwidth)

 Broyden mixing: mesh for mixing (old mesh)
   NGX = 31   NGY = 19   NGZ =143
  (NGX  =128   NGY  = 80   NGZ  =576)
  gives a total of  84227 points

 initial charge density was supplied:
 charge density of overlapping atoms calculated
 number of electron      16.0000000 magnetization
 keeping initial charge density in first step

 Maximum index for augmentation-charges         5075 (set IRDMAX)

 First call to EWALD:  gamma=   0.298
 Maximum number of real-space cells 4x 6x 1
 Maximum number of reciprocal cells 2x 1x 8

 FEWALD executed in parallel

----------------------------------------- Iteration    1(   1)  ---------------------------------------

 eigenvalue-minimisations  :  5928
 total energy-change (2. order) : 0.1853083E+03  (-0.1060422E+04)
 number of electron      16.0000000 magnetization
 augmentation part       16.0000000 magnetization

 Free energy of the ion-electron system (eV)
  alpha Z        PSCENC =         6.18334092
  Ewald energy   TEWEN  =      2451.12285711
  -Hartree energ DENC   =     -2880.57003328
  -exchange      EXHF   =         0.00000000
  -V(xc)+E(xc)   XCENC  =        54.82041818
  PAW double counting   =       151.32577238     -155.92769107
  entropy T*S    EENTRO =        -0.00212860
  eigenvalues    EBANDS =       -30.26772184
  atomic energy  EATOM  =       588.62352690
  free energy    TOTEN  =       185.30834070 eV

  energy without entropy =      185.31046930  energy(sigma->0) =      185.30940500

[...]

 eigenvalue-minimisations  : 10508
 total energy-change (2. order) :-0.1950591E+03  (-0.1736402E+03)
 number of electron      16.0000000 magnetization
 augmentation part       16.0000000 magnetization

[...]

 Broyden mixing:
  rms(total) = 0.70955E+00    rms(broyden)= 0.70955E+00
  rms(prec ) = 0.77327E+00
  weight for this iteration     100.00

[...]

 eigenvalues of (default mixing * dielectric matrix)
  average eigenvalue GAMMA=   2.3168
  2.3168

[...]

 average (electrostatic) potential at core
  the test charge radii are     0.6991
  (the norm of the test charge is              1.0000)
       1 -58.3132       2 -58.3132       3 -58.3132       4 -58.3132

 E-fermi :  -2.8233     XC(G=0):  -2.1774     alpha+bet : -1.9046

 k-point     1 :       0.0000    0.0000    0.0000
  band No.  band energies     occupation
      1     -22.0829      2.00000
      2     -16.7074      2.00000
      3     -15.8650      2.00000
      4     -10.2271      2.00000
      5      -9.4718      2.00000
      6      -5.9903      2.00000
      7      -5.7417      2.00000
      8      -4.9070      2.00000
      9      -1.1418      0.00000
     10       0.5445      0.00000
     11       1.3427      0.00000
     12       3.4067      0.00000

[...]

 soft charge-density along one line, spin component           1
         0         1         2         3         4         5         6         7         8         9
 total charge-density along one line

------------------------ aborting loop because EDIFF is reached ----------------------------------------

  FORCE on cell =-STRESS in cart. coord.  units (eV):
  Direction    XX          YY          ZZ          XY          YZ          ZX
  Alpha Z     6.18334     6.18334     6.18334
  Ewald    2984.75182  2981.60094 -3515.23012     0.00000     0.00000     0.00000
  Hartree  2922.78538  2921.79411 -2899.17509    -0.00000    -0.00000    -0.00000
  E(xc)     -57.99137   -57.96159   -60.29813     0.00000     0.00000    -0.00000
  Local   -6080.49869 -6076.95009  6209.14303    -0.00000     0.00000    -0.00000
  n-local   -13.82106   -13.01913   -12.48355     0.08806     0.00000    -0.00000
  augment    -1.48172    -1.47842    -1.37214    -0.00000    -0.00000    -0.00000
  Kinetic   240.06997   234.49001   273.23132    -4.64044    -0.00000     0.00000
  Fock        0.00000     0.00000     0.00000     0.00000     0.00000     0.00000
  Total      -0.00233    -5.34082    -0.00134     0.00000     0.00000     0.00000
  in kB      -0.01771   -40.58544    -0.01020     0.00000     0.00000     0.00000

 VOLUME and BASIS-vectors are now :
  energy-cutoff  :     2000.00
  volume of cell :      210.84
      direct lattice vectors                 reciprocal lattice vectors
     4.255330733  0.000000000  0.000000000     0.234999360  0.000000000  0.000000000
     0.000000000  2.528491346  0.000000000     0.000000000  0.395492752  0.000000000
     0.000000000  0.000000000 19.595389172     0.000000000  0.000000000  0.051032413

[...]

 FORCES acting on ions
    electron-ion (+dipol)            ewald-force                    non-local-force                 convergence-correction
   -.526E+01 -.620E-15 0.796E-09   0.525E+01 0.563E-14 0.608E-18   0.699E-02 0.104E-16 -.414E-24   -.153E-06 -.752E-15 -.816E-13
   0.526E+01 -.572E-14 -.224E-08   -.525E+01 -.741E-14 0.163E-17   -.699E-02 0.104E-16 0.414E-24   0.153E-06 -.633E-15 -.806E-13
   -.526E+01 -.203E-12 0.805E-09   0.525E+01 0.832E-14 -.106E-17   0.699E-02 -.104E-16 -.414E-24   -.153E-06 0.394E-15 -.814E-13
   0.526E+01 -.211E-15 -.222E-08   -.525E+01 -.472E-14 -.118E-17   -.699E-02 0.104E-16 0.310E-24   0.153E-06 -.185E-14 -.805E-13
   -.260E-06 -.210E-12 -.285E-08   0.444E-14 0.182E-14 0.000E+00   0.867E-18 0.208E-16 -.103E-24   0.409E-13 -.284E-14 -.324E-12

 POSITION                                       TOTAL-FORCE (eV/Angst)
      0.00271      0.00000      0.00000        -0.002579     -0.000000      0.000000
      0.70651      1.26425      0.00000         0.002579      0.000000     -0.000000
      2.13038      1.26425      0.00000        -0.002579     -0.000000      0.000000
      2.83418      0.00000      0.00000         0.002579      0.000000     -0.000000
    total drift:                               -0.000000     -0.000000     -0.000000

  FREE ENERGIE OF THE ION-ELECTRON SYSTEM (eV)
  free  energy   TOTEN  =       -36.85950636 eV

  energy  without entropy=      -36.85950634  energy(sigma->0) =      -36.85950635

 Quasi-Newton relaxation of ions (Broydens 2nd method)
  g(Force)  = 0.128E-05   g(Stress)= 0.000E+00

 Reset! Starting new Quasi-Newton update for ions

[...]

 d Force =-0.1923507E-05[-0.513E-05, 0.128E-05]  d Energy =-0.1895887E-05-0.276E-07
 d Force =-0.2622748E-02[-0.263E-02,-0.261E-02]  d Ewald  =-0.2622747E-02-0.151E-08

[...]

 retain information from N=  1 steps
 eigenvalues of (default step * inverse Hessian matrix)
  average eigenvalue of G=   0.2001
 eigenvalue spectrum of G is  0.2001

[...]

 d Force = 0.2053494E-05[ 0.324E-08, 0.410E-05]  d Energy = 0.2029536E-05 0.240E-07
 d Force = 0.2099707E-02[ 0.209E-02, 0.211E-02]  d Ewald  = 0.2099706E-02 0.773E-09

[...]

 eigenvalue-minimisations  :  4748
 total energy-change (2. order) : 0.6236860E-09  ( 0.5932900E-09)
 number of electron      16.0000000 magnetization
 augmentation part        0.3726797 magnetization

[...]

 eigenvalue-minimisations  :  2974
 total energy-change (2. order) :-0.6190248E-09  ( 0.2853684E-12)
 number of electron      16.0000000 magnetization
 augmentation part        0.3726797 magnetization

[...]

 d Force =-0.8270382E-12[-0.421E-11, 0.255E-11]  d Energy = 0.8151346E-10-0.823E-10
 d Force = 0.1651745E-05[ 0.165E-05, 0.165E-05]  d Ewald  = 0.1651746E-05-0.455E-12

[...]

 eigenvalue-minimisations  :  1272
 total energy-change (2. order) : 0.2751221E-10  (-0.1618458E-13)
 number of electron      16.0000000 magnetization
 augmentation part        0.3726797 magnetization

[...]

 d Force = 0.1441807E-11[ 0.265E-12, 0.262E-11]  d Energy = 0.1673470E-09-0.166E-09
 d Force =-0.1027878E-05[-0.103E-05,-0.103E-05]  d Ewald  =-0.1027878E-05 0.455E-12

[...]

 d Force = 0.3302911E-13[ 0.363E-13, 0.298E-13]  d Energy = 0.1427907E-09-0.143E-09
 d Force =-0.1156341E-06[-0.116E-06,-0.116E-06]  d Ewald  =-0.1156336E-06-0.455E-12

[...]

 eigenvalue-minimisations  :   630
 total energy-change (2. order) :-0.5859420E-09  (-0.6579099E-15)
 number of electron      16.0000000 magnetization
 augmentation part        0.3726797 magnetization

[...]

 d Force =-0.4771101E-12[-0.751E-12,-0.203E-12]  d Energy =-0.1682565E-10 0.163E-10
 d Force = 0.6476173E-06[ 0.648E-06, 0.648E-06]  d Ewald  = 0.6476166E-06 0.909E-12

[...]

 FEWALD executed in parallel

[...]

 eigenvalue-minimisations  :   411
 total energy-change (2. order) :-0.6159553E-09  ( 0.0000000E+00)
 number of electron      16.0000000 magnetization
 augmentation part        0.3726797 magnetization

[...]

 Broyden mixing:
  rms(total) = 0.29050E-09    rms(broyden)= 0.29046E-09
  rms(prec ) = 0.31237E-09
  weight for this iteration     100.00

 eigenvalues of (default mixing * dielectric matrix)
  average eigenvalue GAMMA=   2.6948
  2.8775  2.6595  2.5475

[...]

----------------------------------------- Iteration    8(   5)  ---------------------------------------

 eigenvalue-minimisations  :   321
 total energy-change (2. order) : 0.4661160E-11  ( 0.0000000E+00)
 number of electron      16.0000000 magnetization
 augmentation part        0.3726797 magnetization

 Free energy of the ion-electron system (eV)
  alpha Z        PSCENC =         6.18334092
  Ewald energy   TEWEN  =      2451.12337988
  -Hartree energ DENC   =     -2945.40484724
  -exchange      EXHF   =         0.00000000
  -V(xc)+E(xc)   XCENC  =        57.14614872
  PAW double counting   =       268.91551432     -274.02743732
  entropy T*S    EENTRO =        -0.00000002
  eigenvalues    EBANDS =      -189.41913265
  atomic energy  EATOM  =       588.62352690
  free energy    TOTEN  =       -36.85950649 eV

  energy without entropy =      -36.85950648  energy(sigma->0) =      -36.85950649

 average (electrostatic) potential at core
  the test charge radii are     0.6991
  (the norm of the test charge is              1.0000)
       1 -58.3132       2 -58.3132       3 -58.3132       4 -58.3132

 E-fermi :  -2.8233     XC(G=0):  -2.1768     alpha+bet : -1.9046

[...]

 k-point   247 :       0.5000    0.5000    0.0000
  band No.  band energies     occupation
      1     -17.1207      2.00000
      2     -17.1207      2.00000
      3     -15.8435      2.00000
      4     -15.8435      2.00000
      5      -8.9699      2.00000
      6      -8.9699      2.00000
      7      -5.2260      2.00000
      8      -5.2260      2.00000
      9      -1.1722      0.00000
     10      -1.1722      0.00000
     11       4.5911      0.00000
     12       4.5911      0.00000

 soft charge-density along one line, spin component           1
         0         1         2         3         4         5         6         7         8         9
 total charge-density along one line

------------------------ aborting loop because EDIFF is reached ----------------------------------------

  FORCE on cell =-STRESS in cart. coord.  units (eV):
  Direction    XX          YY          ZZ          XY          YZ          ZX
  Alpha Z     6.18334     6.18334     6.18334
  Ewald    2984.77330  2981.57999 -3515.23012     0.00000     0.00000     0.00000
  Hartree  2922.78847  2921.79144 -2899.17506    -0.00000    -0.00000    -0.00000
  E(xc)     -57.99131   -57.96170   -60.29815    -0.00000     0.00000    -0.00000
  Local   -6080.51903 -6076.93038  6209.14287    -0.00000    -0.00000    -0.00000
  n-local   -13.82089   -13.01932   -12.48357     0.08803     0.00000     0.00000
  augment    -1.48176    -1.47839    -1.37214     0.00000     0.00000     0.00000
  Kinetic   240.06692   234.49338   273.23149    -4.64032    -0.00000    -0.00000
  Fock        0.00000     0.00000     0.00000     0.00000     0.00000     0.00000
  Total      -0.00098    -5.34164    -0.00134     0.00000     0.00000     0.00000
  in kB      -0.00744   -40.59160    -0.01019     0.00000     0.00000     0.00000

 VOLUME and BASIS-vectors are now :
  energy-cutoff  :     2000.00
  volume of cell :      210.84
      direct lattice vectors                 reciprocal lattice vectors
     4.255330733  0.000000000  0.000000000     0.234999360  0.000000000  0.000000000
     0.000000000  2.528491346  0.000000000     0.000000000  0.395492752  0.000000000
     0.000000000  0.000000000 19.595389172     0.000000000  0.000000000  0.051032413

  length of vectors
     4.255330733  2.528491346 19.595389172     0.234999360  0.395492752  0.051032413

 FORCES acting on ions
    electron-ion (+dipol)            ewald-force                    non-local-force                 convergence-correction
   -.527E+01 -.110E-14 0.796E-09   0.526E+01 0.347E-14 0.853E-18   0.789E-02 0.347E-17 0.000E+00   -.303E-10 -.106E-14 -.161E-11
   0.527E+01 0.194E-12 -.226E-08   -.526E+01 -.307E-14 -.680E-18   -.789E-02 -.347E-17 0.000E+00   0.303E-10 -.684E-15 -.162E-11
   -.527E+01 -.200E-12 0.801E-09   0.526E+01 0.398E-14 0.847E-21   0.789E-02 0.347E-17 0.000E+00   -.303E-10 0.950E-15 -.163E-11
   0.527E+01 -.662E-15 -.226E-08   -.526E+01 -.256E-14 -.174E-18   -.789E-02 -.347E-17 0.404E-27   0.303E-10 -.272E-14 -.162E-11
   -.259E-06 -.850E-14 -.292E-08   0.444E-14 0.182E-14 -.481E-34   -.347E-17 0.000E+00 0.404E-27   0.147E-14 -.352E-14 -.648E-11

 POSITION                                       TOTAL-FORCE (eV/Angst)
      0.00269      0.00000      0.00000        -0.000000     -0.000000      0.000000
      0.70653      1.26425     -0.00000         0.000000      0.000000     -0.000000
      2.13035      1.26425      0.00000        -0.000000      0.000000      0.000000
      2.83420      0.00000     -0.00000         0.000000     -0.000000     -0.000000
    total drift:                               -0.000000     -0.000000     -0.000000

  FREE ENERGIE OF THE ION-ELECTRON SYSTEM (eV)
  free  energy   TOTEN  =       -36.85950649 eV

  energy  without entropy=      -36.85950648  energy(sigma->0) =      -36.85950649

 d Force = 0.5310433E-12[ 0.326E-13, 0.103E-11]  d Energy =-0.4774847E-10 0.483E-10
 d Force =-0.8876611E-06[-0.888E-06,-0.888E-06]  d Ewald  =-0.8876605E-06-0.455E-12

 Quasi-Newton relaxation of ions (Broydens 2nd method)
  g(Force)  = 0.719E-14   g(Stress)= 0.000E+00

 retain information from N=  1 steps
 eigenvalues of (default step * inverse Hessian matrix)
  average eigenvalue of G=   0.1482
 eigenvalue spectrum of G is  0.1482

 reached required accuracy - stopping structural energy minimisation