 vasp.5.3.5 31Mar14 (build Mar 02 2015 18:14:16) complex

 executed on             LinuxIFC date 2018.08.10  14:45:14

 INCAR:
 POTCAR:   PAW_PBE C 08Apr2002
 POTCAR:   PAW_PBE C 08Apr2002
   VRHFIN =C: s2p2

   TITEL  = PAW_PBE C 08Apr2002
   POMASS =   12.011; ZVAL   =    4.000    mass and valenz
   ENMAX  =  400.000; ENMIN  =  300.000 eV
   QCUT   =   -5.516; QGAM   =   11.032    optimization parameters

   Description
     l     E      TYP  RCUT    TYP  RCUT
     0   .000     23  1.200
     0   .000     23  1.200
     1   .000     23  1.500
     1  2.500     23  1.500
     2   .000      7  1.500

 PAW_PBE C 08Apr2002                    :

 POSCAR: MD-kMC export data
  positions in direct lattice
  velocities in cartesian coordinates
 exchange correlation table for  LEXCH =        8
   RHO(1)=    0.500       N(1)  =     2000
   RHO(2)=  100.500       N(2)  =     4000

 ion  position               nearest neighbor table
   1  1.000  0.000  0.000-   4 1.42   2 1.43   2 1.43
   2  0.167  0.500  0.000-   3 1.42   1 1.43   1 1.43
   3  0.500  0.500  0.000-   2 1.42   4 1.43   4 1.43
   4  0.667  0.000  0.000-   1 1.42   3 1.43   3 1.43

  LATTYP: Found a simple orthorhombic cell.
 ALAT       =     2.4675229169
 B/A-ratio  =     1.7316262836
 C/A-ratio  =     8.1042145715

  Lattice vectors:

 A1 = (   0.0000000000,  -2.4675229169,   0.0000000000)
 A2 = (  -4.2728275382,   0.0000000000,   0.0000000000)
 A3 = (   0.0000000000,   0.0000000000, -19.9973351788)

Analysis of symmetry for initial positions (statically):
 Subroutine PRICEL returns following result:

  LATTYP: Found a base centered orthorhombic cell.
 ALAT       =     2.4675229169
 B/A-ratio  =     1.7316262836
 C/A-ratio  =     8.1042145715

[...]

   2 primitive cells build up your supercell.

 Routine SETGRP: Setting up the symmetry group for a
 simple orthorhombic supercell.

 Subroutine GETGRP returns: Found  8 space group operations
 (whereof  4 operations were pure point group operations)
 out of a pool of  8 trial point group operations.

The static configuration has the point symmetry C_2v.
 The point group associated with its full space group is D_2h.

Analysis of symmetry for dynamics (positions and initial velocities):
 Subroutine PRICEL returns following result:

  LATTYP: Found a base centered orthorhombic cell.
 ALAT       =     2.4675229169
 B/A-ratio  =     1.7316262836
 C/A-ratio  =     8.1042145715

  Lattice vectors:

 A1 = (   2.1364137691,  -1.2337614585,   0.0000000000)
 A2 = (  -2.1364137691,  -1.2337614585,   0.0000000000)
 A3 = (   0.0000000000,   0.0000000000, -19.9973351788)

   2 primitive cells build up your supercell.

 Routine SETGRP: Setting up the symmetry group for a
 simple orthorhombic supercell.

 Subroutine GETGRP returns: Found  8 space group operations
 (whereof  4 operations were pure point group operations)
 out of a pool of  8 trial point group operations.

The dynamic configuration has the point symmetry C_2v.
 The point group associated with its full space group is D_2h.

 KPOINTS: Automatic mesh

Automatic generation of k-mesh.
Space group operators:
 irot       det(A)        alpha          n_x          n_y          n_z        tau_x        tau_y        tau_z
    1     1.000000     0.000000     1.000000     0.000000     0.000000     0.000000     0.000000     0.000000
    2    -1.000000   180.000000     0.000000     0.000000     1.000000     0.000000     0.000000     0.000000
    3     1.000000   180.000000     1.000000     0.000000     0.000000     0.000000     0.000000     0.000000
    4    -1.000000   180.000000     0.000000     1.000000     0.000000     0.000000     0.000000     0.000000
    5    -1.000000     0.000000     1.000000     0.000000     0.000000     0.166667    -0.500000     0.000000
    6     1.000000   180.000000     0.000000     0.000000     1.000000     0.166667    -0.500000     0.000000
    7    -1.000000   180.000000     1.000000     0.000000     0.000000     0.166667    -0.500000     0.000000
    8     1.000000   180.000000     0.000000     1.000000     0.000000     0.166667    -0.500000     0.000000

 Subroutine IBZKPT returns following result:

 Found    247 irreducible k-points:

 Following reciprocal coordinates:
            Coordinates               Weight
  0.000000  0.000000  0.000000      1.000000
  0.041667  0.000000  0.000000      2.000000
  0.083333  0.000000  0.000000      2.000000
  0.125000  0.000000  0.000000      2.000000
  0.166667  0.000000  0.000000      2.000000
  0.208333  0.000000  0.000000      2.000000
  0.250000  0.000000  0.000000      2.000000
  0.291667  0.000000  0.000000      2.000000
  0.333333  0.000000  0.000000      2.000000
  0.375000  0.000000  0.000000      2.000000
  0.416667  0.000000  0.000000      2.000000
  0.458333  0.000000  0.000000      2.000000
  0.500000  0.000000  0.000000      1.000000
  0.000000  0.027778  0.000000      2.000000
  0.041667  0.027778  0.000000      4.000000
  0.083333  0.027778  0.000000      4.000000
  0.125000  0.027778  0.000000      4.000000
  0.166667  0.027778  0.000000      4.000000
  0.208333  0.027778  0.000000      4.000000
  0.250000  0.027778  0.000000      4.000000
  0.291667  0.027778  0.000000      4.000000
  0.333333  0.027778  0.000000      4.000000
  0.375000  0.027778  0.000000      4.000000
  0.416667  0.027778  0.000000      4.000000
  0.458333  0.027778  0.000000      4.000000
  0.500000  0.027778  0.000000      2.000000
  0.000000  0.055556  0.000000      2.000000
  0.041667  0.055556  0.000000      4.000000
  0.083333  0.055556  0.000000      4.000000
  0.125000  0.055556  0.000000      4.000000
  0.166667  0.055556  0.000000      4.000000
  0.208333  0.055556  0.000000      4.000000
  0.250000  0.055556  0.000000      4.000000
  0.291667  0.055556  0.000000      4.000000
  0.333333  0.055556  0.000000      4.000000
  0.375000  0.055556  0.000000      4.000000
  0.416667  0.055556  0.000000      4.000000
  0.458333  0.055556  0.000000      4.000000
  0.500000  0.055556  0.000000      2.000000
  0.000000  0.083333  0.000000      2.000000
  0.041667  0.083333  0.000000      4.000000
  0.083333  0.083333  0.000000      4.000000
  0.125000  0.083333  0.000000      4.000000
  0.166667  0.083333  0.000000      4.000000
  0.208333  0.083333  0.000000      4.000000
  0.250000  0.083333  0.000000      4.000000
  0.291667  0.083333  0.000000      4.000000
  0.333333  0.083333  0.000000      4.000000
  0.375000  0.083333  0.000000      4.000000
  0.416667  0.083333  0.000000      4.000000
  0.458333  0.083333  0.000000      4.000000
  0.500000  0.083333  0.000000      2.000000
  0.000000  0.111111  0.000000      2.000000
  0.041667  0.111111  0.000000      4.000000
  0.083333  0.111111  0.000000      4.000000
  0.125000  0.111111  0.000000      4.000000
  0.166667  0.111111  0.000000      4.000000
  0.208333  0.111111  0.000000      4.000000
  0.250000  0.111111  0.000000      4.000000
  0.291667  0.111111  0.000000      4.000000
[...]
  0.458333  0.472222  0.000000      4.000000
  0.500000  0.472222  0.000000      2.000000
  0.000000  0.500000  0.000000      1.000000
  0.041667  0.500000  0.000000      2.000000
  0.083333  0.500000  0.000000      2.000000
  0.125000  0.500000  0.000000      2.000000
  0.166667  0.500000  0.000000      2.000000
  0.208333  0.500000  0.000000      2.000000
  0.250000  0.500000  0.000000      2.000000
  0.291667  0.500000  0.000000      2.000000
  0.333333  0.500000  0.000000      2.000000
  0.375000  0.500000  0.000000      2.000000
  0.416667  0.500000  0.000000      2.000000
  0.458333  0.500000  0.000000      2.000000
  0.500000  0.500000  0.000000      1.000000

 Following cartesian coordinates:
            Coordinates               Weight
  0.000000  0.000000  0.000000      1.000000
  0.009752  0.000000  0.000000      2.000000
  0.019503  0.000000  0.000000      2.000000
  0.029255  0.000000  0.000000      2.000000
  0.039006  0.000000  0.000000      2.000000
  0.048758  0.000000  0.000000      2.000000
  0.058509  0.000000  0.000000      2.000000
  0.068261  0.000000  0.000000      2.000000
  0.078012  0.000000  0.000000      2.000000
  0.087764  0.000000  0.000000      2.000000
  0.097515  0.000000  0.000000      2.000000
  0.107267  0.000000  0.000000      2.000000
  0.117019  0.000000  0.000000      1.000000
  0.000000  0.011257  0.000000      2.000000
  0.009752  0.011257  0.000000      4.000000
  0.019503  0.011257  0.000000      4.000000
  0.029255  0.011257  0.000000      4.000000
  0.039006  0.011257  0.000000      4.000000
  0.048758  0.011257  0.000000      4.000000
  0.058509  0.011257  0.000000      4.000000
  0.068261  0.011257  0.000000      4.000000
  0.078012  0.011257  0.000000      4.000000
  0.087764  0.011257  0.000000      4.000000
  0.097515  0.011257  0.000000      4.000000
  0.107267  0.011257  0.000000      4.000000
  0.117019  0.011257  0.000000      2.000000
  0.000000  0.022515  0.000000      2.000000
  0.009752  0.022515  0.000000      4.000000
  0.019503  0.022515  0.000000      4.000000
  0.029255  0.022515  0.000000      4.000000
  0.039006  0.022515  0.000000      4.000000
  0.048758  0.022515  0.000000      4.000000
  0.058509  0.022515  0.000000      4.000000
  0.068261  0.022515  0.000000      4.000000
  0.078012  0.022515  0.000000      4.000000
  0.087764  0.022515  0.000000      4.000000
  0.097515  0.022515  0.000000      4.000000
  0.107267  0.022515  0.000000      4.000000
  0.117019  0.022515  0.000000      2.000000
  0.000000  0.033772  0.000000      2.000000
  0.009752  0.033772  0.000000      4.000000
  0.019503  0.033772  0.000000      4.000000
  0.029255  0.033772  0.000000      4.000000
  0.039006  0.033772  0.000000      4.000000
  0.048758  0.033772  0.000000      4.000000
  0.058509  0.033772  0.000000      4.000000
  0.068261  0.033772  0.000000      4.000000
  0.078012  0.033772  0.000000      4.000000
  0.087764  0.033772  0.000000      4.000000
  0.097515  0.033772  0.000000      4.000000
  0.107267  0.033772  0.000000      4.000000
  0.117019  0.033772  0.000000      2.000000
  0.000000  0.045029  0.000000      2.000000
  0.009752  0.045029  0.000000      4.000000
  0.019503  0.045029  0.000000      4.000000
  0.029255  0.045029  0.000000      4.000000
  0.039006  0.045029  0.000000      4.000000
  0.048758  0.045029  0.000000      4.000000
  0.058509  0.045029  0.000000      4.000000
  0.068261  0.045029  0.000000      4.000000
[...]
  0.107267  0.191375  0.000000      4.000000
  0.117019  0.191375  0.000000      2.000000
  0.000000  0.202632  0.000000      1.000000
  0.009752  0.202632  0.000000      2.000000
  0.019503  0.202632  0.000000      2.000000
  0.029255  0.202632  0.000000      2.000000
  0.039006  0.202632  0.000000      2.000000
  0.048758  0.202632  0.000000      2.000000
  0.058509  0.202632  0.000000      2.000000
  0.068261  0.202632  0.000000      2.000000
  0.078012  0.202632  0.000000      2.000000
  0.087764  0.202632  0.000000      2.000000
  0.097515  0.202632  0.000000      2.000000
  0.107267  0.202632  0.000000      2.000000
  0.117019  0.202632  0.000000      1.000000

 I would recommend the setting:
   dimension x,y,z NGX =    62 NGY =   36 NGZ =  292
[...]
 k-point ** :   0.3750 0.2778 0.0000  plane waves:   42827
 k-point ** :   0.4167 0.2778 0.0000  plane waves:   42808
 k-point ** :   0.4583 0.2778 0.0000  plane waves:   42818
 k-point ** :   0.5000 0.2778 0.0000  plane waves:   42838
 k-point ** :   0.0000 0.3056 0.0000  plane waves:   42886
 k-point ** :   0.0417 0.3056 0.0000  plane waves:   42908
 k-point ** :   0.0833 0.3056 0.0000  plane waves:   42875
 k-point ** :   0.1250 0.3056 0.0000  plane waves:   42857
 k-point ** :   0.1667 0.3056 0.0000  plane waves:   42882
 k-point ** :   0.2083 0.3056 0.0000  plane waves:   42857
 k-point ** :   0.2500 0.3056 0.0000  plane waves:   42843
 k-point ** :   0.2917 0.3056 0.0000  plane waves:   42837
 k-point ** :   0.3333 0.3056 0.0000  plane waves:   42842
 k-point ** :   0.3750 0.3056 0.0000  plane waves:   42832
 k-point ** :   0.4167 0.3056 0.0000  plane waves:   42811
 k-point ** :   0.4583 0.3056 0.0000  plane waves:   42818
 k-point ** :   0.5000 0.3056 0.0000  plane waves:   42852
 k-point ** :   0.0000 0.3333 0.0000  plane waves:   42916
 k-point ** :   0.0417 0.3333 0.0000  plane waves:   42899
 k-point ** :   0.0833 0.3333 0.0000  plane waves:   42879
[...]
 k-point ** :   0.4583 0.4722 0.0000  plane waves:   42811
 k-point ** :   0.5000 0.4722 0.0000  plane waves:   42834
 k-point ** :   0.0000 0.5000 0.0000  plane waves:   42886
 k-point ** :   0.0417 0.5000 0.0000  plane waves:   42944
 k-point ** :   0.0833 0.5000 0.0000  plane waves:   42928
 k-point ** :   0.1250 0.5000 0.0000  plane waves:   42922
 k-point ** :   0.1667 0.5000 0.0000  plane waves:   42910
 k-point ** :   0.2083 0.5000 0.0000  plane waves:   42950
 k-point ** :   0.2500 0.5000 0.0000  plane waves:   42932
 k-point ** :   0.2917 0.5000 0.0000  plane waves:   42880
 k-point ** :   0.3333 0.5000 0.0000  plane waves:   42850
 k-point ** :   0.3750 0.5000 0.0000  plane waves:   42822
 k-point ** :   0.4167 0.5000 0.0000  plane waves:   42800
 k-point ** :   0.4583 0.5000 0.0000  plane waves:   42826
 k-point ** :   0.5000 0.5000 0.0000  plane waves:   42816

 maximum and minimum number of plane-waves per node :     21510    21247

 maximum number of plane-waves:     42950
 maximum index in each direction:
   IXMAX=   15   IYMAX=    8   IZMAX=   72
   IXMIN=  -16   IYMIN=   -9   IZMIN=  -72

 NGX is ok and might be reduce to  64
 NGY is ok and might be reduce to  36
 NGZ is ok and might be reduce to 290

 parallel 3D FFT for wavefunctions:
    minimum data exchange during FFTs selected (reduces bandwidth)
 parallel 3D FFT for charge:
    minimum data exchange during FFTs selected (reduces bandwidth)

 Broyden mixing: mesh for mixing (old mesh)
   NGX = 31   NGY = 17   NGZ =145
  (NGX  =128   NGY  = 72   NGZ  =588)
  gives a total of  76415 points

 initial charge density was supplied:
 charge density of overlapping atoms calculated
 number of electron      16.0000000 magnetization
 keeping initial charge density in first step

 Maximum index for augmentation-charges         4659 (set IRDMAX)

 First call to EWALD:  gamma=   0.298
 Maximum number of real-space cells 4x 6x 1
 Maximum number of reciprocal cells 2x 1x 8

 FEWALD executed in parallel

----------------------------------------- Iteration    1(   1)  ---------------------------------------

 eigenvalue-minimisations  :  5928
 total energy-change (2. order) : 0.1899293E+03  (-0.1056546E+04)
 number of electron      16.0000000 magnetization
 augmentation part       16.0000000 magnetization

 Free energy of the ion-electron system (eV)
  alpha Z        PSCENC =         6.18334092
  Ewald energy   TEWEN  =      2585.96125861
  -Hartree energ DENC   =     -3011.36862948
  -exchange      EXHF   =         0.00000000
  -V(xc)+E(xc)   XCENC  =        55.09583761
  PAW double counting   =       151.32577238     -155.92769107
  entropy T*S    EENTRO =        -0.00172811
  eigenvalues    EBANDS =       -29.96239381
  atomic energy  EATOM  =       588.62352690
  free energy    TOTEN  =       189.92929395 eV

  energy without entropy =      189.93102206  energy(sigma->0) =      189.93015800

[...]

 eigenvalue-minimisations  : 10380
 total energy-change (2. order) :-0.1990689E+03  (-0.1760189E+03)
 number of electron      16.0000000 magnetization
 augmentation part       16.0000000 magnetization

[...]

 Broyden mixing:
  rms(total) = 0.73420E+00    rms(broyden)= 0.73420E+00
  rms(prec ) = 0.79820E+00
  weight for this iteration     100.00

[...]

 eigenvalues of (default mixing * dielectric matrix)
  average eigenvalue GAMMA=   2.3170
  2.3170

[...]

 average (electrostatic) potential at core
  the test charge radii are     0.6991
  (the norm of the test charge is              1.0000)
       1 -58.1899       2 -58.1899       3 -58.1899       4 -58.1899

 E-fermi :  -2.7539     XC(G=0):  -2.1423     alpha+bet : -1.9046

 k-point     1 :       0.0000    0.0000    0.0000
  band No.  band energies     occupation
      1     -22.2533      2.00000
      2     -17.0135      2.00000
      3     -15.9823      2.00000
      4     -10.3587      2.00000
      5      -9.1538      2.00000
      6      -5.8016      2.00000
      7      -5.7704      2.00000
      8      -5.1007      2.00000
      9      -1.0880      0.00000
     10       0.5239      0.00000
     11       1.3250      0.00000
     12       1.7079      0.00000

[...]

 soft charge-density along one line, spin component           1
         0         1         2         3         4         5         6         7         8         9
 total charge-density along one line

------------------------ aborting loop because EDIFF is reached ----------------------------------------

  FORCE on cell =-STRESS in cart. coord.  units (eV):
  Direction    XX          YY          ZZ          XY          YZ          ZX
  Alpha Z     6.18334     6.18334     6.18334
  Ewald    3123.94558  3122.93528 -3660.91988     0.00000     0.00000    -0.00000
  Hartree  3057.31878  3057.17449 -3034.58465    -0.00000    -0.00000    -0.00000
  E(xc)     -58.33684   -58.34032   -60.67762     0.00000    -0.00000    -0.00000
  Local   -6353.61776 -6352.65665  6489.34814    -0.00000     0.00000     0.00000
  n-local   -13.94663   -13.94750   -12.76664     0.05568    -0.00000    -0.00000
  augment    -1.54247    -1.54084    -1.41429     0.00000     0.00000    -0.00000
  Kinetic   240.04178   240.14713   274.83027    -4.59805     0.00000     0.00000
  Fock        0.00000     0.00000     0.00000     0.00000     0.00000     0.00000
  Total       0.04579    -0.04506    -0.00132     0.00000     0.00000     0.00000
  in kB       0.34795    -0.34243    -0.01006     0.00000     0.00000     0.00000

 VOLUME and BASIS-vectors are now :
  energy-cutoff  :     2000.00
  volume of cell :      210.84
      direct lattice vectors                 reciprocal lattice vectors
     4.272827538  0.000000000  0.000000000     0.234037061  0.000000000  0.000000000
     0.000000000  2.467522917  0.000000000     0.000000000  0.405264726  0.000000000
     0.000000000  0.000000000 19.997335179     0.000000000  0.000000000  0.050006663

[...]

 FORCES acting on ions
    electron-ion (+dipol)            ewald-force                    non-local-force                 convergence-correction
   -.208E+00 -.224E-15 -.317E-09   0.245E+00 0.420E-14 -.144E-33   0.210E-01 0.139E-16 0.414E-24   0.183E-07 -.194E-14 0.195E-12
   0.208E+00 0.125E-13 -.580E-08   -.245E+00 -.810E-15 0.991E-18   -.210E-01 -.104E-16 -.414E-24   -.183E-07 -.747E-15 0.196E-12
   -.208E+00 -.202E-12 -.351E-09   0.245E+00 0.170E-14 0.193E-33   0.210E-01 0.139E-16 0.620E-24   0.183E-07 -.198E-14 0.195E-12
   0.208E+00 0.192E-15 -.583E-08   -.245E+00 -.332E-14 -.991E-18   -.210E-01 -.347E-17 -.827E-24   -.183E-07 -.727E-15 0.196E-12
   -.484E-06 -.189E-12 -.123E-07   0.383E-14 0.177E-14 0.000E+00   0.000E+00 0.139E-16 -.207E-24   -.401E-13 -.540E-14 0.781E-12

 POSITION                                       TOTAL-FORCE (eV/Angst)
      4.27229      0.00000      0.00000         0.058680     -0.000000     -0.000000
      0.71268      1.23376      0.00000        -0.058680      0.000000      0.000000
      2.13588      1.23376      0.00000         0.058680      0.000000     -0.000000
      2.84909      0.00000      0.00000        -0.058680     -0.000000      0.000000
    total drift:                               -0.000000     -0.000000     -0.000000

  FREE ENERGIE OF THE ION-ELECTRON SYSTEM (eV)
  free  energy   TOTEN  =       -36.92541882 eV

  energy  without entropy=      -36.92529220  energy(sigma->0) =      -36.92535551

 Quasi-Newton relaxation of ions (Broydens 2nd method)
  g(Force)  = 0.664E-03   g(Stress)= 0.000E+00

 Reset! Starting new Quasi-Newton update for ions

[...]

 d Force =-0.9964937E-03[-0.266E-02, 0.664E-03]  d Energy =-0.9968203E-03 0.327E-06
 d Force =-0.2880240E-02[-0.854E-02, 0.278E-02]  d Ewald  =-0.2898408E-02 0.182E-04

[...]

 retain information from N=  1 steps
 eigenvalues of (default step * inverse Hessian matrix)
  average eigenvalue of G=   0.2000
 eigenvalue spectrum of G is  0.2000

[...]

 d Force = 0.1063513E-02[ 0.113E-05, 0.213E-02]  d Energy = 0.1063070E-02 0.443E-06
 d Force = 0.3216714E-02[-0.398E-03, 0.683E-02]  d Ewald  = 0.3226012E-02-0.930E-05

[...]

 d Force = 0.3373140E-09[ 0.744E-10, 0.600E-09]  d Energy = 0.2449042E-08-0.211E-08
 d Force =-0.2126765E-06[-0.214E-06,-0.212E-06]  d Ewald  =-0.2126767E-06 0.000E+00

[...]

 eigenvalue-minimisations  :  6512
 total energy-change (2. order) : 0.8843699E-09  ( 0.5508566E-09)
 number of electron      16.0000000 magnetization
 augmentation part        0.3818271 magnetization

[...]

 eigenvalue-minimisations  :  2655
 total energy-change (2. order) :-0.8750476E-09  ( 0.1625972E-13)
 number of electron      16.0000000 magnetization
 augmentation part        0.3818271 magnetization

[...]

 d Force = 0.3675945E-11[-0.317E-11, 0.105E-10]  d Energy =-0.3245759E-09 0.328E-09
 d Force =-0.3025221E-07[-0.303E-07,-0.302E-07]  d Ewald  =-0.3025252E-07 0.455E-12

[...]

 d Force = 0.5489536E-12[ 0.363E-12, 0.734E-12]  d Energy = 0.2978595E-10-0.292E-10
 d Force = 0.7009481E-08[ 0.701E-08, 0.701E-08]  d Ewald  = 0.7009476E-08 0.000E+00

[...]

 eigenvalue-minimisations  :   684
 total energy-change (2. order) :-0.3620926E-09  (-0.5509996E-14)
 number of electron      16.0000000 magnetization
 augmentation part        0.3818271 magnetization

[...]

 eigenvalue-minimisations  :   598
 total energy-change (2. order) : 0.3320793E-09  (-0.3486923E-14)
 number of electron      16.0000000 magnetization
 augmentation part        0.3818271 magnetization

[...]

 d Force = 0.5766673E-13[-0.241E-12, 0.356E-12]  d Energy = 0.1574563E-09-0.157E-09
 d Force = 0.6865365E-08[ 0.686E-08, 0.687E-08]  d Ewald  = 0.6865776E-08-0.455E-12

[...]

 FEWALD executed in parallel

[...]

 eigenvalue-minimisations  :   515
 total energy-change (2. order) :-0.2535216E-09  ( 0.0000000E+00)
 number of electron      16.0000000 magnetization
 augmentation part        0.3818271 magnetization

[...]

 Broyden mixing:
  rms(total) = 0.16142E-09    rms(broyden)= 0.16137E-09
  rms(prec ) = 0.18852E-09
  weight for this iteration     100.00

 eigenvalues of (default mixing * dielectric matrix)
  average eigenvalue GAMMA=   2.0340
  2.6902  2.5555  0.8564

[...]

----------------------------------------- Iteration    8(   5)  ---------------------------------------

 eigenvalue-minimisations  :   501
 total energy-change (2. order) : 0.7798917E-10  ( 0.0000000E+00)
 number of electron      16.0000000 magnetization
 augmentation part        0.3818271 magnetization

 Free energy of the ion-electron system (eV)
  alpha Z        PSCENC =         6.18334092
  Ewald energy   TEWEN  =      2585.96093124
  -Hartree energ DENC   =     -3079.90837138
  -exchange      EXHF   =         0.00000000
  -V(xc)+E(xc)   XCENC  =        57.52016440
  PAW double counting   =       277.02660465     -282.17522776
  entropy T*S    EENTRO =        -0.00013052
  eigenvalues    EBANDS =      -190.15632353
  atomic energy  EATOM  =       588.62352690
  free energy    TOTEN  =       -36.92548507 eV

  energy without entropy =      -36.92535455  energy(sigma->0) =      -36.92541981

 average (electrostatic) potential at core
  the test charge radii are     0.6991
  (the norm of the test charge is              1.0000)
       1 -58.1899       2 -58.1899       3 -58.1899       4 -58.1899

 E-fermi :  -2.7539     XC(G=0):  -2.1423     alpha+bet : -1.9046

[...]

 k-point   247 :       0.5000    0.5000    0.0000
  band No.  band energies     occupation
      1     -17.0214      2.00000
      2     -17.0214      2.00000
      3     -15.9728      2.00000
      4     -15.9728      2.00000
      5      -9.1569      2.00000
      6      -9.1569      2.00000
      7      -5.1114      2.00000
      8      -5.1114      2.00000
      9      -1.0756      0.00000
     10      -1.0756      0.00000
     11       4.6103      0.00000
     12       4.6103      0.00000

 soft charge-density along one line, spin component           1
         0         1         2         3         4         5         6         7         8         9
 total charge-density along one line

------------------------ aborting loop because EDIFF is reached ----------------------------------------

  FORCE on cell =-STRESS in cart. coord.  units (eV):
  Direction    XX          YY          ZZ          XY          YZ          ZX
  Alpha Z     6.18334     6.18334     6.18334
  Ewald    3123.45026  3123.43028 -3660.91988    -0.00000     0.00000     0.00000
  Hartree  3057.25052  3057.24248 -3034.58463     0.00000    -0.00000    -0.00000
  E(xc)     -58.33871   -58.33843   -60.67761     0.00000    -0.00000    -0.00000
  Local   -6353.14921 -6353.12485  6489.34822     0.00000     0.00000     0.00000
  n-local   -13.95061   -13.94353   -12.76663     0.05634    -0.00000     0.00000
  augment    -1.54168    -1.54162    -1.41429    -0.00000    -0.00000    -0.00000
  Kinetic   240.11965   240.06902   274.83015    -4.60056     0.00000    -0.00000
  Fock        0.00000     0.00000     0.00000     0.00000     0.00000     0.00000
  Total       0.02356    -0.02331    -0.00132     0.00000     0.00000     0.00000
  in kB       0.17906    -0.17713    -0.01005     0.00000     0.00000     0.00000

 VOLUME and BASIS-vectors are now :
  energy-cutoff  :     2000.00
  volume of cell :      210.84
      direct lattice vectors                 reciprocal lattice vectors
     4.272827538  0.000000000  0.000000000     0.234037061  0.000000000  0.000000000
     0.000000000  2.467522917  0.000000000     0.000000000  0.405264726  0.000000000
     0.000000000  0.000000000 19.997335179     0.000000000  0.000000000  0.050006663

  length of vectors
     4.272827538  2.467522917 19.997335179     0.234037061  0.405264726  0.050006663

 FORCES acting on ions
    electron-ion (+dipol)            ewald-force                    non-local-force                 convergence-correction
   -.443E-01 0.359E-15 0.139E-10   0.444E-01 0.681E-14 -.803E-18   -.121E-03 0.000E+00 0.000E+00   -.485E-10 -.318E-15 -.503E-11
   0.443E-01 0.192E-12 -.515E-08   -.444E-01 -.428E-15 -.361E-18   0.121E-03 -.347E-17 0.000E+00   0.485E-10 -.831E-15 -.502E-11
   -.443E-01 0.588E-12 0.303E-10   0.444E-01 0.131E-14 0.369E-18   -.121E-03 0.000E+00 0.000E+00   -.485E-10 -.326E-15 -.504E-11
   0.443E-01 -.220E-15 -.511E-08   -.444E-01 -.593E-14 0.795E-18   0.121E-03 -.347E-17 0.000E+00   0.485E-10 -.828E-15 -.505E-11
   -.459E-06 0.780E-12 -.102E-07   0.371E-14 0.177E-14 0.000E+00   -.949E-19 -.694E-17 0.000E+00   0.820E-15 -.230E-14 -.201E-10

 POSITION                                       TOTAL-FORCE (eV/Angst)
      4.27285     -0.00000      0.00000         0.000001      0.000000     -0.000000
      0.71211      1.23376     -0.00000        -0.000001      0.000000      0.000000
      2.13644      1.23376      0.00000         0.000001      0.000000     -0.000000
      2.84853      0.00000     -0.00000        -0.000001     -0.000000      0.000000
    total drift:                               -0.000000      0.000000     -0.000000

  FREE ENERGIE OF THE ION-ELECTRON SYSTEM (eV)
  free  energy   TOTEN  =       -36.92548507 eV

  energy  without entropy=      -36.92535455  energy(sigma->0) =      -36.92541981

 d Force = 0.3050205E-13[-0.361E-13, 0.971E-13]  d Energy =-0.1025455E-09 0.103E-09
 d Force =-0.2769130E-08[-0.277E-08,-0.277E-08]  d Ewald  =-0.2768957E-08 0.000E+00

 Quasi-Newton relaxation of ions (Broydens 2nd method)
  g(Force)  = 0.648E-13   g(Stress)= 0.000E+00

 retain information from N=  1 steps
 eigenvalues of (default step * inverse Hessian matrix)
  average eigenvalue of G=   0.1511
 eigenvalue spectrum of G is  0.1511

 reached required accuracy - stopping structural energy minimisation