 vasp.5.3.5 31Mar14 (build Mar 02 2015 18:14:16) complex

 executed on             LinuxIFC date 2018.08.09  19:17:07

 INCAR:
 POTCAR:   PAW_PBE C 08Apr2002
 POTCAR:   PAW_PBE C 08Apr2002
   VRHFIN =C: s2p2

   TITEL  = PAW_PBE C 08Apr2002
   POMASS =   12.011; ZVAL   =    4.000    mass and valenz
   ENMAX  =  400.000; ENMIN  =  300.000 eV
   QCUT   =   -5.516; QGAM   =   11.032    optimization parameters

   Description
     l     E      TYP  RCUT    TYP  RCUT
     0   .000     23  1.200
     0   .000     23  1.200
     1   .000     23  1.500
     1  2.500     23  1.500
     2   .000      7  1.500

 PAW_PBE C 08Apr2002                    :

 POSCAR: MD-kMC export data
  positions in direct lattice
  velocities in cartesian coordinates
 exchange correlation table for  LEXCH =        8
   RHO(1)=    0.500       N(1)  =     2000
   RHO(2)=  100.500       N(2)  =     4000

 ion  position               nearest neighbor table
   1  0.000  0.000  0.000-   4 1.42   2 1.43   2 1.43
   2  0.167  0.500  0.000-   3 1.42   1 1.43   1 1.43
   3  0.500  0.500  0.000-   2 1.42   4 1.43   4 1.43
   4  0.667  0.000  0.000-   1 1.42   3 1.43   3 1.43

  LATTYP: Found a simple orthorhombic cell.
 ALAT       =     2.4802532336
 B/A-ratio  =     1.7212622968
 C/A-ratio  =     8.0281144515

  Lattice vectors:

 A1 = (   0.0000000000,  -2.4802532336,   0.0000000000)
 A2 = (  -4.2691663776,   0.0000000000,   0.0000000000)
 A3 = (   0.0000000000,   0.0000000000, -19.9117568283)

Analysis of symmetry for initial positions (statically):
 Subroutine PRICEL returns following result:

  LATTYP: Found a base centered orthorhombic cell.
 ALAT       =     2.4802532336
 B/A-ratio  =     1.7212622968
 C/A-ratio  =     8.0281144515

[...]

   2 primitive cells build up your supercell.

 Routine SETGRP: Setting up the symmetry group for a
 simple orthorhombic supercell.

 Subroutine GETGRP returns: Found  8 space group operations
 (whereof  4 operations were pure point group operations)
 out of a pool of  8 trial point group operations.

The static configuration has the point symmetry C_2v.
 The point group associated with its full space group is D_2h.

Analysis of symmetry for dynamics (positions and initial velocities):
 Subroutine PRICEL returns following result:

  LATTYP: Found a base centered orthorhombic cell.
 ALAT       =     2.4802532336
 B/A-ratio  =     1.7212622968
 C/A-ratio  =     8.0281144515

  Lattice vectors:

 A1 = (   2.1345831888,  -1.2401266168,   0.0000000000)
 A2 = (  -2.1345831888,  -1.2401266168,   0.0000000000)
 A3 = (   0.0000000000,   0.0000000000, -19.9117568283)

   2 primitive cells build up your supercell.

 Routine SETGRP: Setting up the symmetry group for a
 simple orthorhombic supercell.

 Subroutine GETGRP returns: Found  8 space group operations
 (whereof  4 operations were pure point group operations)
 out of a pool of  8 trial point group operations.

The dynamic configuration has the point symmetry C_2v.
 The point group associated with its full space group is D_2h.

 KPOINTS: Automatic mesh

Automatic generation of k-mesh.
Space group operators:
 irot       det(A)        alpha          n_x          n_y          n_z        tau_x        tau_y        tau_z
    1     1.000000     0.000000     1.000000     0.000000     0.000000     0.000000     0.000000     0.000000
    2    -1.000000   180.000000     0.000000     0.000000     1.000000     0.000000     0.000000     0.000000
    3     1.000000   180.000000     1.000000     0.000000     0.000000     0.000000     0.000000     0.000000
    4    -1.000000   179.999999     0.000000     1.000000     0.000000     0.000000     0.000000     0.000000
    5    -1.000000     0.000000     1.000000     0.000000     0.000000     0.166667    -0.500000     0.000000
    6     1.000000   180.000000     0.000000     0.000000     1.000000     0.166667    -0.500000     0.000000
    7    -1.000000   180.000000     1.000000     0.000000     0.000000     0.166667    -0.500000     0.000000
    8     1.000000   179.999999     0.000000     1.000000     0.000000     0.166667    -0.500000     0.000000

 Subroutine IBZKPT returns following result:

 Found    247 irreducible k-points:

 Following reciprocal coordinates:
            Coordinates               Weight
  0.000000  0.000000  0.000000      1.000000
  0.041667  0.000000  0.000000      2.000000
  0.083333  0.000000  0.000000      2.000000
  0.125000  0.000000  0.000000      2.000000
  0.166667  0.000000  0.000000      2.000000
  0.208333  0.000000  0.000000      2.000000
  0.250000  0.000000  0.000000      2.000000
  0.291667  0.000000  0.000000      2.000000
  0.333333  0.000000  0.000000      2.000000
  0.375000  0.000000  0.000000      2.000000
  0.416667  0.000000  0.000000      2.000000
  0.458333  0.000000  0.000000      2.000000
  0.500000  0.000000  0.000000      1.000000
  0.000000  0.027778  0.000000      2.000000
  0.041667  0.027778  0.000000      4.000000
  0.083333  0.027778  0.000000      4.000000
  0.125000  0.027778  0.000000      4.000000
  0.166667  0.027778  0.000000      4.000000
  0.208333  0.027778  0.000000      4.000000
  0.250000  0.027778  0.000000      4.000000
  0.291667  0.027778  0.000000      4.000000
  0.333333  0.027778  0.000000      4.000000
  0.375000  0.027778  0.000000      4.000000
  0.416667  0.027778  0.000000      4.000000
  0.458333  0.027778  0.000000      4.000000
  0.500000  0.027778  0.000000      2.000000
  0.000000  0.055556  0.000000      2.000000
  0.041667  0.055556  0.000000      4.000000
  0.083333  0.055556  0.000000      4.000000
  0.125000  0.055556  0.000000      4.000000
  0.166667  0.055556  0.000000      4.000000
  0.208333  0.055556  0.000000      4.000000
  0.250000  0.055556  0.000000      4.000000
  0.291667  0.055556  0.000000      4.000000
  0.333333  0.055556  0.000000      4.000000
  0.375000  0.055556  0.000000      4.000000
  0.416667  0.055556  0.000000      4.000000
  0.458333  0.055556  0.000000      4.000000
  0.500000  0.055556  0.000000      2.000000
  0.000000  0.083333  0.000000      2.000000
  0.041667  0.083333  0.000000      4.000000
  0.083333  0.083333  0.000000      4.000000
  0.125000  0.083333  0.000000      4.000000
  0.166667  0.083333  0.000000      4.000000
  0.208333  0.083333  0.000000      4.000000
  0.250000  0.083333  0.000000      4.000000
  0.291667  0.083333  0.000000      4.000000
  0.333333  0.083333  0.000000      4.000000
  0.375000  0.083333  0.000000      4.000000
  0.416667  0.083333  0.000000      4.000000
  0.458333  0.083333  0.000000      4.000000
  0.500000  0.083333  0.000000      2.000000
  0.000000  0.111111  0.000000      2.000000
  0.041667  0.111111  0.000000      4.000000
  0.083333  0.111111  0.000000      4.000000
  0.125000  0.111111  0.000000      4.000000
  0.166667  0.111111  0.000000      4.000000
  0.208333  0.111111  0.000000      4.000000
  0.250000  0.111111  0.000000      4.000000
  0.291667  0.111111  0.000000      4.000000
[...]
  0.458333  0.472222  0.000000      4.000000
  0.500000  0.472222  0.000000      2.000000
  0.000000  0.500000  0.000000      1.000000
  0.041667  0.500000  0.000000      2.000000
  0.083333  0.500000  0.000000      2.000000
  0.125000  0.500000  0.000000      2.000000
  0.166667  0.500000  0.000000      2.000000
  0.208333  0.500000  0.000000      2.000000
  0.250000  0.500000  0.000000      2.000000
  0.291667  0.500000  0.000000      2.000000
  0.333333  0.500000  0.000000      2.000000
  0.375000  0.500000  0.000000      2.000000
  0.416667  0.500000  0.000000      2.000000
  0.458333  0.500000  0.000000      2.000000
  0.500000  0.500000  0.000000      1.000000

 Following cartesian coordinates:
            Coordinates               Weight
  0.000000  0.000000  0.000000      1.000000
  0.009760  0.000000  0.000000      2.000000
  0.019520  0.000000  0.000000      2.000000
  0.029280  0.000000  0.000000      2.000000
  0.039040  0.000000  0.000000      2.000000
  0.048800  0.000000  0.000000      2.000000
  0.058559  0.000000  0.000000      2.000000
  0.068319  0.000000  0.000000      2.000000
  0.078079  0.000000  0.000000      2.000000
  0.087839  0.000000  0.000000      2.000000
  0.097599  0.000000  0.000000      2.000000
  0.107359  0.000000  0.000000      2.000000
  0.117119  0.000000  0.000000      1.000000
  0.000000  0.011200  0.000000      2.000000
  0.009760  0.011200  0.000000      4.000000
  0.019520  0.011200  0.000000      4.000000
  0.029280  0.011200  0.000000      4.000000
  0.039040  0.011200  0.000000      4.000000
  0.048800  0.011200  0.000000      4.000000
  0.058559  0.011200  0.000000      4.000000
  0.068319  0.011200  0.000000      4.000000
  0.078079  0.011200  0.000000      4.000000
  0.087839  0.011200  0.000000      4.000000
  0.097599  0.011200  0.000000      4.000000
  0.107359  0.011200  0.000000      4.000000
  0.117119  0.011200  0.000000      2.000000
  0.000000  0.022399  0.000000      2.000000
  0.009760  0.022399  0.000000      4.000000
  0.019520  0.022399  0.000000      4.000000
  0.029280  0.022399  0.000000      4.000000
  0.039040  0.022399  0.000000      4.000000
  0.048800  0.022399  0.000000      4.000000
  0.058559  0.022399  0.000000      4.000000
  0.068319  0.022399  0.000000      4.000000
  0.078079  0.022399  0.000000      4.000000
  0.087839  0.022399  0.000000      4.000000
  0.097599  0.022399  0.000000      4.000000
  0.107359  0.022399  0.000000      4.000000
  0.117119  0.022399  0.000000      2.000000
  0.000000  0.033599  0.000000      2.000000
  0.009760  0.033599  0.000000      4.000000
  0.019520  0.033599  0.000000      4.000000
  0.029280  0.033599  0.000000      4.000000
  0.039040  0.033599  0.000000      4.000000
  0.048800  0.033599  0.000000      4.000000
  0.058559  0.033599  0.000000      4.000000
  0.068319  0.033599  0.000000      4.000000
  0.078079  0.033599  0.000000      4.000000
  0.087839  0.033599  0.000000      4.000000
  0.097599  0.033599  0.000000      4.000000
  0.107359  0.033599  0.000000      4.000000
  0.117119  0.033599  0.000000      2.000000
  0.000000  0.044798  0.000000      2.000000
  0.009760  0.044798  0.000000      4.000000
  0.019520  0.044798  0.000000      4.000000
  0.029280  0.044798  0.000000      4.000000
  0.039040  0.044798  0.000000      4.000000
  0.048800  0.044798  0.000000      4.000000
  0.058559  0.044798  0.000000      4.000000
  0.068319  0.044798  0.000000      4.000000
[...]
  0.107359  0.190393  0.000000      4.000000
  0.117119  0.190393  0.000000      2.000000
  0.000000  0.201592  0.000000      1.000000
  0.009760  0.201592  0.000000      2.000000
  0.019520  0.201592  0.000000      2.000000
  0.029280  0.201592  0.000000      2.000000
  0.039040  0.201592  0.000000      2.000000
  0.048800  0.201592  0.000000      2.000000
  0.058559  0.201592  0.000000      2.000000
  0.068319  0.201592  0.000000      2.000000
  0.078079  0.201592  0.000000      2.000000
  0.087839  0.201592  0.000000      2.000000
  0.097599  0.201592  0.000000      2.000000
  0.107359  0.201592  0.000000      2.000000
  0.117119  0.201592  0.000000      1.000000

 I would recommend the setting:
   dimension x,y,z NGX =    62 NGY =   36 NGZ =  290
[...]
 k-point ** :   0.0417 0.3056 0.0000  plane waves:   42944
 k-point ** :   0.0833 0.3056 0.0000  plane waves:   42919
 k-point ** :   0.1250 0.3056 0.0000  plane waves:   42882
 k-point ** :   0.1667 0.3056 0.0000  plane waves:   42865
 k-point ** :   0.2083 0.3056 0.0000  plane waves:   42867
 k-point ** :   0.2500 0.3056 0.0000  plane waves:   42856
 k-point ** :   0.2917 0.3056 0.0000  plane waves:   42819
 k-point ** :   0.3333 0.3056 0.0000  plane waves:   42816
 k-point ** :   0.3750 0.3056 0.0000  plane waves:   42818
 k-point ** :   0.4167 0.3056 0.0000  plane waves:   42816
 k-point ** :   0.4583 0.3056 0.0000  plane waves:   42817
 k-point ** :   0.5000 0.3056 0.0000  plane waves:   42800
 k-point ** :   0.0000 0.3333 0.0000  plane waves:   42918
 k-point ** :   0.0417 0.3333 0.0000  plane waves:   42927
 k-point ** :   0.0833 0.3333 0.0000  plane waves:   42896
[...]
 k-point ** :   0.4583 0.4722 0.0000  plane waves:   42787
 k-point ** :   0.5000 0.4722 0.0000  plane waves:   42818
 k-point ** :   0.0000 0.5000 0.0000  plane waves:   42918
 k-point ** :   0.0417 0.5000 0.0000  plane waves:   42900
 k-point ** :   0.0833 0.5000 0.0000  plane waves:   42932
 k-point ** :   0.1250 0.5000 0.0000  plane waves:   42908
 k-point ** :   0.1667 0.5000 0.0000  plane waves:   42936
 k-point ** :   0.2083 0.5000 0.0000  plane waves:   42954
 k-point ** :   0.2500 0.5000 0.0000  plane waves:   42918
 k-point ** :   0.2917 0.5000 0.0000  plane waves:   42906
 k-point ** :   0.3333 0.5000 0.0000  plane waves:   42862
 k-point ** :   0.3750 0.5000 0.0000  plane waves:   42812
 k-point ** :   0.4167 0.5000 0.0000  plane waves:   42808
 k-point ** :   0.4583 0.5000 0.0000  plane waves:   42770
 k-point ** :   0.5000 0.5000 0.0000  plane waves:   42764

 maximum and minimum number of plane-waves per node :     21490    21326

 maximum number of plane-waves:     42954
 maximum index in each direction:
   IXMAX=   15   IYMAX=    9   IZMAX=   72
   IXMIN=  -16   IYMIN=   -9   IZMIN=  -72

 NGX is ok and might be reduce to  64
 WARNING: aliasing errors must be expected set NGY to  38 to avoid them
 NGZ is ok and might be reduce to 290
 aliasing errors are usually negligible using standard VASP settings
 and one can safely disregard these warnings

 parallel 3D FFT for wavefunctions:
    minimum data exchange during FFTs selected (reduces bandwidth)
 parallel 3D FFT for charge:
    minimum data exchange during FFTs selected (reduces bandwidth)

 Broyden mixing: mesh for mixing (old mesh)
   NGX = 31   NGY = 19   NGZ =145
  (NGX  =128   NGY  = 72   NGZ  =588)
  gives a total of  85405 points

 initial charge density was supplied:
 charge density of overlapping atoms calculated
 number of electron      16.0000000 magnetization
 keeping initial charge density in first step

 Maximum index for augmentation-charges         4661 (set IRDMAX)

 First call to EWALD:  gamma=   0.298
 Maximum number of real-space cells 4x 6x 1
 Maximum number of reciprocal cells 2x 1x 8

 FEWALD executed in parallel

----------------------------------------- Iteration    1(   1)  ---------------------------------------

 eigenvalue-minimisations  :  5928
 total energy-change (2. order) : 0.1896156E+03  (-0.1059399E+04)
 number of electron      16.0000000 magnetization
 augmentation part       16.0000000 magnetization

 Free energy of the ion-electron system (eV)
  alpha Z        PSCENC =         6.18334092
  Ewald energy   TEWEN  =      2556.99663956
  -Hartree energ DENC   =     -2983.26988648
  -exchange      EXHF   =         0.00000000
  -V(xc)+E(xc)   XCENC  =        55.03742319
  PAW double counting   =       151.32577238     -155.92769107
  entropy T*S    EENTRO =        -0.00161475
  eigenvalues    EBANDS =       -29.35194977
  atomic energy  EATOM  =       588.62352690
  free energy    TOTEN  =       189.61556089 eV

  energy without entropy =      189.61717564  energy(sigma->0) =      189.61636826

[...]

 eigenvalue-minimisations  : 10444
 total energy-change (2. order) :-0.1987621E+03  (-0.1768174E+03)
 number of electron      16.0000000 magnetization
 augmentation part       16.0000000 magnetization

[...]

 Broyden mixing:
  rms(total) = 0.73106E+00    rms(broyden)= 0.73106E+00
  rms(prec ) = 0.79512E+00
  weight for this iteration     100.00

[...]

 eigenvalues of (default mixing * dielectric matrix)
  average eigenvalue GAMMA=   2.3124
  2.3124

[...]

WARNING in EDDRMM: call to ZHEGV failed, returncode =   6  3  1
WARNING in EDDRMM: call to ZHEGV failed, returncode =   6  3  1
WARNING in EDDRMM: call to ZHEGV failed, returncode =   6  3  1
WARNING in EDDRMM: call to ZHEGV failed, returncode =   6  3  1
WARNING in EDDRMM: call to ZHEGV failed, returncode =   6  3  1
WARNING in EDDRMM: call to ZHEGV failed, returncode =   6  3  1
WARNING in EDDRMM: call to ZHEGV failed, returncode =   6  3  1
WARNING in EDDRMM: call to ZHEGV failed, returncode =   6  3  1
WARNING in EDDRMM: call to ZHEGV failed, returncode =   6  3  1

[...]

 average (electrostatic) potential at core
  the test charge radii are     0.6991
  (the norm of the test charge is              1.0000)
       1 -58.2159       2 -58.2159       3 -58.2159       4 -58.2159

 E-fermi :  -2.7691     XC(G=0):  -2.1501     alpha+bet : -1.9046

 k-point     1 :       0.0000    0.0000    0.0000
  band No.  band energies     occupation
      1     -22.2171      2.00000
      2     -16.9524      2.00000
      3     -15.9498      2.00000
      4     -10.3307      2.00000
      5      -9.2300      2.00000
      6      -5.8332      2.00000
      7      -5.7742      2.00000
      8      -5.0657      2.00000
      9      -1.0881      0.00000
     10       0.5282      0.00000
     11       1.3286      0.00000
     12       3.6894      0.00000

[...]

 soft charge-density along one line, spin component           1
         0         1         2         3         4         5         6         7         8         9
 total charge-density along one line

------------------------ aborting loop because EDIFF is reached ----------------------------------------

  FORCE on cell =-STRESS in cart. coord.  units (eV):
  Direction    XX          YY          ZZ          XY          YZ          ZX
  Alpha Z     6.18334     6.18334     6.18334
  Ewald    3093.67597  3092.97362 -3629.65319     0.00000     0.00000    -0.00000
  Hartree  3028.37674  3028.14411 -3005.50472    -0.00000    -0.00000    -0.00000
  E(xc)     -58.26494   -58.25881   -60.59716    -0.00000    -0.00000    -0.00000
  Local   -6294.61867 -6293.80753  6429.19272     0.00000     0.00000    -0.00000
  n-local   -13.92486   -13.74578   -12.70682     0.06326     0.00000    -0.00000
  augment    -1.52880    -1.52798    -1.40534     0.00000    -0.00000     0.00000
  Kinetic   240.10327   238.87510   274.48985    -4.61038    -0.00000     0.00000
  Fock        0.00000     0.00000     0.00000     0.00000     0.00000     0.00000
  Total       0.00205    -1.16392    -0.00132     0.00000     0.00000     0.00000
  in kB       0.01556    -8.84476    -0.01001     0.00000     0.00000     0.00000

 VOLUME and BASIS-vectors are now :
  energy-cutoff  :     2000.00
  volume of cell :      210.84
      direct lattice vectors                 reciprocal lattice vectors
     4.269166378  0.000000000  0.000000000     0.234237767  0.000000000  0.000000000
     0.000000000  2.480253234  0.000000000     0.000000000  0.403184637  0.000000000
     0.000000000  0.000000000 19.911756828     0.000000000  0.000000000  0.050221586

[...]

 FORCES acting on ions
    electron-ion (+dipol)            ewald-force                    non-local-force                 convergence-correction
   -.116E+01 0.624E-15 0.289E-09   0.117E+01 0.495E-14 -.138E-31   -.430E-03 0.000E+00 0.000E+00   -.207E-06 -.855E-15 0.194E-12
   0.116E+01 0.121E-13 -.457E-08   -.117E+01 0.229E-15 -.810E-18   0.430E-03 -.347E-17 0.000E+00   0.207E-06 -.865E-15 0.192E-12
   -.116E+01 0.592E-12 0.302E-09   0.117E+01 0.304E-14 0.139E-31   -.430E-03 0.000E+00 -.775E-25   -.207E-06 -.842E-15 0.194E-12
   0.116E+01 0.325E-15 -.458E-08   -.117E+01 -.169E-14 0.810E-18   0.430E-03 -.347E-17 0.000E+00   0.207E-06 -.893E-15 0.193E-12
   -.361E-06 0.605E-12 -.856E-08   0.888E-15 0.653E-14 0.000E+00   0.108E-18 -.694E-17 -.775E-25   -.151E-12 -.345E-14 0.772E-12

 POSITION                                       TOTAL-FORCE (eV/Angst)
      0.00056      0.00000      0.00000         0.002371     -0.000000     -0.000000
      0.71097      1.24013      0.00000        -0.002371     -0.000000      0.000000
      2.13514      1.24013      0.00000         0.002371     -0.000000     -0.000000
      2.84555      0.00000      0.00000        -0.002371      0.000000      0.000000
    total drift:                               -0.000000      0.000000     -0.000000

  FREE ENERGIE OF THE ION-ELECTRON SYSTEM (eV)
  free  energy   TOTEN  =       -36.92241919 eV

  energy  without entropy=      -36.92233463  energy(sigma->0) =      -36.92237691

 Quasi-Newton relaxation of ions (Broydens 2nd method)
  g(Force)  = 0.109E-05   g(Stress)= 0.000E+00

 Reset! Starting new Quasi-Newton update for ions

[...]

 d Force =-0.1641619E-05[-0.437E-05, 0.109E-05]  d Energy =-0.1648850E-05 0.723E-08
 d Force = 0.5242192E-03[ 0.515E-03, 0.533E-03]  d Ewald  = 0.5242180E-03 0.119E-08

[...]

 retain information from N=  1 steps
 eigenvalues of (default step * inverse Hessian matrix)
  average eigenvalue of G=   0.1990
 eigenvalue spectrum of G is  0.1990

[...]

WARNING in EDDRMM: call to ZHEGV failed, returncode =   6  3  1

[...]

 d Force = 0.1750265E-05[ 0.136E-08, 0.350E-05]  d Energy = 0.1755597E-05-0.533E-08
 d Force =-0.4184347E-03[-0.424E-03,-0.413E-03]  d Ewald  =-0.4184340E-03-0.613E-09

[...]

 eigenvalue-minimisations  :  5016
 total energy-change (2. order) : 0.5327365E-09  ( 0.5748024E-09)
 number of electron      16.0000000 magnetization
 augmentation part        0.3798828 magnetization

[...]

 eigenvalue-minimisations  :  1781
 total energy-change (2. order) :-0.4814638E-09  ( 0.2907345E-12)
 number of electron      16.0000000 magnetization
 augmentation part        0.3798828 magnetization

[...]

 d Force = 0.2335861E-13[-0.483E-12, 0.530E-12]  d Energy = 0.2237357E-09-0.224E-09
 d Force =-0.1651952E-06[-0.165E-06,-0.165E-06]  d Ewald  =-0.1651952E-06 0.000E+00

[...]

 FEWALD executed in parallel

[...]

 eigenvalue-minimisations  :  1324
 total energy-change (2. order) : 0.1089120E-09  (-0.2096266E-13)
 number of electron      16.0000000 magnetization
 augmentation part        0.3798828 magnetization

[...]

 eigenvalue-minimisations  :  1321
 total energy-change (2. order) :-0.3492460E-09  ( 0.1821588E-13)
 number of electron      16.0000000 magnetization
 augmentation part        0.3798828 magnetization

[...]

 eigenvalue-minimisations  :  1315
 total energy-change (2. order) : 0.4245067E-09  ( 0.3593833E-14)
 number of electron      16.0000000 magnetization
 augmentation part        0.3798828 magnetization

 Broyden mixing:
  rms(total) = 0.44449E-09    rms(broyden)= 0.44438E-09
  rms(prec ) = 0.81982E-09
  weight for this iteration     100.00

 eigenvalues of (default mixing * dielectric matrix)
  average eigenvalue GAMMA=   1.8451
  3.0001  2.4902  1.1436  0.7463

[...]

----------------------------------------- Iteration    5(   6)  ---------------------------------------

 eigenvalue-minimisations  :  1311
 total energy-change (2. order) :-0.7094059E-10  (-0.1997579E-13)
 number of electron      16.0000000 magnetization
 augmentation part        0.3798828 magnetization

 Free energy of the ion-electron system (eV)
  alpha Z        PSCENC =         6.18334092
  Ewald energy   TEWEN  =      2556.99653386
  -Hartree energ DENC   =     -3051.01604286
  -exchange      EXHF   =         0.00000000
  -V(xc)+E(xc)   XCENC  =        57.44087804
  PAW double counting   =       275.28428445     -280.42497480
  entropy T*S    EENTRO =        -0.00008524
  eigenvalues    EBANDS =      -190.00988058
  atomic energy  EATOM  =       588.62352690
  free energy    TOTEN  =       -36.92241930 eV

  energy without entropy =      -36.92233406  energy(sigma->0) =      -36.92237668

 average (electrostatic) potential at core
  the test charge radii are     0.6991
  (the norm of the test charge is              1.0000)
       1 -58.2159       2 -58.2159       3 -58.2159       4 -58.2159

 E-fermi :  -2.7691     XC(G=0):  -2.1496     alpha+bet : -1.9046

[...]

 k-point   247 :       0.5000    0.5000    0.0000
  band No.  band energies     occupation
      1     -17.0434      2.00000
      2     -17.0434      2.00000
      3     -15.9460      2.00000
      4     -15.9460      2.00000
      5      -9.1181      2.00000
      6      -9.1181      2.00000
      7      -5.1365      2.00000
      8      -5.1365      2.00000
      9      -1.0968      0.00000
     10      -1.0968      0.00000
     11       4.6057      0.00000
     12       4.6057      0.00000

 soft charge-density along one line, spin component           1
         0         1         2         3         4         5         6         7         8         9
 total charge-density along one line

------------------------ aborting loop because EDIFF is reached ----------------------------------------

  FORCE on cell =-STRESS in cart. coord.  units (eV):
  Direction    XX          YY          ZZ          XY          YZ          ZX
  Alpha Z     6.18334     6.18334     6.18334
  Ewald    3093.65609  3092.99340 -3629.65319    -0.00000     0.00000    -0.00000
  Hartree  3028.37398  3028.14679 -3005.50472    -0.00000    -0.00000    -0.00000
  E(xc)     -58.26501   -58.25873   -60.59716    -0.00000    -0.00000    -0.00000
  Local   -6294.59986 -6293.82620  6429.19275    -0.00000     0.00000     0.00000
  n-local   -13.92502   -13.74562   -12.70682     0.06329     0.00000     0.00000
  augment    -1.52877    -1.52801    -1.40534     0.00000    -0.00000    -0.00000
  Kinetic   240.10632   238.87199   274.48982    -4.61049    -0.00000    -0.00000
  Fock        0.00000     0.00000     0.00000     0.00000     0.00000     0.00000
  Total       0.00106    -1.16304    -0.00132     0.00000     0.00000     0.00000
  in kB       0.00808    -8.83807    -0.01001     0.00000     0.00000     0.00000

 VOLUME and BASIS-vectors are now :
  energy-cutoff  :     2000.00
  volume of cell :      210.84
      direct lattice vectors                 reciprocal lattice vectors
     4.269166378  0.000000000  0.000000000     0.234237767  0.000000000  0.000000000
     0.000000000  2.480253234  0.000000000     0.000000000  0.403184637  0.000000000
     0.000000000  0.000000000 19.911756828     0.000000000  0.000000000  0.050221586

  length of vectors
     4.269166378  2.480253234 19.911756828     0.234237767  0.403184637  0.050221586

 FORCES acting on ions
    electron-ion (+dipol)            ewald-force                    non-local-force                 convergence-correction
   -.116E+01 -.119E-15 0.299E-09   0.116E+01 0.218E-14 0.105E-17   -.128E-02 0.000E+00 -.129E-25   0.295E-08 -.922E-15 0.527E-12
   0.116E+01 0.206E-12 -.455E-08   -.116E+01 0.104E-14 -.390E-18   0.128E-02 0.000E+00 0.129E-25   -.295E-08 -.226E-14 0.549E-12
   -.116E+01 -.196E-12 0.292E-09   0.116E+01 -.115E-14 -.147E-17   -.128E-02 0.000E+00 -.194E-25   0.295E-08 -.904E-14 0.534E-12
   0.116E+01 0.397E-15 -.455E-08   -.116E+01 0.446E-14 0.810E-18   0.128E-02 0.000E+00 0.178E-25   -.295E-08 0.508E-14 0.505E-12
   -.360E-06 0.997E-14 -.851E-08   0.666E-15 0.653E-14 0.000E+00   0.000E+00 0.000E+00 -.162E-26   0.680E-14 -.714E-14 0.212E-11

 POSITION                                       TOTAL-FORCE (eV/Angst)
      0.00058     -0.00000     -0.00000        -0.000000     -0.000000     -0.000000
      0.71094      1.24013      0.00000         0.000000     -0.000000      0.000000
      2.13517      1.24013     -0.00000        -0.000000      0.000000     -0.000000
      2.84553     -0.00000      0.00000         0.000000      0.000000      0.000000
    total drift:                               -0.000000      0.000000     -0.000000

  FREE ENERGIE OF THE ION-ELECTRON SYSTEM (eV)
  free  energy   TOTEN  =       -36.92241930 eV

  energy  without entropy=      -36.92233406  energy(sigma->0) =      -36.92237668

 d Force = 0.1108401E-12[-0.884E-14, 0.231E-12]  d Energy =-0.3494733E-09 0.350E-09
 d Force = 0.7878997E-07[ 0.788E-07, 0.788E-07]  d Ewald  = 0.7878953E-07 0.455E-12

 Quasi-Newton relaxation of ions (Broydens 2nd method)
  g(Force)  = 0.326E-14   g(Stress)= 0.000E+00

 retain information from N=  1 steps
 eigenvalues of (default step * inverse Hessian matrix)
  average eigenvalue of G=   0.1003
 eigenvalue spectrum of G is  0.1003

 reached required accuracy - stopping structural energy minimisation