 vasp.5.3.5 31Mar14 (build Mar 02 2015 18:14:16) complex

 executed on             LinuxIFC date 2018.08.10  14:45:14

 INCAR:
 POTCAR:   PAW_PBE C 08Apr2002
 POTCAR:   PAW_PBE C 08Apr2002
   VRHFIN =C: s2p2

   TITEL  = PAW_PBE C 08Apr2002
   POMASS =   12.011; ZVAL   =    4.000    mass and valenz
   ENMAX  =  400.000; ENMIN  =  300.000 eV
   QCUT   =   -5.516; QGAM   =   11.032    optimization parameters

   Description
     l     E      TYP  RCUT    TYP  RCUT
     0   .000     23  1.200
     0   .000     23  1.200
     1   .000     23  1.500
     1  2.500     23  1.500
     2   .000      7  1.500

 PAW_PBE C 08Apr2002                    :

 POSCAR: MD-kMC export data
  positions in direct lattice
  velocities in cartesian coordinates
 exchange correlation table for  LEXCH =        8
   RHO(1)=    0.500       N(1)  =     2000
   RHO(2)=  100.500       N(2)  =     4000

 ion  position               nearest neighbor table
   1  1.000  0.000  0.000-   4 1.42   2 1.43   2 1.43
   2  0.167  0.500  0.000-   3 1.42   1 1.43   1 1.43
   3  0.500  0.500  0.000-   2 1.42   4 1.43   4 1.43
   4  0.667  0.000  0.000-   1 1.42   3 1.43   3 1.43

  LATTYP: Found a simple orthorhombic cell.
 ALAT       =     2.4673474252
 B/A-ratio  =     1.7323556802
 C/A-ratio  =     8.1025309947

  Lattice vectors:

 A1 = (   0.0000000000,  -2.4673474252,   0.0000000000)
 A2 = (  -4.2743233270,   0.0000000000,   0.0000000000)
 A3 = (   0.0000000000,   0.0000000000, -19.9917589873)

Analysis of symmetry for initial positions (statically):
 Subroutine PRICEL returns following result:

  LATTYP: Found a base centered orthorhombic cell.
 ALAT       =     2.4673474252
 B/A-ratio  =     1.7323556802
 C/A-ratio  =     8.1025309947

[...]

   2 primitive cells build up your supercell.

 Routine SETGRP: Setting up the symmetry group for a
 simple orthorhombic supercell.

 Subroutine GETGRP returns: Found  8 space group operations
 (whereof  4 operations were pure point group operations)
 out of a pool of  8 trial point group operations.

The static configuration has the point symmetry C_2v.
 The point group associated with its full space group is D_2h.

Analysis of symmetry for dynamics (positions and initial velocities):
 Subroutine PRICEL returns following result:

  LATTYP: Found a base centered orthorhombic cell.
 ALAT       =     2.4673474252
 B/A-ratio  =     1.7323556802
 C/A-ratio  =     8.1025309947

  Lattice vectors:

 A1 = (   2.1371616635,  -1.2336737126,   0.0000000000)
 A2 = (  -2.1371616635,  -1.2336737126,   0.0000000000)
 A3 = (   0.0000000000,   0.0000000000, -19.9917589873)

   2 primitive cells build up your supercell.

 Routine SETGRP: Setting up the symmetry group for a
 simple orthorhombic supercell.

 Subroutine GETGRP returns: Found  8 space group operations
 (whereof  4 operations were pure point group operations)
 out of a pool of  8 trial point group operations.

The dynamic configuration has the point symmetry C_2v.
 The point group associated with its full space group is D_2h.

 KPOINTS: Automatic mesh

Automatic generation of k-mesh.
Space group operators:
 irot       det(A)        alpha          n_x          n_y          n_z        tau_x        tau_y        tau_z
    1     1.000000     0.000001     1.000000     0.000000     0.000000     0.000000     0.000000     0.000000
    2    -1.000000   180.000000     0.000000     0.000000     1.000000     0.000000     0.000000     0.000000
    3     1.000000   179.999999     1.000000     0.000000     0.000000     0.000000     0.000000     0.000000
    4    -1.000000   179.999999     0.000000     1.000000     0.000000     0.000000     0.000000     0.000000
    5    -1.000000     0.000001     1.000000     0.000000     0.000000     0.166667    -0.500000     0.000000
    6     1.000000   180.000000     0.000000     0.000000     1.000000     0.166667    -0.500000     0.000000
    7    -1.000000   179.999999     1.000000     0.000000     0.000000     0.166667    -0.500000     0.000000
    8     1.000000   179.999999     0.000000     1.000000     0.000000     0.166667    -0.500000     0.000000

 Subroutine IBZKPT returns following result:

 Found    247 irreducible k-points:

 Following reciprocal coordinates:
            Coordinates               Weight
  0.000000  0.000000  0.000000      1.000000
  0.041667  0.000000  0.000000      2.000000
  0.083333  0.000000  0.000000      2.000000
  0.125000  0.000000  0.000000      2.000000
  0.166667  0.000000  0.000000      2.000000
  0.208333  0.000000  0.000000      2.000000
  0.250000  0.000000  0.000000      2.000000
  0.291667  0.000000  0.000000      2.000000
  0.333333  0.000000  0.000000      2.000000
  0.375000  0.000000  0.000000      2.000000
  0.416667  0.000000  0.000000      2.000000
  0.458333  0.000000  0.000000      2.000000
  0.500000  0.000000  0.000000      1.000000
  0.000000  0.027778  0.000000      2.000000
  0.041667  0.027778  0.000000      4.000000
  0.083333  0.027778  0.000000      4.000000
  0.125000  0.027778  0.000000      4.000000
  0.166667  0.027778  0.000000      4.000000
  0.208333  0.027778  0.000000      4.000000
  0.250000  0.027778  0.000000      4.000000
  0.291667  0.027778  0.000000      4.000000
  0.333333  0.027778  0.000000      4.000000
  0.375000  0.027778  0.000000      4.000000
  0.416667  0.027778  0.000000      4.000000
  0.458333  0.027778  0.000000      4.000000
  0.500000  0.027778  0.000000      2.000000
  0.000000  0.055556  0.000000      2.000000
  0.041667  0.055556  0.000000      4.000000
  0.083333  0.055556  0.000000      4.000000
  0.125000  0.055556  0.000000      4.000000
  0.166667  0.055556  0.000000      4.000000
  0.208333  0.055556  0.000000      4.000000
  0.250000  0.055556  0.000000      4.000000
  0.291667  0.055556  0.000000      4.000000
  0.333333  0.055556  0.000000      4.000000
  0.375000  0.055556  0.000000      4.000000
  0.416667  0.055556  0.000000      4.000000
  0.458333  0.055556  0.000000      4.000000
  0.500000  0.055556  0.000000      2.000000
  0.000000  0.083333  0.000000      2.000000
  0.041667  0.083333  0.000000      4.000000
  0.083333  0.083333  0.000000      4.000000
  0.125000  0.083333  0.000000      4.000000
  0.166667  0.083333  0.000000      4.000000
  0.208333  0.083333  0.000000      4.000000
  0.250000  0.083333  0.000000      4.000000
  0.291667  0.083333  0.000000      4.000000
  0.333333  0.083333  0.000000      4.000000
  0.375000  0.083333  0.000000      4.000000
  0.416667  0.083333  0.000000      4.000000
  0.458333  0.083333  0.000000      4.000000
  0.500000  0.083333  0.000000      2.000000
  0.000000  0.111111  0.000000      2.000000
  0.041667  0.111111  0.000000      4.000000
  0.083333  0.111111  0.000000      4.000000
  0.125000  0.111111  0.000000      4.000000
  0.166667  0.111111  0.000000      4.000000
  0.208333  0.111111  0.000000      4.000000
  0.250000  0.111111  0.000000      4.000000
  0.291667  0.111111  0.000000      4.000000
[...]
  0.458333  0.472222  0.000000      4.000000
  0.500000  0.472222  0.000000      2.000000
  0.000000  0.500000  0.000000      1.000000
  0.041667  0.500000  0.000000      2.000000
  0.083333  0.500000  0.000000      2.000000
  0.125000  0.500000  0.000000      2.000000
  0.166667  0.500000  0.000000      2.000000
  0.208333  0.500000  0.000000      2.000000
  0.250000  0.500000  0.000000      2.000000
  0.291667  0.500000  0.000000      2.000000
  0.333333  0.500000  0.000000      2.000000
  0.375000  0.500000  0.000000      2.000000
  0.416667  0.500000  0.000000      2.000000
  0.458333  0.500000  0.000000      2.000000
  0.500000  0.500000  0.000000      1.000000

 Following cartesian coordinates:
            Coordinates               Weight
  0.000000  0.000000  0.000000      1.000000
  0.009748  0.000000  0.000000      2.000000
  0.019496  0.000000  0.000000      2.000000
  0.029244  0.000000  0.000000      2.000000
  0.038993  0.000000  0.000000      2.000000
  0.048741  0.000000  0.000000      2.000000
  0.058489  0.000000  0.000000      2.000000
  0.068237  0.000000  0.000000      2.000000
  0.077985  0.000000  0.000000      2.000000
  0.087733  0.000000  0.000000      2.000000
  0.097481  0.000000  0.000000      2.000000
  0.107229  0.000000  0.000000      2.000000
  0.116978  0.000000  0.000000      1.000000
  0.000000  0.011258  0.000000      2.000000
  0.009748  0.011258  0.000000      4.000000
  0.019496  0.011258  0.000000      4.000000
  0.029244  0.011258  0.000000      4.000000
  0.038993  0.011258  0.000000      4.000000
  0.048741  0.011258  0.000000      4.000000
  0.058489  0.011258  0.000000      4.000000
  0.068237  0.011258  0.000000      4.000000
  0.077985  0.011258  0.000000      4.000000
  0.087733  0.011258  0.000000      4.000000
  0.097481  0.011258  0.000000      4.000000
  0.107229  0.011258  0.000000      4.000000
  0.116978  0.011258  0.000000      2.000000
  0.000000  0.022516  0.000000      2.000000
  0.009748  0.022516  0.000000      4.000000
  0.019496  0.022516  0.000000      4.000000
  0.029244  0.022516  0.000000      4.000000
  0.038993  0.022516  0.000000      4.000000
  0.048741  0.022516  0.000000      4.000000
  0.058489  0.022516  0.000000      4.000000
  0.068237  0.022516  0.000000      4.000000
  0.077985  0.022516  0.000000      4.000000
  0.087733  0.022516  0.000000      4.000000
  0.097481  0.022516  0.000000      4.000000
  0.107229  0.022516  0.000000      4.000000
  0.116978  0.022516  0.000000      2.000000
  0.000000  0.033774  0.000000      2.000000
  0.009748  0.033774  0.000000      4.000000
  0.019496  0.033774  0.000000      4.000000
  0.029244  0.033774  0.000000      4.000000
  0.038993  0.033774  0.000000      4.000000
  0.048741  0.033774  0.000000      4.000000
  0.058489  0.033774  0.000000      4.000000
  0.068237  0.033774  0.000000      4.000000
  0.077985  0.033774  0.000000      4.000000
  0.087733  0.033774  0.000000      4.000000
  0.097481  0.033774  0.000000      4.000000
  0.107229  0.033774  0.000000      4.000000
  0.116978  0.033774  0.000000      2.000000
  0.000000  0.045033  0.000000      2.000000
  0.009748  0.045033  0.000000      4.000000
  0.019496  0.045033  0.000000      4.000000
  0.029244  0.045033  0.000000      4.000000
  0.038993  0.045033  0.000000      4.000000
  0.048741  0.045033  0.000000      4.000000
  0.058489  0.045033  0.000000      4.000000
  0.068237  0.045033  0.000000      4.000000
[...]
  0.107229  0.191389  0.000000      4.000000
  0.116978  0.191389  0.000000      2.000000
  0.000000  0.202647  0.000000      1.000000
  0.009748  0.202647  0.000000      2.000000
  0.019496  0.202647  0.000000      2.000000
  0.029244  0.202647  0.000000      2.000000
  0.038993  0.202647  0.000000      2.000000
  0.048741  0.202647  0.000000      2.000000
  0.058489  0.202647  0.000000      2.000000
  0.068237  0.202647  0.000000      2.000000
  0.077985  0.202647  0.000000      2.000000
  0.087733  0.202647  0.000000      2.000000
  0.097481  0.202647  0.000000      2.000000
  0.107229  0.202647  0.000000      2.000000
  0.116978  0.202647  0.000000      1.000000

 I would recommend the setting:
   dimension x,y,z NGX =    62 NGY =   36 NGZ =  292
[...]
 k-point ** :   0.3333 0.2500 0.0000  plane waves:   42812
 k-point ** :   0.3750 0.2500 0.0000  plane waves:   42814
 k-point ** :   0.4167 0.2500 0.0000  plane waves:   42820
 k-point ** :   0.4583 0.2500 0.0000  plane waves:   42798
 k-point ** :   0.5000 0.2500 0.0000  plane waves:   42822
 k-point ** :   0.0000 0.2778 0.0000  plane waves:   42884
 k-point ** :   0.0417 0.2778 0.0000  plane waves:   42882
 k-point ** :   0.0833 0.2778 0.0000  plane waves:   42871
 k-point ** :   0.1250 0.2778 0.0000  plane waves:   42868
 k-point ** :   0.1667 0.2778 0.0000  plane waves:   42871
 k-point ** :   0.2083 0.2778 0.0000  plane waves:   42865
 k-point ** :   0.2500 0.2778 0.0000  plane waves:   42839
 k-point ** :   0.2917 0.2778 0.0000  plane waves:   42843
 k-point ** :   0.3333 0.2778 0.0000  plane waves:   42820
 k-point ** :   0.3750 0.2778 0.0000  plane waves:   42819
 k-point ** :   0.4167 0.2778 0.0000  plane waves:   42808
 k-point ** :   0.4583 0.2778 0.0000  plane waves:   42824
 k-point ** :   0.5000 0.2778 0.0000  plane waves:   42826
 k-point ** :   0.0000 0.3056 0.0000  plane waves:   42890
 k-point ** :   0.0417 0.3056 0.0000  plane waves:   42892
 k-point ** :   0.0833 0.3056 0.0000  plane waves:   42881
 k-point ** :   0.1250 0.3056 0.0000  plane waves:   42857
 k-point ** :   0.1667 0.3056 0.0000  plane waves:   42890
 k-point ** :   0.2083 0.3056 0.0000  plane waves:   42858
 k-point ** :   0.2500 0.3056 0.0000  plane waves:   42843
 k-point ** :   0.2917 0.3056 0.0000  plane waves:   42835
 k-point ** :   0.3333 0.3056 0.0000  plane waves:   42838
 k-point ** :   0.3750 0.3056 0.0000  plane waves:   42834
 k-point ** :   0.4167 0.3056 0.0000  plane waves:   42824
 k-point ** :   0.4583 0.3056 0.0000  plane waves:   42820
 k-point ** :   0.5000 0.3056 0.0000  plane waves:   42848
 k-point ** :   0.0000 0.3333 0.0000  plane waves:   42904
 k-point ** :   0.0417 0.3333 0.0000  plane waves:   42897
 k-point ** :   0.0833 0.3333 0.0000  plane waves:   42873
[...]
 k-point ** :   0.4583 0.4722 0.0000  plane waves:   42805
 k-point ** :   0.5000 0.4722 0.0000  plane waves:   42830
 k-point ** :   0.0000 0.5000 0.0000  plane waves:   42862
 k-point ** :   0.0417 0.5000 0.0000  plane waves:   42948
 k-point ** :   0.0833 0.5000 0.0000  plane waves:   42924
 k-point ** :   0.1250 0.5000 0.0000  plane waves:   42926
 k-point ** :   0.1667 0.5000 0.0000  plane waves:   42914
 k-point ** :   0.2083 0.5000 0.0000  plane waves:   42950
 k-point ** :   0.2500 0.5000 0.0000  plane waves:   42940
 k-point ** :   0.2917 0.5000 0.0000  plane waves:   42884
 k-point ** :   0.3333 0.5000 0.0000  plane waves:   42844
 k-point ** :   0.3750 0.5000 0.0000  plane waves:   42814
 k-point ** :   0.4167 0.5000 0.0000  plane waves:   42792
 k-point ** :   0.4583 0.5000 0.0000  plane waves:   42814
 k-point ** :   0.5000 0.5000 0.0000  plane waves:   42800

 maximum and minimum number of plane-waves per node :     21502    21238

 maximum number of plane-waves:     42950
 maximum index in each direction:
   IXMAX=   15   IYMAX=    8   IZMAX=   72
   IXMIN=  -16   IYMIN=   -9   IZMIN=  -72

 NGX is ok and might be reduce to  64
 NGY is ok and might be reduce to  36
 NGZ is ok and might be reduce to 290

 parallel 3D FFT for wavefunctions:
    minimum data exchange during FFTs selected (reduces bandwidth)
 parallel 3D FFT for charge:
    minimum data exchange during FFTs selected (reduces bandwidth)

 Broyden mixing: mesh for mixing (old mesh)
   NGX = 31   NGY = 17   NGZ =145
  (NGX  =128   NGY  = 72   NGZ  =588)
  gives a total of  76415 points

 initial charge density was supplied:
 charge density of overlapping atoms calculated
 number of electron      16.0000000 magnetization
 keeping initial charge density in first step

 Maximum index for augmentation-charges         4659 (set IRDMAX)

 First call to EWALD:  gamma=   0.298
 Maximum number of real-space cells 4x 6x 1
 Maximum number of reciprocal cells 2x 1x 8

 FEWALD executed in parallel

----------------------------------------- Iteration    1(   1)  ---------------------------------------

 eigenvalue-minimisations  :  5928
 total energy-change (2. order) : 0.1905352E+03  (-0.1059485E+04)
 number of electron      16.0000000 magnetization
 augmentation part       16.0000000 magnetization

 Free energy of the ion-electron system (eV)
  alpha Z        PSCENC =         6.18334092
  Ewald energy   TEWEN  =      2584.06955621
  -Hartree energ DENC   =     -3009.53356514
  -exchange      EXHF   =         0.00000000
  -V(xc)+E(xc)   XCENC  =        55.09203170
  PAW double counting   =       151.32577238     -155.92769107
  entropy T*S    EENTRO =        -0.00237410
  eigenvalues    EBANDS =       -29.29541350
  atomic energy  EATOM  =       588.62352690
  free energy    TOTEN  =       190.53518430 eV

  energy without entropy =      190.53755840  energy(sigma->0) =      190.53637135

[...]

 eigenvalue-minimisations  : 10276
 total energy-change (2. order) :-0.1995439E+03  (-0.1759352E+03)
 number of electron      16.0000000 magnetization
 augmentation part       16.0000000 magnetization

[...]

 Broyden mixing:
  rms(total) = 0.73682E+00    rms(broyden)= 0.73682E+00
  rms(prec ) = 0.80113E+00
  weight for this iteration     100.00

[...]

 eigenvalues of (default mixing * dielectric matrix)
  average eigenvalue GAMMA=   2.3122
  2.3122

[...]

WARNING in EDDRMM: call to ZHEGV failed, returncode =   6  3  1
WARNING in EDDRMM: call to ZHEGV failed, returncode =   6  3  1
WARNING in EDDRMM: call to ZHEGV failed, returncode =   6  3  1

[...]

 average (electrostatic) potential at core
  the test charge radii are     0.6991
  (the norm of the test charge is              1.0000)
       1 -58.1916       2 -58.1916       3 -58.1916       4 -58.1916

 E-fermi :  -2.7549     XC(G=0):  -2.1432     alpha+bet : -1.9046

 k-point     1 :       0.0000    0.0000    0.0000
  band No.  band energies     occupation
      1     -22.2509      2.00000
      2     -17.0175      2.00000
      3     -15.9798      2.00000
      4     -10.3568      2.00000
      5      -9.1491      2.00000
      6      -5.8037      2.00000
      7      -5.7707      2.00000
      8      -5.1046      2.00000
      9      -1.0619      0.00000
     10       0.5210      0.00000
     11       1.3253      0.00000
     12       1.7089      0.00000

[...]

 soft charge-density along one line, spin component           1
         0         1         2         3         4         5         6         7         8         9
 total charge-density along one line

------------------------ aborting loop because EDIFF is reached ----------------------------------------

  FORCE on cell =-STRESS in cart. coord.  units (eV):
  Direction    XX          YY          ZZ          XY          YZ          ZX
  Alpha Z     6.18334     6.18334     6.18334
  Ewald    3121.92254  3121.02524 -3658.87848     0.00000     0.00000     0.00000
  Hartree  3055.41340  3055.29399 -3032.68573     0.00000    -0.00000    -0.00000
  E(xc)     -58.33176   -58.33540   -60.67238     0.00000    -0.00000    -0.00000
  Local   -6349.71153 -6348.86737  6485.42035    -0.00000    -0.00000     0.00000
  n-local   -13.93353   -13.94603   -12.76274     0.05586    -0.00000     0.00000
  augment    -1.54152    -1.54005    -1.41371    -0.00000     0.00000     0.00000
  Kinetic   239.96575   240.14396   274.80803    -4.59604     0.00000    -0.00000
  Fock        0.00000     0.00000     0.00000     0.00000     0.00000     0.00000
  Total      -0.03332    -0.04232    -0.00132     0.00000     0.00000     0.00000
  in kB      -0.25319    -0.32160    -0.01000     0.00000     0.00000     0.00000

 VOLUME and BASIS-vectors are now :
  energy-cutoff  :     2000.00
  volume of cell :      210.84
      direct lattice vectors                 reciprocal lattice vectors
     4.274323327  0.000000000  0.000000000     0.233955160  0.000000000  0.000000000
     0.000000000  2.467347425  0.000000000     0.000000000  0.405293551  0.000000000
     0.000000000  0.000000000 19.991758987     0.000000000  0.000000000  0.050020611

[...]

 FORCES acting on ions
    electron-ion (+dipol)            ewald-force                    non-local-force                 convergence-correction
   -.118E+00 0.830E-15 -.318E-09   0.153E+00 -.192E-14 -.963E-34   0.196E-01 0.000E+00 0.000E+00   -.581E-07 0.554E-15 0.195E-12
   0.118E+00 0.108E-13 -.581E-08   -.153E+00 -.571E-16 0.124E-18   -.196E-01 0.000E+00 0.000E+00   0.581E-07 -.164E-14 0.195E-12
   -.118E+00 -.201E-12 -.352E-09   0.153E+00 0.317E-14 0.481E-34   0.196E-01 0.000E+00 0.000E+00   -.581E-07 0.430E-15 0.195E-12
   0.118E+00 0.207E-15 -.584E-08   -.153E+00 0.503E-14 -.124E-18   -.196E-01 0.000E+00 0.000E+00   0.581E-07 -.154E-14 0.194E-12
   -.509E-06 -.190E-12 -.123E-07   0.527E-15 0.623E-14 -.963E-34   0.347E-17 0.000E+00 0.000E+00   0.415E-13 -.220E-14 0.778E-12

 POSITION                                       TOTAL-FORCE (eV/Angst)
      4.27378      0.00000      0.00000         0.054512     -0.000000      0.000000
      0.71293      1.23367      0.00000        -0.054512      0.000000     -0.000000
      2.13662      1.23367      0.00000         0.054512      0.000000      0.000000
      2.85009      0.00000      0.00000        -0.054512     -0.000000     -0.000000
    total drift:                               -0.000001     -0.000000     -0.000000

  FREE ENERGIE OF THE ION-ELECTRON SYSTEM (eV)
  free  energy   TOTEN  =       -36.92542413 eV

  energy  without entropy=      -36.92529543  energy(sigma->0) =      -36.92535978

 Quasi-Newton relaxation of ions (Broydens 2nd method)
  g(Force)  = 0.573E-03   g(Stress)= 0.000E+00

 Reset! Starting new Quasi-Newton update for ions

[...]

WARNING in EDDRMM: call to ZHEGV failed, returncode =   6  3  2

[...]

 d Force =-0.8585304E-03[-0.229E-02, 0.573E-03]  d Energy =-0.8584261E-03-0.104E-06
 d Force =-0.3273540E-02[-0.816E-02, 0.161E-02]  d Ewald  =-0.3288096E-02 0.146E-04

[...]

 retain information from N=  1 steps
 eigenvalues of (default step * inverse Hessian matrix)
  average eigenvalue of G=   0.2002
 eigenvalue spectrum of G is  0.2002

[...]

 eigenvalue-minimisations  :  2031
 total energy-change (2. order) :-0.1455192E-10  ( 0.8519934E-14)
 number of electron      16.0000000 magnetization
 augmentation part        0.3817004 magnetization

[...]

 d Force = 0.9162485E-03[ 0.621E-06, 0.183E-02]  d Energy = 0.9157234E-03 0.525E-06
 d Force = 0.3405776E-02[ 0.287E-03, 0.652E-02]  d Ewald  = 0.3413220E-02-0.744E-05

[...]

 FEWALD executed in parallel

[...]

 eigenvalue-minimisations  :  6804
 total energy-change (2. order) : 0.2696652E-09  ( 0.8019298E-11)
 number of electron      16.0000000 magnetization
 augmentation part        0.3817005 magnetization

[...]

 eigenvalue-minimisations  :  3663
 total energy-change (2. order) : 0.3174137E-09  (-0.2826604E-11)
 number of electron      16.0000000 magnetization
 augmentation part        0.3817004 magnetization

[...]

 Broyden mixing:
  rms(total) = 0.25163E-06    rms(broyden)= 0.25163E-06
  rms(prec ) = 0.27153E-06
  weight for this iteration     100.00

 eigenvalues of (default mixing * dielectric matrix)
  average eigenvalue GAMMA=   1.5509
  2.4889  1.0344  1.3401  1.3401

[...]

----------------------------------------- Iteration    4(   6)  ---------------------------------------

 eigenvalue-minimisations  :  2481
 total energy-change (2. order) :-0.5400125E-10  (-0.5354976E-12)
 number of electron      16.0000000 magnetization
 augmentation part        0.3817004 magnetization

 Free energy of the ion-electron system (eV)
  alpha Z        PSCENC =         6.18334092
  Ewald energy   TEWEN  =      2584.06943098
  -Hartree energ DENC   =     -3078.02157676
  -exchange      EXHF   =         0.00000000
  -V(xc)+E(xc)   XCENC  =        57.51500437
  PAW double counting   =       276.91285853     -282.06096278
  entropy T*S    EENTRO =        -0.00013055
  eigenvalues    EBANDS =      -190.14697304
  atomic energy  EATOM  =       588.62352690
  free energy    TOTEN  =       -36.92548142 eV

  energy without entropy =      -36.92535087  energy(sigma->0) =      -36.92541615

 average (electrostatic) potential at core
  the test charge radii are     0.6991
  (the norm of the test charge is              1.0000)
       1 -58.1916       2 -58.1916       3 -58.1916       4 -58.1916

 E-fermi :  -2.7549     XC(G=0):  -2.1428     alpha+bet : -1.9046

[...]

 k-point   247 :       0.5000    0.5000    0.0000
  band No.  band energies     occupation
      1     -17.0190      2.00000
      2     -17.0190      2.00000
      3     -15.9712      2.00000
      4     -15.9712      2.00000
      5      -9.1593      2.00000
      6      -9.1593      2.00000
      7      -5.1100      2.00000
      8      -5.1100      2.00000
      9      -1.0765      0.00000
     10      -1.0765      0.00000
     11       4.6000      0.00000
     12       4.6000      0.00000

 soft charge-density along one line, spin component           1
         0         1         2         3         4         5         6         7         8         9
 total charge-density along one line

------------------------ aborting loop because EDIFF is reached ----------------------------------------

  FORCE on cell =-STRESS in cart. coord.  units (eV):
  Direction    XX          YY          ZZ          XY          YZ          ZX
  Alpha Z     6.18334     6.18334     6.18334
  Ewald    3121.46167  3121.48599 -3658.87848     0.00000     0.00000     0.00000
  Hartree  3055.34989  3055.35739 -3032.68571    -0.00000    -0.00000    -0.00000
  E(xc)     -58.33351   -58.33365   -60.67237     0.00000    -0.00000    -0.00000
  Local   -6349.27545 -6349.30335  6485.42037     0.00000    -0.00000    -0.00000
  n-local   -13.93724   -13.94234   -12.76274     0.05647     0.00000     0.00000
  augment    -1.54079    -1.54078    -1.41371     0.00000     0.00000     0.00000
  Kinetic   240.03833   240.07126   274.80798    -4.59837    -0.00000    -0.00000
  Fock        0.00000     0.00000     0.00000     0.00000     0.00000     0.00000
  Total      -0.05375    -0.02214    -0.00132     0.00000     0.00000     0.00000
  in kB      -0.40845    -0.16821    -0.01000     0.00000     0.00000     0.00000

 VOLUME and BASIS-vectors are now :
  energy-cutoff  :     2000.00
  volume of cell :      210.84
      direct lattice vectors                 reciprocal lattice vectors
     4.274323327  0.000000000  0.000000000     0.233955160  0.000000000  0.000000000
     0.000000000  2.467347425  0.000000000     0.000000000  0.405293551  0.000000000
     0.000000000  0.000000000 19.991758987     0.000000000  0.000000000  0.050020611

  length of vectors
     4.274323327  2.467347425 19.991758987     0.233955160  0.405293551  0.050020611

 FORCES acting on ions
    electron-ion (+dipol)            ewald-force                    non-local-force                 convergence-correction
   0.339E-01 0.124E-15 -.584E-11   -.339E-01 0.484E-14 0.557E-18   0.195E-04 -.104E-16 0.258E-25   -.127E-05 -.210E-14 -.968E-14
   -.339E-01 -.174E-12 -.520E-08   0.339E-01 -.505E-14 -.276E-27   -.195E-04 -.104E-16 -.517E-25   0.127E-05 0.169E-14 -.310E-14
   0.339E-01 -.205E-12 0.930E-11   -.339E-01 0.817E-14 -.557E-18   0.195E-04 -.104E-16 0.258E-25   -.127E-05 0.489E-14 0.102E-12
   -.339E-01 0.375E-15 -.522E-08   0.339E-01 -.173E-14 0.276E-27   -.195E-04 0.104E-16 -.517E-25   0.127E-05 -.485E-14 0.108E-12
   -.487E-06 -.379E-12 -.104E-07   0.541E-15 0.623E-14 0.000E+00   0.339E-20 -.208E-16 -.517E-25   0.623E-12 -.361E-15 0.197E-12

 POSITION                                       TOTAL-FORCE (eV/Angst)
      4.27431     -0.00000      0.00000        -0.000000     -0.000000      0.000000
      0.71240      1.23367     -0.00000         0.000000      0.000000     -0.000000
      2.13715      1.23367      0.00000        -0.000000      0.000000      0.000000
      2.84956     -0.00000     -0.00000         0.000000     -0.000000     -0.000000
    total drift:                               -0.000000     -0.000000     -0.000000

  FREE ENERGIE OF THE ION-ELECTRON SYSTEM (eV)
  free  energy   TOTEN  =       -36.92548142 eV

  energy  without entropy=      -36.92535087  energy(sigma->0) =      -36.92541615

 d Force = 0.1058539E-09[ 0.827E-12, 0.211E-09]  d Energy = 0.2706884E-09-0.165E-09
 d Force = 0.9717366E-07[ 0.968E-07, 0.975E-07]  d Ewald  = 0.9717405E-07-0.455E-12

 Quasi-Newton relaxation of ions (Broydens 2nd method)
  g(Force)  = 0.162E-13   g(Stress)= 0.000E+00

 retain information from N=  1 steps
 eigenvalues of (default step * inverse Hessian matrix)
  average eigenvalue of G=   0.2011
 eigenvalue spectrum of G is  0.2011

 reached required accuracy - stopping structural energy minimisation