 vasp.5.3.5 31Mar14 (build Mar 02 2015 18:14:16) complex

 executed on             LinuxIFC date 2018.08.10  15:18:32

 INCAR:
 POTCAR:   PAW_PBE C 08Apr2002
 POTCAR:   PAW_PBE C 08Apr2002
   VRHFIN =C: s2p2

   TITEL  = PAW_PBE C 08Apr2002
   POMASS =   12.011; ZVAL   =    4.000    mass and valenz
   ENMAX  =  400.000; ENMIN  =  300.000 eV
   QCUT   =   -5.516; QGAM   =   11.032    optimization parameters

   Description
     l     E      TYP  RCUT    TYP  RCUT
     0   .000     23  1.200
     0   .000     23  1.200
     1   .000     23  1.500
     1  2.500     23  1.500
     2   .000      7  1.500

 PAW_PBE C 08Apr2002                    :

 POSCAR: MD-kMC export data
  positions in direct lattice
  velocities in cartesian coordinates
 exchange correlation table for  LEXCH =        8
   RHO(1)=    0.500       N(1)  =     2000
   RHO(2)=  100.500       N(2)  =     4000

 ion  position               nearest neighbor table
   1  0.000  0.000  0.000-   2 1.42   2 1.42   4 1.43
   2  0.167  0.500  0.000-   1 1.42   1 1.42   3 1.43
   3  0.500  0.500  0.000-   4 1.42   4 1.42   2 1.43
   4  0.667  0.000  0.000-   3 1.42   3 1.42   1 1.43

  LATTYP: Found a simple orthorhombic cell.
 ALAT       =     2.4675460071
 B/A-ratio  =     1.7319388738
 C/A-ratio  =     8.1025244131

  Lattice vectors:

 A1 = (   0.0000000000,  -2.4675460071,   0.0000000000)
 A2 = (  -4.2736388526,   0.0000000000,   0.0000000000)
 A3 = (   0.0000000000,   0.0000000000, -19.9933517628)

Analysis of symmetry for initial positions (statically):
 Subroutine PRICEL returns following result:

  LATTYP: Found a base centered orthorhombic cell.
 ALAT       =     2.4675460071
 B/A-ratio  =     1.7319388738
 C/A-ratio  =     8.1025244131

[...]

   2 primitive cells build up your supercell.

 Routine SETGRP: Setting up the symmetry group for a
 simple orthorhombic supercell.

 Subroutine GETGRP returns: Found  8 space group operations
 (whereof  4 operations were pure point group operations)
 out of a pool of  8 trial point group operations.

The static configuration has the point symmetry C_2v.
 The point group associated with its full space group is D_2h.

Analysis of symmetry for dynamics (positions and initial velocities):
 Subroutine PRICEL returns following result:

  LATTYP: Found a base centered orthorhombic cell.
 ALAT       =     2.4675460071
 B/A-ratio  =     1.7319388738
 C/A-ratio  =     8.1025244131

  Lattice vectors:

 A1 = (   2.1368194263,  -1.2337730035,   0.0000000000)
 A2 = (  -2.1368194263,  -1.2337730035,   0.0000000000)
 A3 = (   0.0000000000,   0.0000000000, -19.9933517628)

   2 primitive cells build up your supercell.

 Routine SETGRP: Setting up the symmetry group for a
 simple orthorhombic supercell.

 Subroutine GETGRP returns: Found  8 space group operations
 (whereof  4 operations were pure point group operations)
 out of a pool of  8 trial point group operations.

The dynamic configuration has the point symmetry C_2v.
 The point group associated with its full space group is D_2h.

 KPOINTS: Automatic mesh

Automatic generation of k-mesh.
Space group operators:
 irot       det(A)        alpha          n_x          n_y          n_z        tau_x        tau_y        tau_z
    1     1.000000     0.000000     1.000000     0.000000     0.000000     0.000000     0.000000     0.000000
    2    -1.000000   180.000000     0.000000     0.000000     1.000000     0.000000     0.000000     0.000000
    3     1.000000   180.000000     1.000000     0.000000     0.000000     0.000000     0.000000     0.000000
    4    -1.000000   180.000000     0.000000     1.000000     0.000000     0.000000     0.000000     0.000000
    5    -1.000000     0.000000     1.000000     0.000000     0.000000     0.166667    -0.500000     0.000000
    6     1.000000   180.000000     0.000000     0.000000     1.000000     0.166667    -0.500000     0.000000
    7    -1.000000   180.000000     1.000000     0.000000     0.000000     0.166667    -0.500000     0.000000
    8     1.000000   180.000000     0.000000     1.000000     0.000000     0.166667    -0.500000     0.000000

 Subroutine IBZKPT returns following result:

 Found    247 irreducible k-points:

 Following reciprocal coordinates:
            Coordinates               Weight
  0.000000  0.000000  0.000000      1.000000
  0.041667  0.000000  0.000000      2.000000
  0.083333  0.000000  0.000000      2.000000
  0.125000  0.000000  0.000000      2.000000
  0.166667  0.000000  0.000000      2.000000
  0.208333  0.000000  0.000000      2.000000
  0.250000  0.000000  0.000000      2.000000
  0.291667  0.000000  0.000000      2.000000
  0.333333  0.000000  0.000000      2.000000
  0.375000  0.000000  0.000000      2.000000
  0.416667  0.000000  0.000000      2.000000
  0.458333  0.000000  0.000000      2.000000
  0.500000  0.000000  0.000000      1.000000
  0.000000  0.027778  0.000000      2.000000
  0.041667  0.027778  0.000000      4.000000
  0.083333  0.027778  0.000000      4.000000
  0.125000  0.027778  0.000000      4.000000
  0.166667  0.027778  0.000000      4.000000
  0.208333  0.027778  0.000000      4.000000
  0.250000  0.027778  0.000000      4.000000
  0.291667  0.027778  0.000000      4.000000
  0.333333  0.027778  0.000000      4.000000
  0.375000  0.027778  0.000000      4.000000
  0.416667  0.027778  0.000000      4.000000
  0.458333  0.027778  0.000000      4.000000
  0.500000  0.027778  0.000000      2.000000
  0.000000  0.055556  0.000000      2.000000
  0.041667  0.055556  0.000000      4.000000
  0.083333  0.055556  0.000000      4.000000
  0.125000  0.055556  0.000000      4.000000
  0.166667  0.055556  0.000000      4.000000
  0.208333  0.055556  0.000000      4.000000
  0.250000  0.055556  0.000000      4.000000
  0.291667  0.055556  0.000000      4.000000
  0.333333  0.055556  0.000000      4.000000
  0.375000  0.055556  0.000000      4.000000
  0.416667  0.055556  0.000000      4.000000
  0.458333  0.055556  0.000000      4.000000
  0.500000  0.055556  0.000000      2.000000
  0.000000  0.083333  0.000000      2.000000
  0.041667  0.083333  0.000000      4.000000
  0.083333  0.083333  0.000000      4.000000
  0.125000  0.083333  0.000000      4.000000
  0.166667  0.083333  0.000000      4.000000
  0.208333  0.083333  0.000000      4.000000
  0.250000  0.083333  0.000000      4.000000
  0.291667  0.083333  0.000000      4.000000
  0.333333  0.083333  0.000000      4.000000
  0.375000  0.083333  0.000000      4.000000
  0.416667  0.083333  0.000000      4.000000
  0.458333  0.083333  0.000000      4.000000
  0.500000  0.083333  0.000000      2.000000
  0.000000  0.111111  0.000000      2.000000
  0.041667  0.111111  0.000000      4.000000
  0.083333  0.111111  0.000000      4.000000
  0.125000  0.111111  0.000000      4.000000
  0.166667  0.111111  0.000000      4.000000
  0.208333  0.111111  0.000000      4.000000
  0.250000  0.111111  0.000000      4.000000
  0.291667  0.111111  0.000000      4.000000
[...]
  0.458333  0.472222  0.000000      4.000000
  0.500000  0.472222  0.000000      2.000000
  0.000000  0.500000  0.000000      1.000000
  0.041667  0.500000  0.000000      2.000000
  0.083333  0.500000  0.000000      2.000000
  0.125000  0.500000  0.000000      2.000000
  0.166667  0.500000  0.000000      2.000000
  0.208333  0.500000  0.000000      2.000000
  0.250000  0.500000  0.000000      2.000000
  0.291667  0.500000  0.000000      2.000000
  0.333333  0.500000  0.000000      2.000000
  0.375000  0.500000  0.000000      2.000000
  0.416667  0.500000  0.000000      2.000000
  0.458333  0.500000  0.000000      2.000000
  0.500000  0.500000  0.000000      1.000000

 Following cartesian coordinates:
            Coordinates               Weight
  0.000000  0.000000  0.000000      1.000000
  0.009750  0.000000  0.000000      2.000000
  0.019499  0.000000  0.000000      2.000000
  0.029249  0.000000  0.000000      2.000000
  0.038999  0.000000  0.000000      2.000000
  0.048748  0.000000  0.000000      2.000000
  0.058498  0.000000  0.000000      2.000000
  0.068248  0.000000  0.000000      2.000000
  0.077998  0.000000  0.000000      2.000000
  0.087747  0.000000  0.000000      2.000000
  0.097497  0.000000  0.000000      2.000000
  0.107247  0.000000  0.000000      2.000000
  0.116996  0.000000  0.000000      1.000000
  0.000000  0.011257  0.000000      2.000000
  0.009750  0.011257  0.000000      4.000000
  0.019499  0.011257  0.000000      4.000000
  0.029249  0.011257  0.000000      4.000000
  0.038999  0.011257  0.000000      4.000000
  0.048748  0.011257  0.000000      4.000000
  0.058498  0.011257  0.000000      4.000000
  0.068248  0.011257  0.000000      4.000000
  0.077998  0.011257  0.000000      4.000000
  0.087747  0.011257  0.000000      4.000000
  0.097497  0.011257  0.000000      4.000000
  0.107247  0.011257  0.000000      4.000000
  0.116996  0.011257  0.000000      2.000000
  0.000000  0.022514  0.000000      2.000000
  0.009750  0.022514  0.000000      4.000000
  0.019499  0.022514  0.000000      4.000000
  0.029249  0.022514  0.000000      4.000000
  0.038999  0.022514  0.000000      4.000000
  0.048748  0.022514  0.000000      4.000000
  0.058498  0.022514  0.000000      4.000000
  0.068248  0.022514  0.000000      4.000000
  0.077998  0.022514  0.000000      4.000000
  0.087747  0.022514  0.000000      4.000000
  0.097497  0.022514  0.000000      4.000000
  0.107247  0.022514  0.000000      4.000000
  0.116996  0.022514  0.000000      2.000000
  0.000000  0.033772  0.000000      2.000000
  0.009750  0.033772  0.000000      4.000000
  0.019499  0.033772  0.000000      4.000000
  0.029249  0.033772  0.000000      4.000000
  0.038999  0.033772  0.000000      4.000000
  0.048748  0.033772  0.000000      4.000000
  0.058498  0.033772  0.000000      4.000000
  0.068248  0.033772  0.000000      4.000000
  0.077998  0.033772  0.000000      4.000000
  0.087747  0.033772  0.000000      4.000000
  0.097497  0.033772  0.000000      4.000000
  0.107247  0.033772  0.000000      4.000000
  0.116996  0.033772  0.000000      2.000000
  0.000000  0.045029  0.000000      2.000000
  0.009750  0.045029  0.000000      4.000000
  0.019499  0.045029  0.000000      4.000000
  0.029249  0.045029  0.000000      4.000000
  0.038999  0.045029  0.000000      4.000000
  0.048748  0.045029  0.000000      4.000000
  0.058498  0.045029  0.000000      4.000000
  0.068248  0.045029  0.000000      4.000000
[...]
  0.107247  0.191373  0.000000      4.000000
  0.116996  0.191373  0.000000      2.000000
  0.000000  0.202630  0.000000      1.000000
  0.009750  0.202630  0.000000      2.000000
  0.019499  0.202630  0.000000      2.000000
  0.029249  0.202630  0.000000      2.000000
  0.038999  0.202630  0.000000      2.000000
  0.048748  0.202630  0.000000      2.000000
  0.058498  0.202630  0.000000      2.000000
  0.068248  0.202630  0.000000      2.000000
  0.077998  0.202630  0.000000      2.000000
  0.087747  0.202630  0.000000      2.000000
  0.097497  0.202630  0.000000      2.000000
  0.107247  0.202630  0.000000      2.000000
  0.116996  0.202630  0.000000      1.000000

 I would recommend the setting:
   dimension x,y,z NGX =    62 NGY =   36 NGZ =  292
[...]
 k-point ** :   0.4583 0.3056 0.0000  plane waves:   42816
 k-point ** :   0.5000 0.3056 0.0000  plane waves:   42852
 k-point ** :   0.0000 0.3333 0.0000  plane waves:   42904
 k-point ** :   0.0417 0.3333 0.0000  plane waves:   42899
 k-point ** :   0.0833 0.3333 0.0000  plane waves:   42877
[...]
 k-point ** :   0.4583 0.4722 0.0000  plane waves:   42811
 k-point ** :   0.5000 0.4722 0.0000  plane waves:   42834
 k-point ** :   0.0000 0.5000 0.0000  plane waves:   42878
 k-point ** :   0.0417 0.5000 0.0000  plane waves:   42940
 k-point ** :   0.0833 0.5000 0.0000  plane waves:   42920
 k-point ** :   0.1250 0.5000 0.0000  plane waves:   42926
 k-point ** :   0.1667 0.5000 0.0000  plane waves:   42910
 k-point ** :   0.2083 0.5000 0.0000  plane waves:   42950
 k-point ** :   0.2500 0.5000 0.0000  plane waves:   42936
 k-point ** :   0.2917 0.5000 0.0000  plane waves:   42888
 k-point ** :   0.3333 0.5000 0.0000  plane waves:   42844
 k-point ** :   0.3750 0.5000 0.0000  plane waves:   42822
 k-point ** :   0.4167 0.5000 0.0000  plane waves:   42792
 k-point ** :   0.4583 0.5000 0.0000  plane waves:   42822
 k-point ** :   0.5000 0.5000 0.0000  plane waves:   42800

 maximum and minimum number of plane-waves per node :     21502    21238

 maximum number of plane-waves:     42950
 maximum index in each direction:
   IXMAX=   15   IYMAX=    8   IZMAX=   72
   IXMIN=  -16   IYMIN=   -9   IZMIN=  -72

 NGX is ok and might be reduce to  64
 NGY is ok and might be reduce to  36
 NGZ is ok and might be reduce to 290

 parallel 3D FFT for wavefunctions:
    minimum data exchange during FFTs selected (reduces bandwidth)
 parallel 3D FFT for charge:
    minimum data exchange during FFTs selected (reduces bandwidth)

 Broyden mixing: mesh for mixing (old mesh)
   NGX = 31   NGY = 17   NGZ =145
  (NGX  =128   NGY  = 72   NGZ  =588)
  gives a total of  76415 points

 initial charge density was supplied:
 charge density of overlapping atoms calculated
 number of electron      16.0000000 magnetization
 keeping initial charge density in first step

 Maximum index for augmentation-charges         4659 (set IRDMAX)

 First call to EWALD:  gamma=   0.298
 Maximum number of real-space cells 4x 6x 1
 Maximum number of reciprocal cells 2x 1x 8

 FEWALD executed in parallel

----------------------------------------- Iteration    1(   1)  ---------------------------------------

 eigenvalue-minimisations  :  5928
 total energy-change (2. order) : 0.1908497E+03  (-0.1064886E+04)
 number of electron      16.0000000 magnetization
 augmentation part       16.0000000 magnetization

 Free energy of the ion-electron system (eV)
  alpha Z        PSCENC =         6.18334092
  Ewald energy   TEWEN  =      2584.60984913
  -Hartree energ DENC   =     -3010.05767289
  -exchange      EXHF   =         0.00000000
  -V(xc)+E(xc)   XCENC  =        55.09311898
  PAW double counting   =       151.32577238     -155.92769107
  entropy T*S    EENTRO =        -0.00178902
  eigenvalues    EBANDS =       -28.99871631
  atomic energy  EATOM  =       588.62352690
  free energy    TOTEN  =       190.84973903 eV

  energy without entropy =      190.85152804  energy(sigma->0) =      190.85063353

[...]

 eigenvalue-minimisations  : 10352
 total energy-change (2. order) :-0.1999067E+03  (-0.1781932E+03)
 number of electron      16.0000000 magnetization
 augmentation part       16.0000000 magnetization

[...]

 Broyden mixing:
  rms(total) = 0.73603E+00    rms(broyden)= 0.73603E+00
  rms(prec ) = 0.80011E+00
  weight for this iteration     100.00

[...]

 eigenvalues of (default mixing * dielectric matrix)
  average eigenvalue GAMMA=   2.3170
  2.3170

[...]

WARNING in EDDRMM: call to ZHEGV failed, returncode =   6  3  1
WARNING in EDDRMM: call to ZHEGV failed, returncode =   6  3  1
WARNING in EDDRMM: call to ZHEGV failed, returncode =   6  3  1
WARNING in EDDRMM: call to ZHEGV failed, returncode =   6  3  1
WARNING in EDDRMM: call to ZHEGV failed, returncode =   6  3  1
WARNING in EDDRMM: call to ZHEGV failed, returncode =   6  3  1
WARNING in EDDRMM: call to ZHEGV failed, returncode =   6  3  1
WARNING in EDDRMM: call to ZHEGV failed, returncode =   6  3  1
WARNING in EDDRMM: call to ZHEGV failed, returncode =   6  3  1

[...]

 average (electrostatic) potential at core
  the test charge radii are     0.6991
  (the norm of the test charge is              1.0000)
       1 -58.1911       2 -58.1911       3 -58.1911       4 -58.1911

 E-fermi :  -2.7546     XC(G=0):  -2.1433     alpha+bet : -1.9046

 k-point     1 :       0.0000    0.0000    0.0000
  band No.  band energies     occupation
      1     -22.2516      2.00000
      2     -17.0236      2.00000
      3     -15.9623      2.00000
      4     -10.3574      2.00000
      5      -9.1665      2.00000
      6      -5.8038      2.00000
      7      -5.7699      2.00000
      8      -5.1180      2.00000
      9      -1.0634      0.00000
     10       0.5241      0.00000
     11       1.3250      0.00000
     12       1.7067      0.00000

[...]

 soft charge-density along one line, spin component           1
         0         1         2         3         4         5         6         7         8         9
 total charge-density along one line

------------------------ aborting loop because EDIFF is reached ----------------------------------------

  FORCE on cell =-STRESS in cart. coord.  units (eV):
  Direction    XX          YY          ZZ          XY          YZ          ZX
  Alpha Z     6.18334     6.18334     6.18334
  Ewald    3121.55134  3122.51977 -3659.46153    -0.00000     0.00000     0.00000
  Hartree  3055.82830  3055.96038 -3033.22808     0.00000    -0.00000    -0.00000
  E(xc)     -58.33690   -58.33313   -60.67388    -0.00000    -0.00000    -0.00000
  Local   -6349.93073 -6350.84608  6486.54216     0.00000    -0.00000    -0.00000
  n-local   -13.94671   -13.93702   -12.76386     0.05713     0.00000     0.00000
  augment    -1.54029    -1.54178    -1.41387     0.00000     0.00000     0.00000
  Kinetic   240.14998   239.98235   274.81439    -4.60184    -0.00000    -0.00000
  Fock        0.00000     0.00000     0.00000     0.00000     0.00000     0.00000
  Total      -0.04166    -0.01216    -0.00132     0.00000     0.00000     0.00000
  in kB      -0.31654    -0.09243    -0.01001     0.00000     0.00000     0.00000

 VOLUME and BASIS-vectors are now :
  energy-cutoff  :     2000.00
  volume of cell :      210.84
      direct lattice vectors                 reciprocal lattice vectors
     4.273638853  0.000000000  0.000000000     0.233992631  0.000000000  0.000000000
     0.000000000  2.467546007  0.000000000     0.000000000  0.405260934  0.000000000
     0.000000000  0.000000000 19.993351763     0.000000000  0.000000000  0.050016626

[...]

 FORCES acting on ions
    electron-ion (+dipol)            ewald-force                    non-local-force                 convergence-correction
   0.149E+00 0.645E-15 0.286E-09   -.185E+00 -.863E-15 -.366E-32   -.206E-01 0.694E-17 -.207E-24   -.804E-07 -.143E-14 0.194E-12
   -.149E+00 0.106E-13 -.453E-08   0.185E+00 -.239E-15 0.412E-18   0.206E-01 -.139E-16 0.607E-24   0.804E-07 -.680E-15 0.194E-12
   0.149E+00 0.589E-12 0.300E-09   -.185E+00 0.227E-14 0.366E-32   -.206E-01 0.694E-17 -.310E-24   -.804E-07 -.123E-14 0.194E-12
   -.149E+00 -.230E-15 -.454E-08   0.185E+00 0.289E-14 -.412E-18   0.206E-01 -.139E-16 0.414E-24   0.804E-07 -.903E-15 0.194E-12
   -.451E-06 0.600E-12 -.849E-08   0.358E-14 0.406E-14 0.000E+00   0.104E-16 -.139E-16 0.504E-24   -.210E-12 -.424E-14 0.777E-12

 POSITION                                       TOTAL-FORCE (eV/Angst)
      0.00056      0.00000      0.00000        -0.057221      0.000000     -0.000000
      0.71171      1.23377      0.00000         0.057221     -0.000000      0.000000
      2.13738      1.23377      0.00000        -0.057221     -0.000000     -0.000000
      2.84853      0.00000      0.00000         0.057221      0.000000      0.000000
    total drift:                               -0.000000      0.000000     -0.000000

  FREE ENERGIE OF THE ION-ELECTRON SYSTEM (eV)
  free  energy   TOTEN  =       -36.92542182 eV

  energy  without entropy=      -36.92529382  energy(sigma->0) =      -36.92535782

 Quasi-Newton relaxation of ions (Broydens 2nd method)
  g(Force)  = 0.632E-03   g(Stress)= 0.000E+00

 Reset! Starting new Quasi-Newton update for ions

[...]

 d Force =-0.9593753E-03[-0.255E-02, 0.632E-03]  d Energy =-0.9522775E-03-0.710E-05
 d Force =-0.3397390E-02[-0.884E-02, 0.204E-02]  d Ewald  =-0.3380512E-02-0.169E-04

[...]

 retain information from N=  1 steps
 eigenvalues of (default step * inverse Hessian matrix)
  average eigenvalue of G=   0.1985
 eigenvalue spectrum of G is  0.1985

[...]

 d Force = 0.1019810E-02[-0.458E-05, 0.204E-02]  d Energy = 0.1015577E-02 0.423E-05
 d Force = 0.3582275E-02[ 0.806E-04, 0.708E-02]  d Ewald  = 0.3573583E-02 0.869E-05

[...]

WARNING in EDDRMM: call to ZHEGV failed, returncode =   6  3  1

[...]

 d Force = 0.5030062E-08[-0.170E-09, 0.102E-07]  d Energy = 0.4914227E-08 0.116E-09
 d Force =-0.1973646E-06[-0.215E-06,-0.180E-06]  d Ewald  =-0.1973644E-06 0.000E+00

[...]

 eigenvalue-minimisations  :  4980
 total energy-change (2. order) : 0.5082939E-09  ( 0.5719348E-09)
 number of electron      16.0000000 magnetization
 augmentation part        0.3817366 magnetization

[...]

 eigenvalue-minimisations  :  3113
 total energy-change (2. order) :-0.4947651E-09  ( 0.2122728E-12)
 number of electron      16.0000000 magnetization
 augmentation part        0.3817366 magnetization

[...]

 d Force =-0.3981161E-12[-0.356E-11, 0.277E-11]  d Energy = 0.8367351E-10-0.841E-10
 d Force = 0.3497481E-08[ 0.349E-08, 0.350E-08]  d Ewald  = 0.3497007E-08 0.455E-12

[...]

 d Force = 0.1160939E-11[ 0.316E-12, 0.201E-11]  d Energy = 0.3853984E-10-0.374E-10
 d Force =-0.1967605E-08[-0.197E-08,-0.197E-08]  d Ewald  =-0.1967692E-08 0.000E+00

[...]

 d Force = 0.6608945E-13[ 0.729E-13, 0.593E-13]  d Energy =-0.4672529E-10 0.468E-10
 d Force =-0.3689648E-09[-0.369E-09,-0.369E-09]  d Ewald  =-0.3688001E-09 0.000E+00

[...]

 d Force =-0.8952465E-12[-0.140E-11,-0.391E-12]  d Energy =-0.1516582E-09 0.151E-09
 d Force = 0.1975513E-08[ 0.197E-08, 0.198E-08]  d Ewald  = 0.1975422E-08 0.000E+00

[...]

 FEWALD executed in parallel

[...]

 eigenvalue-minimisations  :  3284
 total energy-change (2. order) : 0.5296670E-09  ( 0.5762354E-09)
 number of electron      16.0000000 magnetization
 augmentation part        0.3817366 magnetization

[...]

 eigenvalue-minimisations  :   643
 total energy-change (2. order) :-0.2721663E-09  ( 0.2308442E-13)
 number of electron      16.0000000 magnetization
 augmentation part        0.3817366 magnetization

[...]

 eigenvalue-minimisations  :   543
 total energy-change (2. order) :-0.1737135E-09  (-0.2798996E-13)
 number of electron      16.0000000 magnetization
 augmentation part        0.3817366 magnetization

 Broyden mixing:
  rms(total) = 0.88326E-09    rms(broyden)= 0.88325E-09
  rms(prec ) = 0.91288E-09
  weight for this iteration     100.00

 eigenvalues of (default mixing * dielectric matrix)
  average eigenvalue GAMMA=   1.5998
  2.5621  2.1355  2.1355  0.7722  0.3939

[...]

----------------------------------------- Iteration    9(   7)  ---------------------------------------

 eigenvalue-minimisations  :   498
 total energy-change (2. order) : 0.8469669E-10  (-0.1160594E-13)
 number of electron      16.0000000 magnetization
 augmentation part        0.3817366 magnetization

 Free energy of the ion-electron system (eV)
  alpha Z        PSCENC =         6.18334092
  Ewald energy   TEWEN  =      2584.60965626
  -Hartree energ DENC   =     -3078.56045855
  -exchange      EXHF   =         0.00000000
  -V(xc)+E(xc)   XCENC  =        57.51647836
  PAW double counting   =       276.94534372     -282.09359614
  entropy T*S    EENTRO =        -0.00013059
  eigenvalues    EBANDS =      -190.14964601
  atomic energy  EATOM  =       588.62352690
  free energy    TOTEN  =       -36.92548513 eV

  energy without entropy =      -36.92535453  energy(sigma->0) =      -36.92541983

 average (electrostatic) potential at core
  the test charge radii are     0.6991
  (the norm of the test charge is              1.0000)
       1 -58.1911       2 -58.1911       3 -58.1911       4 -58.1911

 E-fermi :  -2.7546     XC(G=0):  -2.1426     alpha+bet : -1.9046

[...]

 k-point   247 :       0.5000    0.5000    0.0000
  band No.  band energies     occupation
      1     -17.0202      2.00000
      2     -17.0202      2.00000
      3     -15.9716      2.00000
      4     -15.9716      2.00000
      5      -9.1579      2.00000
      6      -9.1579      2.00000
      7      -5.1108      2.00000
      8      -5.1108      2.00000
      9      -1.0763      0.00000
     10      -1.0763      0.00000
     11       4.6044      0.00000
     12       4.6044      0.00000

 soft charge-density along one line, spin component           1
         0         1         2         3         4         5         6         7         8         9
 total charge-density along one line

------------------------ aborting loop because EDIFF is reached ----------------------------------------

  FORCE on cell =-STRESS in cart. coord.  units (eV):
  Direction    XX          YY          ZZ          XY          YZ          ZX
  Alpha Z     6.18334     6.18334     6.18334
  Ewald    3122.03598  3122.03494 -3659.46153     0.00000     0.00000     0.00000
  Hartree  3055.89495  3055.89356 -3033.22806    -0.00000    -0.00000    -0.00000
  E(xc)     -58.33505   -58.33496   -60.67387     0.00000    -0.00000    -0.00000
  Local   -6350.38932 -6350.38731  6486.54220    -0.00000     0.00000     0.00000
  n-local   -13.94280   -13.94094   -12.76385     0.05648    -0.00000     0.00000
  augment    -1.54105    -1.54101    -1.41387    -0.00000     0.00000     0.00000
  Kinetic   240.07349   240.05869   274.81431    -4.59942    -0.00000    -0.00000
  Fock        0.00000     0.00000     0.00000     0.00000     0.00000     0.00000
  Total      -0.02046    -0.03369    -0.00132     0.00000     0.00000     0.00000
  in kB      -0.15546    -0.25598    -0.01001     0.00000     0.00000     0.00000

 VOLUME and BASIS-vectors are now :
  energy-cutoff  :     2000.00
  volume of cell :      210.84
      direct lattice vectors                 reciprocal lattice vectors
     4.273638853  0.000000000  0.000000000     0.233992631  0.000000000  0.000000000
     0.000000000  2.467546007  0.000000000     0.000000000  0.405260934  0.000000000
     0.000000000  0.000000000 19.993351763     0.000000000  0.000000000  0.050016626

  length of vectors
     4.273638853  2.467546007 19.993351763     0.233992631  0.405260934  0.050016626

 FORCES acting on ions
    electron-ion (+dipol)            ewald-force                    non-local-force                 convergence-correction
   -.108E-01 0.306E-17 0.524E-11   0.109E-01 -.564E-14 -.114E-18   -.604E-04 0.347E-17 0.000E+00   -.457E-08 -.158E-14 0.131E-11
   0.108E-01 -.735E-14 -.517E-08   -.109E-01 0.572E-14 0.111E-17   0.604E-04 0.000E+00 0.000E+00   0.457E-08 -.135E-14 0.131E-11
   -.108E-01 -.284E-12 -.485E-11   0.109E-01 -.627E-15 -.318E-18   -.604E-04 0.347E-17 0.000E+00   -.457E-08 -.158E-14 0.131E-11
   0.108E-01 0.961E-15 -.518E-08   -.109E-01 0.461E-14 -.678E-18   0.604E-04 0.000E+00 0.000E+00   0.457E-08 -.131E-14 0.130E-11
   -.474E-06 -.290E-12 -.103E-07   0.380E-14 0.406E-14 0.000E+00   0.000E+00 0.694E-17 0.000E+00   0.107E-13 -.582E-14 0.523E-11

 POSITION                                       TOTAL-FORCE (eV/Angst)
      0.00001     -0.00000     -0.00000         0.000000     -0.000000      0.000000
      0.71226      1.23377      0.00000        -0.000000      0.000000      0.000000
      2.13683      1.23377     -0.00000         0.000000      0.000000      0.000000
      2.84908      0.00000      0.00000        -0.000000     -0.000000      0.000000
    total drift:                               -0.000000     -0.000000     -0.000000

  FREE ENERGIE OF THE ION-ELECTRON SYSTEM (eV)
  free  energy   TOTEN  =       -36.92548513 eV

  energy  without entropy=      -36.92535453  energy(sigma->0) =      -36.92541983

 d Force = 0.9440096E-12[-0.535E-13, 0.194E-11]  d Energy = 0.1336957E-09-0.133E-09
 d Force =-0.2740547E-08[-0.274E-08,-0.274E-08]  d Ewald  =-0.2740308E-08-0.455E-12

 Quasi-Newton relaxation of ions (Broydens 2nd method)
  g(Force)  = 0.866E-14   g(Stress)= 0.000E+00

 retain information from N=  1 steps
 eigenvalues of (default step * inverse Hessian matrix)
  average eigenvalue of G=   0.1659
 eigenvalue spectrum of G is  0.1659

 reached required accuracy - stopping structural energy minimisation