 vasp.5.3.5 31Mar14 (build Mar 02 2015 18:14:16) complex

 executed on             LinuxIFC date 2018.08.08  18:32:05

 INCAR:
 POTCAR:   PAW_PBE C 08Apr2002
 POTCAR:   PAW_PBE C 08Apr2002
   VRHFIN =C: s2p2

   TITEL  = PAW_PBE C 08Apr2002
   POMASS =   12.011; ZVAL   =    4.000    mass and valenz
   ENMAX  =  400.000; ENMIN  =  300.000 eV
   QCUT   =   -5.516; QGAM   =   11.032    optimization parameters

   Description
     l     E      TYP  RCUT    TYP  RCUT
     0   .000     23  1.200
     0   .000     23  1.200
     1   .000     23  1.500
     1  2.500     23  1.500
     2   .000      7  1.500

 PAW_PBE C 08Apr2002                    :

 POSCAR: MD-kMC export data
  positions in direct lattice
  velocities in cartesian coordinates
 exchange correlation table for  LEXCH =        8
   RHO(1)=    0.500       N(1)  =     2000
   RHO(2)=  100.500       N(2)  =     4000

 ion  position               nearest neighbor table
   1  1.000  0.000  0.000-   2 1.43   2 1.43   4 1.44
   2  0.167  0.500  0.000-   1 1.43   1 1.43   3 1.44
   3  0.500  0.500  0.000-   4 1.43   4 1.43   2 1.44
   4  0.667  0.000  0.000-   3 1.43   3 1.43   1 1.44

  LATTYP: Found a simple orthorhombic cell.
 ALAT       =     2.4607419058
 B/A-ratio  =     1.7631439669
 C/A-ratio  =     8.0253265646

  Lattice vectors:

 A1 = (   0.0000000000,  -2.4607419058,   0.0000000000)
 A2 = (  -4.3386422453,   0.0000000000,   0.0000000000)
 A3 = (   0.0000000000,   0.0000000000, -19.7482573852)

Analysis of symmetry for initial positions (statically):
 Subroutine PRICEL returns following result:

  LATTYP: Found a base centered orthorhombic cell.
 ALAT       =     2.4607419058
 B/A-ratio  =     1.7631439669
 C/A-ratio  =     8.0253265646

[...]

   2 primitive cells build up your supercell.

 Routine SETGRP: Setting up the symmetry group for a
 simple orthorhombic supercell.

 Subroutine GETGRP returns: Found  8 space group operations
 (whereof  4 operations were pure point group operations)
 out of a pool of  8 trial point group operations.

The static configuration has the point symmetry C_2v.
 The point group associated with its full space group is D_2h.

Analysis of symmetry for dynamics (positions and initial velocities):
 Subroutine PRICEL returns following result:

  LATTYP: Found a base centered orthorhombic cell.
 ALAT       =     2.4607419058
 B/A-ratio  =     1.7631439669
 C/A-ratio  =     8.0253265646

  Lattice vectors:

 A1 = (   2.1693211226,  -1.2303709529,   0.0000000000)
 A2 = (  -2.1693211226,  -1.2303709529,   0.0000000000)
 A3 = (   0.0000000000,   0.0000000000, -19.7482573852)

   2 primitive cells build up your supercell.

 Routine SETGRP: Setting up the symmetry group for a
 simple orthorhombic supercell.

 Subroutine GETGRP returns: Found  8 space group operations
 (whereof  4 operations were pure point group operations)
 out of a pool of  8 trial point group operations.

The dynamic configuration has the point symmetry C_2v.
 The point group associated with its full space group is D_2h.

 KPOINTS: Automatic mesh

Automatic generation of k-mesh.
Space group operators:
 irot       det(A)        alpha          n_x          n_y          n_z        tau_x        tau_y        tau_z
    1     1.000000     0.000000     1.000000     0.000000     0.000000     0.000000     0.000000     0.000000
    2    -1.000000   180.000000     0.000000     0.000000     1.000000     0.000000     0.000000     0.000000
    3     1.000000   180.000000     1.000000     0.000000     0.000000     0.000000     0.000000     0.000000
    4    -1.000000   180.000000     0.000000     1.000000     0.000000     0.000000     0.000000     0.000000
    5    -1.000000     0.000000     1.000000     0.000000     0.000000     0.166667    -0.500000     0.000000
    6     1.000000   180.000000     0.000000     0.000000     1.000000     0.166667    -0.500000     0.000000
    7    -1.000000   180.000000     1.000000     0.000000     0.000000     0.166667    -0.500000     0.000000
    8     1.000000   180.000000     0.000000     1.000000     0.000000     0.166667    -0.500000     0.000000

 Subroutine IBZKPT returns following result:

 Found    247 irreducible k-points:

 Following reciprocal coordinates:
            Coordinates               Weight
  0.000000  0.000000  0.000000      1.000000
  0.041667  0.000000  0.000000      2.000000
  0.083333  0.000000  0.000000      2.000000
  0.125000  0.000000  0.000000      2.000000
  0.166667  0.000000  0.000000      2.000000
  0.208333  0.000000  0.000000      2.000000
  0.250000  0.000000  0.000000      2.000000
  0.291667  0.000000  0.000000      2.000000
  0.333333  0.000000  0.000000      2.000000
  0.375000  0.000000  0.000000      2.000000
  0.416667  0.000000  0.000000      2.000000
  0.458333  0.000000  0.000000      2.000000
  0.500000  0.000000  0.000000      1.000000
  0.000000  0.027778  0.000000      2.000000
  0.041667  0.027778  0.000000      4.000000
  0.083333  0.027778  0.000000      4.000000
  0.125000  0.027778  0.000000      4.000000
  0.166667  0.027778  0.000000      4.000000
  0.208333  0.027778  0.000000      4.000000
  0.250000  0.027778  0.000000      4.000000
  0.291667  0.027778  0.000000      4.000000
  0.333333  0.027778  0.000000      4.000000
  0.375000  0.027778  0.000000      4.000000
  0.416667  0.027778  0.000000      4.000000
  0.458333  0.027778  0.000000      4.000000
  0.500000  0.027778  0.000000      2.000000
  0.000000  0.055556  0.000000      2.000000
  0.041667  0.055556  0.000000      4.000000
  0.083333  0.055556  0.000000      4.000000
  0.125000  0.055556  0.000000      4.000000
  0.166667  0.055556  0.000000      4.000000
  0.208333  0.055556  0.000000      4.000000
  0.250000  0.055556  0.000000      4.000000
  0.291667  0.055556  0.000000      4.000000
  0.333333  0.055556  0.000000      4.000000
  0.375000  0.055556  0.000000      4.000000
  0.416667  0.055556  0.000000      4.000000
  0.458333  0.055556  0.000000      4.000000
  0.500000  0.055556  0.000000      2.000000
  0.000000  0.083333  0.000000      2.000000
  0.041667  0.083333  0.000000      4.000000
  0.083333  0.083333  0.000000      4.000000
  0.125000  0.083333  0.000000      4.000000
  0.166667  0.083333  0.000000      4.000000
  0.208333  0.083333  0.000000      4.000000
  0.250000  0.083333  0.000000      4.000000
  0.291667  0.083333  0.000000      4.000000
  0.333333  0.083333  0.000000      4.000000
  0.375000  0.083333  0.000000      4.000000
  0.416667  0.083333  0.000000      4.000000
  0.458333  0.083333  0.000000      4.000000
  0.500000  0.083333  0.000000      2.000000
  0.000000  0.111111  0.000000      2.000000
  0.041667  0.111111  0.000000      4.000000
  0.083333  0.111111  0.000000      4.000000
  0.125000  0.111111  0.000000      4.000000
  0.166667  0.111111  0.000000      4.000000
  0.208333  0.111111  0.000000      4.000000
  0.250000  0.111111  0.000000      4.000000
  0.291667  0.111111  0.000000      4.000000
[...]
  0.458333  0.472222  0.000000      4.000000
  0.500000  0.472222  0.000000      2.000000
  0.000000  0.500000  0.000000      1.000000
  0.041667  0.500000  0.000000      2.000000
  0.083333  0.500000  0.000000      2.000000
  0.125000  0.500000  0.000000      2.000000
  0.166667  0.500000  0.000000      2.000000
  0.208333  0.500000  0.000000      2.000000
  0.250000  0.500000  0.000000      2.000000
  0.291667  0.500000  0.000000      2.000000
  0.333333  0.500000  0.000000      2.000000
  0.375000  0.500000  0.000000      2.000000
  0.416667  0.500000  0.000000      2.000000
  0.458333  0.500000  0.000000      2.000000
  0.500000  0.500000  0.000000      1.000000

 Following cartesian coordinates:
            Coordinates               Weight
  0.000000  0.000000  0.000000      1.000000
  0.009604  0.000000  0.000000      2.000000
  0.019207  0.000000  0.000000      2.000000
  0.028811  0.000000  0.000000      2.000000
  0.038414  0.000000  0.000000      2.000000
  0.048018  0.000000  0.000000      2.000000
  0.057622  0.000000  0.000000      2.000000
  0.067225  0.000000  0.000000      2.000000
  0.076829  0.000000  0.000000      2.000000
  0.086433  0.000000  0.000000      2.000000
  0.096036  0.000000  0.000000      2.000000
  0.105640  0.000000  0.000000      2.000000
  0.115243  0.000000  0.000000      1.000000
  0.000000  0.011288  0.000000      2.000000
  0.009604  0.011288  0.000000      4.000000
  0.019207  0.011288  0.000000      4.000000
  0.028811  0.011288  0.000000      4.000000
  0.038414  0.011288  0.000000      4.000000
  0.048018  0.011288  0.000000      4.000000
  0.057622  0.011288  0.000000      4.000000
  0.067225  0.011288  0.000000      4.000000
  0.076829  0.011288  0.000000      4.000000
  0.086433  0.011288  0.000000      4.000000
  0.096036  0.011288  0.000000      4.000000
  0.105640  0.011288  0.000000      4.000000
  0.115243  0.011288  0.000000      2.000000
  0.000000  0.022577  0.000000      2.000000
  0.009604  0.022577  0.000000      4.000000
  0.019207  0.022577  0.000000      4.000000
  0.028811  0.022577  0.000000      4.000000
  0.038414  0.022577  0.000000      4.000000
  0.048018  0.022577  0.000000      4.000000
  0.057622  0.022577  0.000000      4.000000
  0.067225  0.022577  0.000000      4.000000
  0.076829  0.022577  0.000000      4.000000
  0.086433  0.022577  0.000000      4.000000
  0.096036  0.022577  0.000000      4.000000
  0.105640  0.022577  0.000000      4.000000
  0.115243  0.022577  0.000000      2.000000
  0.000000  0.033865  0.000000      2.000000
  0.009604  0.033865  0.000000      4.000000
  0.019207  0.033865  0.000000      4.000000
  0.028811  0.033865  0.000000      4.000000
  0.038414  0.033865  0.000000      4.000000
  0.048018  0.033865  0.000000      4.000000
  0.057622  0.033865  0.000000      4.000000
  0.067225  0.033865  0.000000      4.000000
  0.076829  0.033865  0.000000      4.000000
  0.086433  0.033865  0.000000      4.000000
  0.096036  0.033865  0.000000      4.000000
  0.105640  0.033865  0.000000      4.000000
  0.115243  0.033865  0.000000      2.000000
  0.000000  0.045154  0.000000      2.000000
  0.009604  0.045154  0.000000      4.000000
  0.019207  0.045154  0.000000      4.000000
  0.028811  0.045154  0.000000      4.000000
  0.038414  0.045154  0.000000      4.000000
  0.048018  0.045154  0.000000      4.000000
  0.057622  0.045154  0.000000      4.000000
  0.067225  0.045154  0.000000      4.000000
[...]
  0.105640  0.191902  0.000000      4.000000
  0.115243  0.191902  0.000000      2.000000
  0.000000  0.203191  0.000000      1.000000
  0.009604  0.203191  0.000000      2.000000
  0.019207  0.203191  0.000000      2.000000
  0.028811  0.203191  0.000000      2.000000
  0.038414  0.203191  0.000000      2.000000
  0.048018  0.203191  0.000000      2.000000
  0.057622  0.203191  0.000000      2.000000
  0.067225  0.203191  0.000000      2.000000
  0.076829  0.203191  0.000000      2.000000
  0.086433  0.203191  0.000000      2.000000
  0.096036  0.203191  0.000000      2.000000
  0.105640  0.203191  0.000000      2.000000
  0.115243  0.203191  0.000000      1.000000

 I would recommend the setting:
   dimension x,y,z NGX =    63 NGY =   36 NGZ =  288
[...]
 k-point ** :   0.2917 0.3056 0.0000  plane waves:   42846
 k-point ** :   0.3333 0.3056 0.0000  plane waves:   42877
 k-point ** :   0.3750 0.3056 0.0000  plane waves:   42876
 k-point ** :   0.4167 0.3056 0.0000  plane waves:   42846
 k-point ** :   0.4583 0.3056 0.0000  plane waves:   42849
 k-point ** :   0.5000 0.3056 0.0000  plane waves:   42832
 k-point ** :   0.0000 0.3333 0.0000  plane waves:   42876
 k-point ** :   0.0417 0.3333 0.0000  plane waves:   42898
 k-point ** :   0.0833 0.3333 0.0000  plane waves:   42880
[...]
 k-point ** :   0.4583 0.4722 0.0000  plane waves:   42932
 k-point ** :   0.5000 0.4722 0.0000  plane waves:   42938
 k-point ** :   0.0000 0.5000 0.0000  plane waves:   42882
 k-point ** :   0.0417 0.5000 0.0000  plane waves:   42870
 k-point ** :   0.0833 0.5000 0.0000  plane waves:   42856
 k-point ** :   0.1250 0.5000 0.0000  plane waves:   42890
 k-point ** :   0.1667 0.5000 0.0000  plane waves:   42854
 k-point ** :   0.2083 0.5000 0.0000  plane waves:   42826
 k-point ** :   0.2500 0.5000 0.0000  plane waves:   42858
 k-point ** :   0.2917 0.5000 0.0000  plane waves:   42874
 k-point ** :   0.3333 0.5000 0.0000  plane waves:   42930
 k-point ** :   0.3750 0.5000 0.0000  plane waves:   42898
 k-point ** :   0.4167 0.5000 0.0000  plane waves:   42920
 k-point ** :   0.4583 0.5000 0.0000  plane waves:   42930
 k-point ** :   0.5000 0.5000 0.0000  plane waves:   42904

 maximum and minimum number of plane-waves per node :     21506    21322

 maximum number of plane-waves:     42962
 maximum index in each direction:
   IXMAX=   15   IYMAX=    8   IZMAX=   72
   IXMIN=  -16   IYMIN=   -9   IZMIN=  -72

 NGX is ok and might be reduce to  64
 NGY is ok and might be reduce to  36
 WARNING: aliasing errors must be expected set NGZ to 290 to avoid them
 aliasing errors are usually negligible using standard VASP settings
 and one can safely disregard these warnings

 parallel 3D FFT for wavefunctions:
    minimum data exchange during FFTs selected (reduces bandwidth)
 parallel 3D FFT for charge:
    minimum data exchange during FFTs selected (reduces bandwidth)

 Broyden mixing: mesh for mixing (old mesh)
   NGX = 31   NGY = 17   NGZ =145
  (NGX  =128   NGY  = 72   NGZ  =576)
  gives a total of  76415 points

 initial charge density was supplied:
 charge density of overlapping atoms calculated
 number of electron      16.0000000 magnetization
 keeping initial charge density in first step

 Maximum index for augmentation-charges         4557 (set IRDMAX)

 First call to EWALD:  gamma=   0.298
 Maximum number of real-space cells 4x 6x 1
 Maximum number of reciprocal cells 2x 1x 8

 FEWALD executed in parallel

----------------------------------------- Iteration    1(   1)  ---------------------------------------

 eigenvalue-minimisations  :  5928
 total energy-change (2. order) : 0.1882959E+03  (-0.1055152E+04)
 number of electron      16.0000000 magnetization
 augmentation part       16.0000000 magnetization

 Free energy of the ion-electron system (eV)
  alpha Z        PSCENC =         6.18334092
  Ewald energy   TEWEN  =      2502.04573109
  -Hartree energ DENC   =     -2929.96389346
  -exchange      EXHF   =         0.00000000
  -V(xc)+E(xc)   XCENC  =        54.92551769
  PAW double counting   =       151.32577238     -155.92769107
  entropy T*S    EENTRO =        -0.00117438
  eigenvalues    EBANDS =       -28.91524379
  atomic energy  EATOM  =       588.62352690
  free energy    TOTEN  =       188.29588629 eV

  energy without entropy =      188.29706067  energy(sigma->0) =      188.29647348

[...]

 eigenvalue-minimisations  : 10456
 total energy-change (2. order) :-0.1976704E+03  (-0.1761092E+03)
 number of electron      16.0000000 magnetization
 augmentation part       16.0000000 magnetization

[...]

 Broyden mixing:
  rms(total) = 0.71858E+00    rms(broyden)= 0.71858E+00
  rms(prec ) = 0.78232E+00
  weight for this iteration     100.00

[...]

 eigenvalues of (default mixing * dielectric matrix)
  average eigenvalue GAMMA=   2.3194
  2.3194

[...]

WARNING in EDDRMM: call to ZHEGV failed, returncode =   6  3  1

[...]

 average (electrostatic) potential at core
  the test charge radii are     0.6991
  (the norm of the test charge is              1.0000)
       1 -58.2660       2 -58.2660       3 -58.2660       4 -58.2660

 E-fermi :  -2.7975     XC(G=0):  -2.1636     alpha+bet : -1.9046

 k-point     1 :       0.0000    0.0000    0.0000
  band No.  band energies     occupation
      1     -22.1479      2.00000
      2     -17.1695      2.00000
      3     -15.8893      2.00000
      4     -10.2773      2.00000
      5      -8.9384      2.00000
      6      -5.9241      2.00000
      7      -5.7488      2.00000
      8      -5.2506      2.00000
      9      -1.1451      0.00000
     10       0.5365      0.00000
     11       1.3358      0.00000
     12       1.7250      0.00000

[...]

 soft charge-density along one line, spin component           1
         0         1         2         3         4         5         6         7         8         9
 total charge-density along one line

------------------------ aborting loop because EDIFF is reached ----------------------------------------

  FORCE on cell =-STRESS in cart. coord.  units (eV):
  Direction    XX          YY          ZZ          XY          YZ          ZX
  Alpha Z     6.18334     6.18334     6.18334
  Ewald    3035.16570  3037.17011 -3570.29032    -0.00000     0.00000    -0.00000
  Hartree  2972.91454  2973.60948 -2950.32256    -0.00000    -0.00000    -0.00000
  E(xc)     -58.10599   -58.12359   -60.44298    -0.00000    -0.00000    -0.00000
  Local   -6181.20272 -6183.57483  6315.01178    -0.00000    -0.00000    -0.00000
  n-local   -13.36881   -13.87422   -12.59212     0.06292     0.00000     0.00000
  augment    -1.50244    -1.50409    -1.38822     0.00000    -0.00000    -0.00000
  Kinetic   236.56901   240.11566   273.83973    -4.50747     0.00000    -0.00000
  Fock        0.00000     0.00000     0.00000     0.00000     0.00000     0.00000
  Total      -3.34738     0.00185    -0.00136     0.00000     0.00000     0.00000
  in kB     -25.43703     0.01404    -0.01033     0.00000     0.00000     0.00000

 VOLUME and BASIS-vectors are now :
  energy-cutoff  :     2000.00
  volume of cell :      210.84
      direct lattice vectors                 reciprocal lattice vectors
     4.338642245  0.000000000  0.000000000     0.230486854  0.000000000  0.000000000
     0.000000000  2.460741906  0.000000000     0.000000000  0.406381505  0.000000000
     0.000000000  0.000000000 19.748257385     0.000000000  0.000000000  0.050637379

[...]

 FORCES acting on ions
    electron-ion (+dipol)            ewald-force                    non-local-force                 convergence-correction
   0.330E+01 0.128E-15 -.130E-08   -.330E+01 0.725E-14 0.122E-18   0.525E-04 0.000E+00 -.155E-24   0.592E-08 -.175E-14 -.826E-13
   -.330E+01 0.170E-14 -.844E-08   0.330E+01 -.240E-14 0.317E-18   -.525E-04 0.000E+00 0.000E+00   -.592E-08 -.199E-15 -.827E-13
   0.330E+01 -.196E-12 -.130E-08   -.330E+01 0.467E-14 -.122E-18   0.525E-04 0.000E+00 -.310E-24   0.592E-08 -.180E-14 -.826E-13
   -.330E+01 0.199E-15 -.846E-08   0.330E+01 -.497E-14 -.317E-18   -.525E-04 0.000E+00 0.207E-24   -.592E-08 -.177E-15 -.826E-13
   -.125E-05 -.194E-12 -.195E-07   -.400E-14 0.455E-14 -.481E-34   0.000E+00 0.000E+00 -.258E-24   0.345E-13 -.392E-14 -.330E-12

 POSITION                                       TOTAL-FORCE (eV/Angst)
      4.33709      0.00000      0.00000        -0.001966     -0.000000     -0.000000
      0.72466      1.23037      0.00000         0.001966     -0.000000      0.000000
      2.16777      1.23037      0.00000        -0.001966     -0.000000     -0.000000
      2.89398      0.00000      0.00000         0.001966      0.000000      0.000000
    total drift:                               -0.000001     -0.000000     -0.000000

  FREE ENERGIE OF THE ION-ELECTRON SYSTEM (eV)
  free  energy   TOTEN  =       -36.90009137 eV

  energy  without entropy=      -36.90008708  energy(sigma->0) =      -36.90008923

 Quasi-Newton relaxation of ions (Broydens 2nd method)
  g(Force)  = 0.746E-06   g(Stress)= 0.000E+00

 Reset! Starting new Quasi-Newton update for ions

[...]

WARNING in EDDRMM: call to ZHEGV failed, returncode =   6  3  1

[...]

 d Force =-0.1076079E-05[-0.290E-05, 0.746E-06]  d Energy =-0.1091065E-05 0.150E-07
 d Force = 0.1247461E-02[ 0.124E-02, 0.125E-02]  d Ewald  = 0.1247462E-02-0.661E-09

[...]

 retain information from N=  1 steps
 eigenvalues of (default step * inverse Hessian matrix)
  average eigenvalue of G=   0.2047
 eigenvalue spectrum of G is  0.2047

[...]

 d Force = 0.1153793E-05[ 0.279E-08, 0.230E-05]  d Energy = 0.1164629E-05-0.108E-07
 d Force =-0.9911209E-03[-0.995E-03,-0.987E-03]  d Ewald  =-0.9911212E-03 0.332E-09

[...]

 eigenvalue-minimisations  :  4844
 total energy-change (2. order) : 0.4095000E-09  ( 0.5410924E-09)
 number of electron      16.0000000 magnetization
 augmentation part        0.3761665 magnetization

[...]

 eigenvalue-minimisations  :  3130
 total energy-change (2. order) :-0.3849436E-09  ( 0.2779258E-12)
 number of electron      16.0000000 magnetization
 augmentation part        0.3761665 magnetization

[...]

 d Force =-0.3956797E-12[-0.417E-11, 0.338E-11]  d Energy = 0.1160743E-09-0.116E-09
 d Force =-0.1206050E-05[-0.121E-05,-0.121E-05]  d Ewald  =-0.1206050E-05-0.455E-12

[...]

 d Force = 0.1291159E-11[ 0.277E-12, 0.231E-11]  d Energy = 0.2122533E-09-0.211E-09
 d Force = 0.6661956E-06[ 0.666E-06, 0.666E-06]  d Ewald  = 0.6661953E-06 0.455E-12

[...]

 d Force = 0.3634945E-13[ 0.348E-13, 0.379E-13]  d Energy =-0.3258265E-09 0.326E-09
 d Force = 0.9110178E-07[ 0.911E-07, 0.911E-07]  d Ewald  = 0.9110181E-07 0.000E+00

[...]

 d Force =-0.7171662E-12[-0.182E-11, 0.385E-12]  d Energy = 0.3183231E-11-0.390E-11
 d Force = 0.1008969E-05[ 0.101E-05, 0.101E-05]  d Ewald  = 0.1008968E-05 0.455E-12

[...]

 d Force = 0.4724291E-12[-0.557E-12, 0.150E-11]  d Energy = 0.9833911E-10-0.979E-10
 d Force =-0.8326893E-06[-0.833E-06,-0.833E-06]  d Ewald  =-0.8326892E-06 0.000E+00

[...]

 eigenvalue-minimisations  :   437
 total energy-change (2. order) :-0.2212346E-09  (-0.8223874E-15)
 number of electron      16.0000000 magnetization
 augmentation part        0.3761665 magnetization

[...]

 eigenvalue-minimisations  :   410
 total energy-change (2. order) : 0.1679155E-09  (-0.8881784E-15)
 number of electron      16.0000000 magnetization
 augmentation part        0.3761665 magnetization

[...]

 d Force = 0.6141071E-14[-0.138E-12, 0.151E-12]  d Energy = 0.1875833E-09-0.188E-09
 d Force = 0.2252324E-06[ 0.225E-06, 0.225E-06]  d Ewald  = 0.2252323E-06 0.000E+00

[...]

 FEWALD executed in parallel

[...]

 eigenvalue-minimisations  :   412
 total energy-change (2. order) :-0.1216449E-10  ( 0.0000000E+00)
 number of electron      16.0000000 magnetization
 augmentation part        0.3761665 magnetization

 Broyden mixing:
  rms(total) = 0.65309E-10    rms(broyden)= 0.65300E-10
  rms(prec ) = 0.68680E-10
  weight for this iteration     100.00

 eigenvalues of (default mixing * dielectric matrix)
  average eigenvalue GAMMA=   2.0633
  0.9844  2.6606  2.5448

[...]

----------------------------------------- Iteration   10(   5)  ---------------------------------------

 eigenvalue-minimisations  :   127
 total energy-change (2. order) : 0.4843059E-10  ( 0.0000000E+00)
 number of electron      16.0000000 magnetization
 augmentation part        0.3761665 magnetization

 Free energy of the ion-electron system (eV)
  alpha Z        PSCENC =         6.18334092
  Ewald energy   TEWEN  =      2502.04547490
  -Hartree energ DENC   =     -2996.20123944
  -exchange      EXHF   =         0.00000000
  -V(xc)+E(xc)   XCENC  =        57.28890965
  PAW double counting   =       271.97858324     -277.10429882
  entropy T*S    EENTRO =        -0.00000437
  eigenvalues    EBANDS =      -189.71438443
  atomic energy  EATOM  =       588.62352690
  free energy    TOTEN  =       -36.90009145 eV

  energy without entropy =      -36.90008707  energy(sigma->0) =      -36.90008926

 average (electrostatic) potential at core
  the test charge radii are     0.6991
  (the norm of the test charge is              1.0000)
       1 -58.2660       2 -58.2660       3 -58.2660       4 -58.2660

 E-fermi :  -2.7975     XC(G=0):  -2.1635     alpha+bet : -1.9046

[...]

 k-point   247 :       0.5000    0.5000    0.0000
  band No.  band energies     occupation
      1     -16.9128      2.00000
      2     -16.9128      2.00000
      3     -15.9017      2.00000
      4     -15.9017      2.00000
      5      -9.2522      2.00000
      6      -9.2522      2.00000
      7      -5.0503      2.00000
      8      -5.0503      2.00000
      9      -1.1206      0.00000
     10      -1.1206      0.00000
     11       4.1661      0.00000
     12       4.1661      0.00000

 soft charge-density along one line, spin component           1
         0         1         2         3         4         5         6         7         8         9
 total charge-density along one line

------------------------ aborting loop because EDIFF is reached ----------------------------------------

  FORCE on cell =-STRESS in cart. coord.  units (eV):
  Direction    XX          YY          ZZ          XY          YZ          ZX
  Alpha Z     6.18334     6.18334     6.18334
  Ewald    3035.18243  3037.15313 -3570.29032     0.00000     0.00000     0.00000
  Hartree  2972.91681  2973.60701 -2950.32258    -0.00000    -0.00000    -0.00000
  E(xc)     -58.10591   -58.12364   -60.44297     0.00000    -0.00000    -0.00000
  Local   -6181.21865 -6183.55859  6315.01186     0.00000    -0.00000    -0.00000
  n-local   -13.36867   -13.87436   -12.59212     0.06290    -0.00000     0.00000
  augment    -1.50246    -1.50406    -1.38822     0.00000    -0.00000     0.00000
  Kinetic   236.56634   240.11818   273.83965    -4.50740     0.00000    -0.00000
  Fock        0.00000     0.00000     0.00000     0.00000     0.00000     0.00000
  Total      -3.34678     0.00099    -0.00136     0.00000     0.00000     0.00000
  in kB     -25.43250     0.00755    -0.01033     0.00000     0.00000     0.00000

 VOLUME and BASIS-vectors are now :
  energy-cutoff  :     2000.00
  volume of cell :      210.84
      direct lattice vectors                 reciprocal lattice vectors
     4.338642245  0.000000000  0.000000000     0.230486854  0.000000000  0.000000000
     0.000000000  2.460741906  0.000000000     0.000000000  0.406381505  0.000000000
     0.000000000  0.000000000 19.748257385     0.000000000  0.000000000  0.050637379

  length of vectors
     4.338642245  2.460741906 19.748257385     0.230486854  0.406381505  0.050637379

 FORCES acting on ions
    electron-ion (+dipol)            ewald-force                    non-local-force                 convergence-correction
   0.330E+01 0.665E-16 -.132E-08   -.330E+01 0.231E-14 0.254E-18   0.752E-03 0.139E-16 0.000E+00   -.189E-10 -.823E-15 -.305E-12
   -.330E+01 0.186E-13 -.848E-08   0.330E+01 0.112E-14 -.651E-18   -.752E-03 -.347E-17 0.000E+00   0.189E-10 -.259E-14 -.308E-12
   0.330E+01 0.510E-12 -.132E-08   -.330E+01 0.166E-14 -.220E-19   0.752E-03 0.139E-16 0.000E+00   -.189E-10 -.158E-14 -.296E-12
   -.330E+01 0.788E-18 -.849E-08   0.330E+01 -.540E-15 0.418E-18   -.752E-03 -.347E-17 0.000E+00   0.189E-10 -.181E-14 -.292E-12
   -.125E-05 0.529E-12 -.196E-07   -.355E-14 0.455E-14 0.000E+00   -.651E-18 0.208E-16 0.000E+00   0.465E-14 -.681E-14 -.120E-11

 POSITION                                       TOTAL-FORCE (eV/Angst)
      4.33707     -0.00000      0.00000        -0.000000     -0.000000     -0.000000
      0.72468      1.23037     -0.00000         0.000000      0.000000      0.000000
      2.16775      1.23037      0.00000        -0.000000     -0.000000     -0.000000
      2.89400      0.00000     -0.00000         0.000000      0.000000      0.000000
    total drift:                               -0.000001      0.000000     -0.000000

  FREE ENERGIE OF THE ION-ELECTRON SYSTEM (eV)
  free  energy   TOTEN  =       -36.90009145 eV

  energy  without entropy=      -36.90008707  energy(sigma->0) =      -36.90008926

 d Force = 0.2617173E-13[-0.139E-13, 0.662E-13]  d Energy =-0.1638227E-09 0.164E-09
 d Force =-0.1078287E-06[-0.108E-06,-0.108E-06]  d Ewald  =-0.1078283E-06-0.455E-12

 Quasi-Newton relaxation of ions (Broydens 2nd method)
  g(Force)  = 0.348E-13   g(Stress)= 0.000E+00

 retain information from N=  1 steps
 eigenvalues of (default step * inverse Hessian matrix)
  average eigenvalue of G=   0.0692
 eigenvalue spectrum of G is  0.0692

 reached required accuracy - stopping structural energy minimisation