 vasp.5.3.5 31Mar14 (build Mar 02 2015 18:14:16) complex

 executed on             LinuxIFC date 2018.08.09  18:52:50

 INCAR:
 POTCAR:   PAW_PBE C 08Apr2002
 POTCAR:   PAW_PBE C 08Apr2002
   VRHFIN =C: s2p2

   TITEL  = PAW_PBE C 08Apr2002
   POMASS =   12.011; ZVAL   =    4.000    mass and valenz
   ENMAX  =  400.000; ENMIN  =  300.000 eV
   QCUT   =   -5.516; QGAM   =   11.032    optimization parameters

   Description
     l     E      TYP  RCUT    TYP  RCUT
     0   .000     23  1.200
     0   .000     23  1.200
     1   .000     23  1.500
     1  2.500     23  1.500
     2   .000      7  1.500

 PAW_PBE C 08Apr2002                    :

 POSCAR: MD-kMC export data
  positions in direct lattice
  velocities in cartesian coordinates
 exchange correlation table for  LEXCH =        8
   RHO(1)=    0.500       N(1)  =     2000
   RHO(2)=  100.500       N(2)  =     4000

 ion  position               nearest neighbor table
   1  0.000  0.000  0.000-   4 1.42   2 1.43   2 1.43
   2  0.167  0.500  0.000-   3 1.42   1 1.43   1 1.43
   3  0.500  0.500  0.000-   2 1.42   4 1.43   4 1.43
   4  0.667  0.000  0.000-   1 1.42   3 1.43   3 1.43

  LATTYP: Found a simple orthorhombic cell.
 ALAT       =     2.4800064914
 B/A-ratio  =     1.7214685674
 C/A-ratio  =     8.0295486681

  Lattice vectors:

 A1 = (   0.0000000000,  -2.4800064914,   0.0000000000)
 A2 = (  -4.2692532218,   0.0000000000,   0.0000000000)
 A3 = (   0.0000000000,   0.0000000000, -19.9133328198)

Analysis of symmetry for initial positions (statically):
 Subroutine PRICEL returns following result:

  LATTYP: Found a base centered orthorhombic cell.
 ALAT       =     2.4800064914
 B/A-ratio  =     1.7214685674
 C/A-ratio  =     8.0295486681

[...]

   2 primitive cells build up your supercell.

 Routine SETGRP: Setting up the symmetry group for a
 simple orthorhombic supercell.

 Subroutine GETGRP returns: Found  8 space group operations
 (whereof  4 operations were pure point group operations)
 out of a pool of  8 trial point group operations.

The static configuration has the point symmetry C_2v.
 The point group associated with its full space group is D_2h.

Analysis of symmetry for dynamics (positions and initial velocities):
 Subroutine PRICEL returns following result:

  LATTYP: Found a base centered orthorhombic cell.
 ALAT       =     2.4800064914
 B/A-ratio  =     1.7214685674
 C/A-ratio  =     8.0295486681

  Lattice vectors:

 A1 = (   2.1346266109,  -1.2400032457,   0.0000000000)
 A2 = (  -2.1346266109,  -1.2400032457,   0.0000000000)
 A3 = (   0.0000000000,   0.0000000000, -19.9133328198)

   2 primitive cells build up your supercell.

 Routine SETGRP: Setting up the symmetry group for a
 simple orthorhombic supercell.

 Subroutine GETGRP returns: Found  8 space group operations
 (whereof  4 operations were pure point group operations)
 out of a pool of  8 trial point group operations.

The dynamic configuration has the point symmetry C_2v.
 The point group associated with its full space group is D_2h.

 KPOINTS: Automatic mesh

Automatic generation of k-mesh.
Space group operators:
 irot       det(A)        alpha          n_x          n_y          n_z        tau_x        tau_y        tau_z
    1     1.000000     0.000000     1.000000     0.000000     0.000000     0.000000     0.000000     0.000000
    2    -1.000000   180.000000     0.000000     0.000000     1.000000     0.000000     0.000000     0.000000
    3     1.000000   180.000000     1.000000     0.000000     0.000000     0.000000     0.000000     0.000000
    4    -1.000000   180.000000     0.000000     1.000000     0.000000     0.000000     0.000000     0.000000
    5    -1.000000     0.000000     1.000000     0.000000     0.000000     0.166667    -0.500000     0.000000
    6     1.000000   180.000000     0.000000     0.000000     1.000000     0.166667    -0.500000     0.000000
    7    -1.000000   180.000000     1.000000     0.000000     0.000000     0.166667    -0.500000     0.000000
    8     1.000000   180.000000     0.000000     1.000000     0.000000     0.166667    -0.500000     0.000000

 Subroutine IBZKPT returns following result:

 Found    247 irreducible k-points:

 Following reciprocal coordinates:
            Coordinates               Weight
  0.000000  0.000000  0.000000      1.000000
  0.041667  0.000000  0.000000      2.000000
  0.083333  0.000000  0.000000      2.000000
  0.125000  0.000000  0.000000      2.000000
  0.166667  0.000000  0.000000      2.000000
  0.208333  0.000000  0.000000      2.000000
  0.250000  0.000000  0.000000      2.000000
  0.291667  0.000000  0.000000      2.000000
  0.333333  0.000000  0.000000      2.000000
  0.375000  0.000000  0.000000      2.000000
  0.416667  0.000000  0.000000      2.000000
  0.458333  0.000000  0.000000      2.000000
  0.500000  0.000000  0.000000      1.000000
  0.000000  0.027778  0.000000      2.000000
  0.041667  0.027778  0.000000      4.000000
  0.083333  0.027778  0.000000      4.000000
  0.125000  0.027778  0.000000      4.000000
  0.166667  0.027778  0.000000      4.000000
  0.208333  0.027778  0.000000      4.000000
  0.250000  0.027778  0.000000      4.000000
  0.291667  0.027778  0.000000      4.000000
  0.333333  0.027778  0.000000      4.000000
  0.375000  0.027778  0.000000      4.000000
  0.416667  0.027778  0.000000      4.000000
  0.458333  0.027778  0.000000      4.000000
  0.500000  0.027778  0.000000      2.000000
  0.000000  0.055556  0.000000      2.000000
  0.041667  0.055556  0.000000      4.000000
  0.083333  0.055556  0.000000      4.000000
  0.125000  0.055556  0.000000      4.000000
  0.166667  0.055556  0.000000      4.000000
  0.208333  0.055556  0.000000      4.000000
  0.250000  0.055556  0.000000      4.000000
  0.291667  0.055556  0.000000      4.000000
  0.333333  0.055556  0.000000      4.000000
  0.375000  0.055556  0.000000      4.000000
  0.416667  0.055556  0.000000      4.000000
  0.458333  0.055556  0.000000      4.000000
  0.500000  0.055556  0.000000      2.000000
  0.000000  0.083333  0.000000      2.000000
  0.041667  0.083333  0.000000      4.000000
  0.083333  0.083333  0.000000      4.000000
  0.125000  0.083333  0.000000      4.000000
  0.166667  0.083333  0.000000      4.000000
  0.208333  0.083333  0.000000      4.000000
  0.250000  0.083333  0.000000      4.000000
  0.291667  0.083333  0.000000      4.000000
  0.333333  0.083333  0.000000      4.000000
  0.375000  0.083333  0.000000      4.000000
  0.416667  0.083333  0.000000      4.000000
  0.458333  0.083333  0.000000      4.000000
  0.500000  0.083333  0.000000      2.000000
  0.000000  0.111111  0.000000      2.000000
  0.041667  0.111111  0.000000      4.000000
  0.083333  0.111111  0.000000      4.000000
  0.125000  0.111111  0.000000      4.000000
  0.166667  0.111111  0.000000      4.000000
  0.208333  0.111111  0.000000      4.000000
  0.250000  0.111111  0.000000      4.000000
  0.291667  0.111111  0.000000      4.000000
[...]
  0.458333  0.472222  0.000000      4.000000
  0.500000  0.472222  0.000000      2.000000
  0.000000  0.500000  0.000000      1.000000
  0.041667  0.500000  0.000000      2.000000
  0.083333  0.500000  0.000000      2.000000
  0.125000  0.500000  0.000000      2.000000
  0.166667  0.500000  0.000000      2.000000
  0.208333  0.500000  0.000000      2.000000
  0.250000  0.500000  0.000000      2.000000
  0.291667  0.500000  0.000000      2.000000
  0.333333  0.500000  0.000000      2.000000
  0.375000  0.500000  0.000000      2.000000
  0.416667  0.500000  0.000000      2.000000
  0.458333  0.500000  0.000000      2.000000
  0.500000  0.500000  0.000000      1.000000

 Following cartesian coordinates:
            Coordinates               Weight
  0.000000  0.000000  0.000000      1.000000
  0.009760  0.000000  0.000000      2.000000
  0.019519  0.000000  0.000000      2.000000
  0.029279  0.000000  0.000000      2.000000
  0.039039  0.000000  0.000000      2.000000
  0.048799  0.000000  0.000000      2.000000
  0.058558  0.000000  0.000000      2.000000
  0.068318  0.000000  0.000000      2.000000
  0.078078  0.000000  0.000000      2.000000
  0.087837  0.000000  0.000000      2.000000
  0.097597  0.000000  0.000000      2.000000
  0.107357  0.000000  0.000000      2.000000
  0.117117  0.000000  0.000000      1.000000
  0.000000  0.011201  0.000000      2.000000
  0.009760  0.011201  0.000000      4.000000
  0.019519  0.011201  0.000000      4.000000
  0.029279  0.011201  0.000000      4.000000
  0.039039  0.011201  0.000000      4.000000
  0.048799  0.011201  0.000000      4.000000
  0.058558  0.011201  0.000000      4.000000
  0.068318  0.011201  0.000000      4.000000
  0.078078  0.011201  0.000000      4.000000
  0.087837  0.011201  0.000000      4.000000
  0.097597  0.011201  0.000000      4.000000
  0.107357  0.011201  0.000000      4.000000
  0.117117  0.011201  0.000000      2.000000
  0.000000  0.022401  0.000000      2.000000
  0.009760  0.022401  0.000000      4.000000
  0.019519  0.022401  0.000000      4.000000
  0.029279  0.022401  0.000000      4.000000
  0.039039  0.022401  0.000000      4.000000
  0.048799  0.022401  0.000000      4.000000
  0.058558  0.022401  0.000000      4.000000
  0.068318  0.022401  0.000000      4.000000
  0.078078  0.022401  0.000000      4.000000
  0.087837  0.022401  0.000000      4.000000
  0.097597  0.022401  0.000000      4.000000
  0.107357  0.022401  0.000000      4.000000
  0.117117  0.022401  0.000000      2.000000
  0.000000  0.033602  0.000000      2.000000
  0.009760  0.033602  0.000000      4.000000
  0.019519  0.033602  0.000000      4.000000
  0.029279  0.033602  0.000000      4.000000
  0.039039  0.033602  0.000000      4.000000
  0.048799  0.033602  0.000000      4.000000
  0.058558  0.033602  0.000000      4.000000
  0.068318  0.033602  0.000000      4.000000
  0.078078  0.033602  0.000000      4.000000
  0.087837  0.033602  0.000000      4.000000
  0.097597  0.033602  0.000000      4.000000
  0.107357  0.033602  0.000000      4.000000
  0.117117  0.033602  0.000000      2.000000
  0.000000  0.044803  0.000000      2.000000
  0.009760  0.044803  0.000000      4.000000
  0.019519  0.044803  0.000000      4.000000
  0.029279  0.044803  0.000000      4.000000
  0.039039  0.044803  0.000000      4.000000
  0.048799  0.044803  0.000000      4.000000
  0.058558  0.044803  0.000000      4.000000
  0.068318  0.044803  0.000000      4.000000
[...]
  0.107357  0.190412  0.000000      4.000000
  0.117117  0.190412  0.000000      2.000000
  0.000000  0.201612  0.000000      1.000000
  0.009760  0.201612  0.000000      2.000000
  0.019519  0.201612  0.000000      2.000000
  0.029279  0.201612  0.000000      2.000000
  0.039039  0.201612  0.000000      2.000000
  0.048799  0.201612  0.000000      2.000000
  0.058558  0.201612  0.000000      2.000000
  0.068318  0.201612  0.000000      2.000000
  0.078078  0.201612  0.000000      2.000000
  0.087837  0.201612  0.000000      2.000000
  0.097597  0.201612  0.000000      2.000000
  0.107357  0.201612  0.000000      2.000000
  0.117117  0.201612  0.000000      1.000000

 I would recommend the setting:
   dimension x,y,z NGX =    62 NGY =   36 NGZ =  290
[...]
 k-point ** :   0.4583 0.3056 0.0000  plane waves:   42817
 k-point ** :   0.5000 0.3056 0.0000  plane waves:   42804
 k-point ** :   0.0000 0.3333 0.0000  plane waves:   42930
 k-point ** :   0.0417 0.3333 0.0000  plane waves:   42929
 k-point ** :   0.0833 0.3333 0.0000  plane waves:   42896
[...]
 k-point ** :   0.4583 0.4722 0.0000  plane waves:   42789
 k-point ** :   0.5000 0.4722 0.0000  plane waves:   42810
 k-point ** :   0.0000 0.5000 0.0000  plane waves:   42918
 k-point ** :   0.0417 0.5000 0.0000  plane waves:   42904
 k-point ** :   0.0833 0.5000 0.0000  plane waves:   42928
 k-point ** :   0.1250 0.5000 0.0000  plane waves:   42916
 k-point ** :   0.1667 0.5000 0.0000  plane waves:   42932
 k-point ** :   0.2083 0.5000 0.0000  plane waves:   42950
 k-point ** :   0.2500 0.5000 0.0000  plane waves:   42922
 k-point ** :   0.2917 0.5000 0.0000  plane waves:   42914
 k-point ** :   0.3333 0.5000 0.0000  plane waves:   42862
 k-point ** :   0.3750 0.5000 0.0000  plane waves:   42812
 k-point ** :   0.4167 0.5000 0.0000  plane waves:   42808
 k-point ** :   0.4583 0.5000 0.0000  plane waves:   42766
 k-point ** :   0.5000 0.5000 0.0000  plane waves:   42764

 maximum and minimum number of plane-waves per node :     21488    21328

 maximum number of plane-waves:     42950
 maximum index in each direction:
   IXMAX=   15   IYMAX=    9   IZMAX=   72
   IXMIN=  -16   IYMIN=   -9   IZMIN=  -72

 NGX is ok and might be reduce to  64
 WARNING: aliasing errors must be expected set NGY to  38 to avoid them
 NGZ is ok and might be reduce to 290
 aliasing errors are usually negligible using standard VASP settings
 and one can safely disregard these warnings

 parallel 3D FFT for wavefunctions:
    minimum data exchange during FFTs selected (reduces bandwidth)
 parallel 3D FFT for charge:
    minimum data exchange during FFTs selected (reduces bandwidth)

 Broyden mixing: mesh for mixing (old mesh)
   NGX = 31   NGY = 19   NGZ =145
  (NGX  =128   NGY  = 72   NGZ  =588)
  gives a total of  85405 points

 initial charge density was supplied:
 charge density of overlapping atoms calculated
 number of electron      16.0000000 magnetization
 keeping initial charge density in first step

 Maximum index for augmentation-charges         4661 (set IRDMAX)

 First call to EWALD:  gamma=   0.298
 Maximum number of real-space cells 4x 6x 1
 Maximum number of reciprocal cells 2x 1x 8

 FEWALD executed in parallel

----------------------------------------- Iteration    1(   1)  ---------------------------------------

 eigenvalue-minimisations  :  5928
 total energy-change (2. order) : 0.1872925E+03  (-0.1055741E+04)
 number of electron      16.0000000 magnetization
 augmentation part       16.0000000 magnetization

 Free energy of the ion-electron system (eV)
  alpha Z        PSCENC =         6.18334092
  Ewald energy   TEWEN  =      2557.52873761
  -Hartree energ DENC   =     -2983.78610511
  -exchange      EXHF   =         0.00000000
  -V(xc)+E(xc)   XCENC  =        55.03849899
  PAW double counting   =       151.32577238     -155.92769107
  entropy T*S    EENTRO =        -0.00181526
  eigenvalues    EBANDS =       -31.69175873
  atomic energy  EATOM  =       588.62352690
  free energy    TOTEN  =       187.29250664 eV

  energy without entropy =      187.29432190  energy(sigma->0) =      187.29341427

[...]

 eigenvalue-minimisations  : 10416
 total energy-change (2. order) :-0.1965620E+03  (-0.1741672E+03)
 number of electron      16.0000000 magnetization
 augmentation part       16.0000000 magnetization

[...]

 Broyden mixing:
  rms(total) = 0.73065E+00    rms(broyden)= 0.73065E+00
  rms(prec ) = 0.79472E+00
  weight for this iteration     100.00

[...]

 eigenvalues of (default mixing * dielectric matrix)
  average eigenvalue GAMMA=   2.3145
  2.3145

[...]

WARNING in EDDRMM: call to ZHEGV failed, returncode =   6  3  1
WARNING in EDDRMM: call to ZHEGV failed, returncode =   6  3  1
WARNING in EDDRMM: call to ZHEGV failed, returncode =   6  3  1
WARNING in EDDRMM: call to ZHEGV failed, returncode =   6  3  1

[...]

 average (electrostatic) potential at core
  the test charge radii are     0.6991
  (the norm of the test charge is              1.0000)
       1 -58.2154       2 -58.2154       3 -58.2154       4 -58.2154

 E-fermi :  -2.7688     XC(G=0):  -2.1501     alpha+bet : -1.9046

 k-point     1 :       0.0000    0.0000    0.0000
  band No.  band energies     occupation
      1     -22.2178      2.00000
      2     -16.9538      2.00000
      3     -15.9500      2.00000
      4     -10.3313      2.00000
      5      -9.2288      2.00000
      6      -5.8327      2.00000
      7      -5.7741      2.00000
      8      -5.0668      2.00000
      9      -1.0876      0.00000
     10       0.5281      0.00000
     11       1.3285      0.00000
     12       3.4975      0.00000

[...]

 soft charge-density along one line, spin component           1
         0         1         2         3         4         5         6         7         8         9
 total charge-density along one line

------------------------ aborting loop because EDIFF is reached ----------------------------------------

  FORCE on cell =-STRESS in cart. coord.  units (eV):
  Direction    XX          YY          ZZ          XY          YZ          ZX
  Alpha Z     6.18334     6.18334     6.18334
  Ewald    3094.21310  3093.54318 -3630.22778    -0.00000     0.00000     0.00000
  Hartree  3028.90580  3028.68015 -3006.03903     0.00000    -0.00000    -0.00000
  E(xc)     -58.26633   -58.26025   -60.59864     0.00000    -0.00000    -0.00000
  Local   -6295.68467 -6294.90685  6430.29812     0.00000     0.00000    -0.00000
  n-local   -13.92529   -13.74946   -12.70792     0.06314     0.00000     0.00000
  augment    -1.52902    -1.52825    -1.40551     0.00000     0.00000    -0.00000
  Kinetic   240.10410   238.89647   274.49610    -4.61023    -0.00000    -0.00000
  Fock        0.00000     0.00000     0.00000     0.00000     0.00000     0.00000
  Total       0.00103    -1.14168    -0.00132     0.00000     0.00000     0.00000
  in kB       0.00781    -8.67571    -0.01002     0.00000     0.00000     0.00000

 VOLUME and BASIS-vectors are now :
  energy-cutoff  :     2000.00
  volume of cell :      210.84
      direct lattice vectors                 reciprocal lattice vectors
     4.269253222  0.000000000  0.000000000     0.234233002  0.000000000  0.000000000
     0.000000000  2.480006491  0.000000000     0.000000000  0.403224751  0.000000000
     0.000000000  0.000000000 19.913332820     0.000000000  0.000000000  0.050217611

[...]

 FORCES acting on ions
    electron-ion (+dipol)            ewald-force                    non-local-force                 convergence-correction
   -.114E+01 0.791E-16 0.289E-09   0.114E+01 0.549E-14 0.283E-31   -.841E-03 -.139E-16 -.319E-24   -.263E-06 0.119E-14 0.190E-12
   0.114E+01 0.127E-13 -.457E-08   -.114E+01 -.794E-14 0.576E-19   0.841E-03 0.694E-17 0.414E-24   0.263E-06 -.118E-14 0.191E-12
   -.114E+01 0.592E-12 0.302E-09   0.114E+01 0.628E-14 -.283E-31   -.841E-03 -.139E-16 -.414E-24   -.263E-06 0.106E-14 0.190E-12
   0.114E+01 -.334E-16 -.458E-08   -.114E+01 -.715E-14 -.576E-19   0.841E-03 0.694E-17 0.414E-24   0.263E-06 -.102E-14 0.191E-12
   -.363E-06 0.605E-12 -.856E-08   -.444E-15 -.333E-14 0.120E-34   -.434E-18 -.139E-16 0.945E-25   -.680E-13 0.484E-16 0.762E-12

 POSITION                                       TOTAL-FORCE (eV/Angst)
      0.00056      0.00000      0.00000         0.001190      0.000000      0.000000
      0.71098      1.24000      0.00000        -0.001190      0.000000     -0.000000
      2.13519      1.24000      0.00000         0.001190      0.000000      0.000000
      2.84561      0.00000      0.00000        -0.001190     -0.000000     -0.000000
    total drift:                               -0.000000      0.000000     -0.000000

  FREE ENERGIE OF THE ION-ELECTRON SYSTEM (eV)
  free  energy   TOTEN  =       -36.92253392 eV

  energy  without entropy=      -36.92244763  energy(sigma->0) =      -36.92249077

 Quasi-Newton relaxation of ions (Broydens 2nd method)
  g(Force)  = 0.273E-06   g(Stress)= 0.000E+00

 Reset! Starting new Quasi-Newton update for ions

[...]

 d Force =-0.4125567E-06[-0.110E-05, 0.273E-06]  d Energy =-0.4162877E-06 0.373E-08
 d Force = 0.2593616E-03[ 0.257E-03, 0.262E-03]  d Ewald  = 0.2593615E-03 0.151E-09

[...]

 retain information from N=  1 steps
 eigenvalues of (default step * inverse Hessian matrix)
  average eigenvalue of G=   0.1992
 eigenvalue spectrum of G is  0.1992

[...]

 d Force = 0.4405187E-06[ 0.149E-08, 0.880E-06]  d Energy = 0.4430540E-06-0.254E-08
 d Force =-0.2073232E-03[-0.209E-03,-0.206E-03]  d Ewald  =-0.2073231E-03-0.773E-10

[...]

 eigenvalue-minimisations  :  5120
 total energy-change (2. order) : 0.7714789E-09  ( 0.5698293E-09)
 number of electron      16.0000000 magnetization
 augmentation part        0.3799186 magnetization

[...]

 eigenvalue-minimisations  :  2943
 total energy-change (2. order) :-0.7289600E-09  ( 0.1461444E-12)
 number of electron      16.0000000 magnetization
 augmentation part        0.3799186 magnetization

[...]

 d Force =-0.3220409E-12[-0.319E-11, 0.254E-11]  d Energy =-0.2221441E-09 0.222E-09
 d Force =-0.3554113E-06[-0.355E-06,-0.355E-06]  d Ewald  =-0.3554114E-06 0.000E+00

[...]

 d Force = 0.9897467E-12[ 0.207E-12, 0.177E-11]  d Energy =-0.8333245E-10 0.843E-10
 d Force = 0.1976775E-06[ 0.198E-06, 0.198E-06]  d Ewald  = 0.1976773E-06 0.000E+00

[...]

 d Force = 0.2741451E-13[ 0.276E-13, 0.272E-13]  d Energy = 0.3501555E-09-0.350E-09
 d Force = 0.2606622E-07[ 0.261E-07, 0.261E-07]  d Ewald  = 0.2606657E-07-0.455E-12

[...]

 d Force =-0.4298543E-10[-0.838E-10,-0.214E-11]  d Energy =-0.2582965E-09 0.215E-09
 d Force =-0.2018707E-05[-0.202E-05,-0.202E-05]  d Ewald  =-0.2018707E-05 0.000E+00

[...]

WARNING in EDDRMM: call to ZHEGV failed, returncode =   6  3  1

[...]

 d Force = 0.4612142E-10[ 0.622E-11, 0.860E-10]  d Energy =-0.1136868E-11 0.473E-10
 d Force = 0.2071503E-05[ 0.207E-05, 0.207E-05]  d Ewald  = 0.2071502E-05 0.909E-12

[...]

 d Force =-0.1342237E-12[-0.753E-12, 0.484E-12]  d Energy =-0.8753887E-10 0.874E-10
 d Force = 0.1613279E-06[ 0.161E-06, 0.161E-06]  d Ewald  = 0.1613284E-06-0.455E-12

[...]

 FEWALD executed in parallel

[...]

 eigenvalue-minimisations  :   314
 total energy-change (2. order) :-0.3998366E-09  (-0.5559339E-14)
 number of electron      16.0000000 magnetization
 augmentation part        0.3799186 magnetization

[...]

 eigenvalue-minimisations  :   839
 total energy-change (2. order) : 0.1239187E-09  ( 0.5789607E-14)
 number of electron      16.0000000 magnetization
 augmentation part        0.3799186 magnetization

[...]

 eigenvalue-minimisations  :   278
 total energy-change (2. order) : 0.1681428E-09  (-0.2139852E-13)
 number of electron      16.0000000 magnetization
 augmentation part        0.3799186 magnetization

 Broyden mixing:
  rms(total) = 0.87595E-10    rms(broyden)= 0.87493E-10
  rms(prec ) = 0.92626E-10
  weight for this iteration     100.00

 eigenvalues of (default mixing * dielectric matrix)
  average eigenvalue GAMMA=   1.7705
  2.7577  2.5712  1.1515  0.6017

[...]

----------------------------------------- Iteration   10(   6)  ---------------------------------------

 eigenvalue-minimisations  :   352
 total energy-change (2. order) :-0.7560175E-10  ( 0.6562652E-14)
 number of electron      16.0000000 magnetization
 augmentation part        0.3799186 magnetization

 Free energy of the ion-electron system (eV)
  alpha Z        PSCENC =         6.18334092
  Ewald energy   TEWEN  =      2557.52868559
  -Hartree energ DENC   =     -3051.54687087
  -exchange      EXHF   =         0.00000000
  -V(xc)+E(xc)   XCENC  =        57.44234001
  PAW double counting   =       275.31630370     -280.45713955
  entropy T*S    EENTRO =        -0.00008663
  eigenvalues    EBANDS =      -190.01263403
  atomic energy  EATOM  =       588.62352690
  free energy    TOTEN  =       -36.92253395 eV

  energy without entropy =      -36.92244732  energy(sigma->0) =      -36.92249063

 average (electrostatic) potential at core
  the test charge radii are     0.6991
  (the norm of the test charge is              1.0000)
       1 -58.2154       2 -58.2154       3 -58.2154       4 -58.2154

 E-fermi :  -2.7688     XC(G=0):  -2.1494     alpha+bet : -1.9046

[...]

 k-point   247 :       0.5000    0.5000    0.0000
  band No.  band energies     occupation
      1     -17.0429      2.00000
      2     -17.0429      2.00000
      3     -15.9465      2.00000
      4     -15.9465      2.00000
      5      -9.1189      2.00000
      6      -9.1189      2.00000
      7      -5.1360      2.00000
      8      -5.1360      2.00000
      9      -1.0964      0.00000
     10      -1.0964      0.00000
     11       4.6057      0.00000
     12       4.6057      0.00000

 soft charge-density along one line, spin component           1
         0         1         2         3         4         5         6         7         8         9
 total charge-density along one line

------------------------ aborting loop because EDIFF is reached ----------------------------------------

  FORCE on cell =-STRESS in cart. coord.  units (eV):
  Direction    XX          YY          ZZ          XY          YZ          ZX
  Alpha Z     6.18334     6.18334     6.18334
  Ewald    3094.20311  3093.55312 -3630.22778     0.00000     0.00000     0.00000
  Hartree  3028.90441  3028.68149 -3006.03903    -0.00000    -0.00000    -0.00000
  E(xc)     -58.26636   -58.26021   -60.59864    -0.00000    -0.00000    -0.00000
  Local   -6295.67521 -6294.91624  6430.29813    -0.00000     0.00000     0.00000
  n-local   -13.92538   -13.74938   -12.70792     0.06316    -0.00000    -0.00000
  augment    -1.52900    -1.52826    -1.40551    -0.00000    -0.00000     0.00000
  Kinetic   240.10563   238.89491   274.49609    -4.61028    -0.00000     0.00000
  Fock        0.00000     0.00000     0.00000     0.00000     0.00000     0.00000
  Total       0.00054    -1.14123    -0.00132     0.00000     0.00000     0.00000
  in kB       0.00407    -8.67235    -0.01002     0.00000     0.00000     0.00000

 VOLUME and BASIS-vectors are now :
  energy-cutoff  :     2000.00
  volume of cell :      210.84
      direct lattice vectors                 reciprocal lattice vectors
     4.269253222  0.000000000  0.000000000     0.234233002  0.000000000  0.000000000
     0.000000000  2.480006491  0.000000000     0.000000000  0.403224751  0.000000000
     0.000000000  0.000000000 19.913332820     0.000000000  0.000000000  0.050217611

  length of vectors
     4.269253222  2.480006491 19.913332820     0.234233002  0.403224751  0.050217611

 FORCES acting on ions
    electron-ion (+dipol)            ewald-force                    non-local-force                 convergence-correction
   -.113E+01 -.262E-16 0.294E-09   0.114E+01 -.503E-15 -.246E-18   -.127E-02 0.000E+00 -.242E-26   0.107E-09 -.612E-15 0.717E-12
   0.113E+01 -.105E-13 -.457E-08   -.114E+01 -.791E-15 0.678E-20   0.127E-02 -.347E-17 0.212E-26   -.107E-09 -.121E-14 0.727E-12
   -.113E+01 -.264E-12 0.273E-09   0.114E+01 -.875E-15 -.188E-18   -.127E-02 0.000E+00 -.162E-26   0.107E-09 -.824E-15 0.708E-12
   0.113E+01 -.668E-16 -.455E-08   -.114E+01 -.116E-14 0.427E-18   0.127E-02 -.347E-17 0.162E-26   -.107E-09 -.948E-15 0.700E-12
   -.363E-06 -.275E-12 -.856E-08   -.444E-15 -.333E-14 0.000E+00   -.434E-18 -.694E-17 -.303E-27   0.152E-14 -.359E-14 0.285E-11

 POSITION                                       TOTAL-FORCE (eV/Angst)
      0.00057     -0.00000      0.00000        -0.000000      0.000000      0.000000
      0.71097      1.24000     -0.00000         0.000000      0.000000     -0.000000
      2.13520      1.24000      0.00000        -0.000000      0.000000      0.000000
      2.84560      0.00000     -0.00000         0.000000     -0.000000     -0.000000
    total drift:                               -0.000000     -0.000000     -0.000000

  FREE ENERGIE OF THE ION-ELECTRON SYSTEM (eV)
  free  energy   TOTEN  =       -36.92253395 eV

  energy  without entropy=      -36.92244732  energy(sigma->0) =      -36.92249063

 d Force = 0.2359893E-12[ 0.140E-13, 0.458E-12]  d Energy = 0.1164153E-09-0.116E-09
 d Force =-0.9817273E-07[-0.982E-07,-0.982E-07]  d Ewald  =-0.9817313E-07 0.455E-12

 Quasi-Newton relaxation of ions (Broydens 2nd method)
  g(Force)  = 0.506E-14   g(Stress)= 0.000E+00

 retain information from N=  1 steps
 eigenvalues of (default step * inverse Hessian matrix)
  average eigenvalue of G=   0.0872
 eigenvalue spectrum of G is  0.0872

 reached required accuracy - stopping structural energy minimisation