 vasp.5.3.5 31Mar14 (build Mar 02 2015 18:14:16) complex

 executed on             LinuxIFC date 2018.08.08  18:31:09

 INCAR:
 POTCAR:   PAW_PBE C 08Apr2002
 POTCAR:   PAW_PBE C 08Apr2002
   VRHFIN =C: s2p2

   TITEL  = PAW_PBE C 08Apr2002
   POMASS =   12.011; ZVAL   =    4.000    mass and valenz
   ENMAX  =  400.000; ENMIN  =  300.000 eV
   QCUT   =   -5.516; QGAM   =   11.032    optimization parameters

   Description
     l     E      TYP  RCUT    TYP  RCUT
     0   .000     23  1.200
     0   .000     23  1.200
     1   .000     23  1.500
     1  2.500     23  1.500
     2   .000      7  1.500

 PAW_PBE C 08Apr2002                    :

 POSCAR: MD-kMC export data
  positions in direct lattice
  velocities in cartesian coordinates
 exchange correlation table for  LEXCH =        8
   RHO(1)=    0.500       N(1)  =     2000
   RHO(2)=  100.500       N(2)  =     4000

 ion  position               nearest neighbor table
   1  1.000  0.000  0.000-   2 1.43   2 1.43   4 1.44
   2  0.167  0.500  0.000-   1 1.43   1 1.43   3 1.44
   3  0.500  0.500  0.000-   4 1.43   4 1.43   2 1.44
   4  0.667  0.000  0.000-   3 1.43   3 1.43   1 1.44

  LATTYP: Found a simple orthorhombic cell.
 ALAT       =     2.4607858580
 B/A-ratio  =     1.7629388039
 C/A-ratio  =     8.0258304524

  Lattice vectors:

 A1 = (   0.0000000000,  -2.4607858580,   0.0000000000)
 A2 = (  -4.3382148770,   0.0000000000,   0.0000000000)
 A3 = (   0.0000000000,   0.0000000000, -19.7498500756)

Analysis of symmetry for initial positions (statically):
 Subroutine PRICEL returns following result:

  LATTYP: Found a base centered orthorhombic cell.
 ALAT       =     2.4607858580
 B/A-ratio  =     1.7629388039
 C/A-ratio  =     8.0258304524

[...]

   2 primitive cells build up your supercell.

 Routine SETGRP: Setting up the symmetry group for a
 simple orthorhombic supercell.

 Subroutine GETGRP returns: Found  8 space group operations
 (whereof  4 operations were pure point group operations)
 out of a pool of  8 trial point group operations.

The static configuration has the point symmetry C_2v.
 The point group associated with its full space group is D_2h.

Analysis of symmetry for dynamics (positions and initial velocities):
 Subroutine PRICEL returns following result:

  LATTYP: Found a base centered orthorhombic cell.
 ALAT       =     2.4607858580
 B/A-ratio  =     1.7629388039
 C/A-ratio  =     8.0258304524

  Lattice vectors:

 A1 = (   2.1691074385,  -1.2303929290,   0.0000000000)
 A2 = (  -2.1691074385,  -1.2303929290,   0.0000000000)
 A3 = (   0.0000000000,   0.0000000000, -19.7498500756)

   2 primitive cells build up your supercell.

 Routine SETGRP: Setting up the symmetry group for a
 simple orthorhombic supercell.

 Subroutine GETGRP returns: Found  8 space group operations
 (whereof  4 operations were pure point group operations)
 out of a pool of  8 trial point group operations.

The dynamic configuration has the point symmetry C_2v.
 The point group associated with its full space group is D_2h.

 KPOINTS: Automatic mesh

Automatic generation of k-mesh.
Space group operators:
 irot       det(A)        alpha          n_x          n_y          n_z        tau_x        tau_y        tau_z
    1     1.000000     0.000000     1.000000     0.000000     0.000000     0.000000     0.000000     0.000000
    2    -1.000000   180.000000     0.000000     0.000000     1.000000     0.000000     0.000000     0.000000
    3     1.000000   180.000000     1.000000     0.000000     0.000000     0.000000     0.000000     0.000000
    4    -1.000000   180.000000     0.000000     1.000000     0.000000     0.000000     0.000000     0.000000
    5    -1.000000     0.000000     1.000000     0.000000     0.000000     0.166667    -0.500000     0.000000
    6     1.000000   180.000000     0.000000     0.000000     1.000000     0.166667    -0.500000     0.000000
    7    -1.000000   180.000000     1.000000     0.000000     0.000000     0.166667    -0.500000     0.000000
    8     1.000000   180.000000     0.000000     1.000000     0.000000     0.166667    -0.500000     0.000000

 Subroutine IBZKPT returns following result:

 Found    247 irreducible k-points:

 Following reciprocal coordinates:
            Coordinates               Weight
  0.000000  0.000000  0.000000      1.000000
  0.041667  0.000000  0.000000      2.000000
  0.083333  0.000000  0.000000      2.000000
  0.125000  0.000000  0.000000      2.000000
  0.166667  0.000000  0.000000      2.000000
  0.208333  0.000000  0.000000      2.000000
  0.250000  0.000000  0.000000      2.000000
  0.291667  0.000000  0.000000      2.000000
  0.333333  0.000000  0.000000      2.000000
  0.375000  0.000000  0.000000      2.000000
  0.416667  0.000000  0.000000      2.000000
  0.458333  0.000000  0.000000      2.000000
  0.500000  0.000000  0.000000      1.000000
  0.000000  0.027778  0.000000      2.000000
  0.041667  0.027778  0.000000      4.000000
  0.083333  0.027778  0.000000      4.000000
  0.125000  0.027778  0.000000      4.000000
  0.166667  0.027778  0.000000      4.000000
  0.208333  0.027778  0.000000      4.000000
  0.250000  0.027778  0.000000      4.000000
  0.291667  0.027778  0.000000      4.000000
  0.333333  0.027778  0.000000      4.000000
  0.375000  0.027778  0.000000      4.000000
  0.416667  0.027778  0.000000      4.000000
  0.458333  0.027778  0.000000      4.000000
  0.500000  0.027778  0.000000      2.000000
  0.000000  0.055556  0.000000      2.000000
  0.041667  0.055556  0.000000      4.000000
  0.083333  0.055556  0.000000      4.000000
  0.125000  0.055556  0.000000      4.000000
  0.166667  0.055556  0.000000      4.000000
  0.208333  0.055556  0.000000      4.000000
  0.250000  0.055556  0.000000      4.000000
  0.291667  0.055556  0.000000      4.000000
  0.333333  0.055556  0.000000      4.000000
  0.375000  0.055556  0.000000      4.000000
  0.416667  0.055556  0.000000      4.000000
  0.458333  0.055556  0.000000      4.000000
  0.500000  0.055556  0.000000      2.000000
  0.000000  0.083333  0.000000      2.000000
  0.041667  0.083333  0.000000      4.000000
  0.083333  0.083333  0.000000      4.000000
  0.125000  0.083333  0.000000      4.000000
  0.166667  0.083333  0.000000      4.000000
  0.208333  0.083333  0.000000      4.000000
  0.250000  0.083333  0.000000      4.000000
  0.291667  0.083333  0.000000      4.000000
  0.333333  0.083333  0.000000      4.000000
  0.375000  0.083333  0.000000      4.000000
  0.416667  0.083333  0.000000      4.000000
  0.458333  0.083333  0.000000      4.000000
  0.500000  0.083333  0.000000      2.000000
  0.000000  0.111111  0.000000      2.000000
  0.041667  0.111111  0.000000      4.000000
  0.083333  0.111111  0.000000      4.000000
  0.125000  0.111111  0.000000      4.000000
  0.166667  0.111111  0.000000      4.000000
  0.208333  0.111111  0.000000      4.000000
  0.250000  0.111111  0.000000      4.000000
  0.291667  0.111111  0.000000      4.000000
[...]
  0.458333  0.472222  0.000000      4.000000
  0.500000  0.472222  0.000000      2.000000
  0.000000  0.500000  0.000000      1.000000
  0.041667  0.500000  0.000000      2.000000
  0.083333  0.500000  0.000000      2.000000
  0.125000  0.500000  0.000000      2.000000
  0.166667  0.500000  0.000000      2.000000
  0.208333  0.500000  0.000000      2.000000
  0.250000  0.500000  0.000000      2.000000
  0.291667  0.500000  0.000000      2.000000
  0.333333  0.500000  0.000000      2.000000
  0.375000  0.500000  0.000000      2.000000
  0.416667  0.500000  0.000000      2.000000
  0.458333  0.500000  0.000000      2.000000
  0.500000  0.500000  0.000000      1.000000

 Following cartesian coordinates:
            Coordinates               Weight
  0.000000  0.000000  0.000000      1.000000
  0.009605  0.000000  0.000000      2.000000
  0.019209  0.000000  0.000000      2.000000
  0.028814  0.000000  0.000000      2.000000
  0.038418  0.000000  0.000000      2.000000
  0.048023  0.000000  0.000000      2.000000
  0.057627  0.000000  0.000000      2.000000
  0.067232  0.000000  0.000000      2.000000
  0.076837  0.000000  0.000000      2.000000
  0.086441  0.000000  0.000000      2.000000
  0.096046  0.000000  0.000000      2.000000
  0.105650  0.000000  0.000000      2.000000
  0.115255  0.000000  0.000000      1.000000
  0.000000  0.011288  0.000000      2.000000
  0.009605  0.011288  0.000000      4.000000
  0.019209  0.011288  0.000000      4.000000
  0.028814  0.011288  0.000000      4.000000
  0.038418  0.011288  0.000000      4.000000
  0.048023  0.011288  0.000000      4.000000
  0.057627  0.011288  0.000000      4.000000
  0.067232  0.011288  0.000000      4.000000
  0.076837  0.011288  0.000000      4.000000
  0.086441  0.011288  0.000000      4.000000
  0.096046  0.011288  0.000000      4.000000
  0.105650  0.011288  0.000000      4.000000
  0.115255  0.011288  0.000000      2.000000
  0.000000  0.022576  0.000000      2.000000
  0.009605  0.022576  0.000000      4.000000
  0.019209  0.022576  0.000000      4.000000
  0.028814  0.022576  0.000000      4.000000
  0.038418  0.022576  0.000000      4.000000
  0.048023  0.022576  0.000000      4.000000
  0.057627  0.022576  0.000000      4.000000
  0.067232  0.022576  0.000000      4.000000
  0.076837  0.022576  0.000000      4.000000
  0.086441  0.022576  0.000000      4.000000
  0.096046  0.022576  0.000000      4.000000
  0.105650  0.022576  0.000000      4.000000
  0.115255  0.022576  0.000000      2.000000
  0.000000  0.033865  0.000000      2.000000
  0.009605  0.033865  0.000000      4.000000
  0.019209  0.033865  0.000000      4.000000
  0.028814  0.033865  0.000000      4.000000
  0.038418  0.033865  0.000000      4.000000
  0.048023  0.033865  0.000000      4.000000
  0.057627  0.033865  0.000000      4.000000
  0.067232  0.033865  0.000000      4.000000
  0.076837  0.033865  0.000000      4.000000
  0.086441  0.033865  0.000000      4.000000
  0.096046  0.033865  0.000000      4.000000
  0.105650  0.033865  0.000000      4.000000
  0.115255  0.033865  0.000000      2.000000
  0.000000  0.045153  0.000000      2.000000
  0.009605  0.045153  0.000000      4.000000
  0.019209  0.045153  0.000000      4.000000
  0.028814  0.045153  0.000000      4.000000
  0.038418  0.045153  0.000000      4.000000
  0.048023  0.045153  0.000000      4.000000
  0.057627  0.045153  0.000000      4.000000
  0.067232  0.045153  0.000000      4.000000
[...]
  0.105650  0.191899  0.000000      4.000000
  0.115255  0.191899  0.000000      2.000000
  0.000000  0.203187  0.000000      1.000000
  0.009605  0.203187  0.000000      2.000000
  0.019209  0.203187  0.000000      2.000000
  0.028814  0.203187  0.000000      2.000000
  0.038418  0.203187  0.000000      2.000000
  0.048023  0.203187  0.000000      2.000000
  0.057627  0.203187  0.000000      2.000000
  0.067232  0.203187  0.000000      2.000000
  0.076837  0.203187  0.000000      2.000000
  0.086441  0.203187  0.000000      2.000000
  0.096046  0.203187  0.000000      2.000000
  0.105650  0.203187  0.000000      2.000000
  0.115255  0.203187  0.000000      1.000000

 I would recommend the setting:
   dimension x,y,z NGX =    63 NGY =   36 NGZ =  288
[...]
 k-point ** :   0.0417 0.3056 0.0000  plane waves:   42863
 k-point ** :   0.0833 0.3056 0.0000  plane waves:   42875
 k-point ** :   0.1250 0.3056 0.0000  plane waves:   42848
 k-point ** :   0.1667 0.3056 0.0000  plane waves:   42839
 k-point ** :   0.2083 0.3056 0.0000  plane waves:   42847
 k-point ** :   0.2500 0.3056 0.0000  plane waves:   42850
 k-point ** :   0.2917 0.3056 0.0000  plane waves:   42844
 k-point ** :   0.3333 0.3056 0.0000  plane waves:   42873
 k-point ** :   0.3750 0.3056 0.0000  plane waves:   42874
 k-point ** :   0.4167 0.3056 0.0000  plane waves:   42847
 k-point ** :   0.4583 0.3056 0.0000  plane waves:   42847
 k-point ** :   0.5000 0.3056 0.0000  plane waves:   42832
 k-point ** :   0.0000 0.3333 0.0000  plane waves:   42880
 k-point ** :   0.0417 0.3333 0.0000  plane waves:   42898
 k-point ** :   0.0833 0.3333 0.0000  plane waves:   42878
[...]
 k-point ** :   0.4583 0.4722 0.0000  plane waves:   42934
 k-point ** :   0.5000 0.4722 0.0000  plane waves:   42938
 k-point ** :   0.0000 0.5000 0.0000  plane waves:   42878
 k-point ** :   0.0417 0.5000 0.0000  plane waves:   42878
 k-point ** :   0.0833 0.5000 0.0000  plane waves:   42864
 k-point ** :   0.1250 0.5000 0.0000  plane waves:   42894
 k-point ** :   0.1667 0.5000 0.0000  plane waves:   42854
 k-point ** :   0.2083 0.5000 0.0000  plane waves:   42826
 k-point ** :   0.2500 0.5000 0.0000  plane waves:   42858
 k-point ** :   0.2917 0.5000 0.0000  plane waves:   42866
 k-point ** :   0.3333 0.5000 0.0000  plane waves:   42918
 k-point ** :   0.3750 0.5000 0.0000  plane waves:   42898
 k-point ** :   0.4167 0.5000 0.0000  plane waves:   42916
 k-point ** :   0.4583 0.5000 0.0000  plane waves:   42930
 k-point ** :   0.5000 0.5000 0.0000  plane waves:   42900

 maximum and minimum number of plane-waves per node :     21484    21315

 maximum number of plane-waves:     42958
 maximum index in each direction:
   IXMAX=   15   IYMAX=    8   IZMAX=   72
   IXMIN=  -16   IYMIN=   -9   IZMIN=  -72

 NGX is ok and might be reduce to  64
 NGY is ok and might be reduce to  36
 WARNING: aliasing errors must be expected set NGZ to 290 to avoid them
 aliasing errors are usually negligible using standard VASP settings
 and one can safely disregard these warnings

 parallel 3D FFT for wavefunctions:
    minimum data exchange during FFTs selected (reduces bandwidth)
 parallel 3D FFT for charge:
    minimum data exchange during FFTs selected (reduces bandwidth)

 Broyden mixing: mesh for mixing (old mesh)
   NGX = 31   NGY = 17   NGZ =145
  (NGX  =128   NGY  = 72   NGZ  =576)
  gives a total of  76415 points

 initial charge density was supplied:
 charge density of overlapping atoms calculated
 number of electron      16.0000000 magnetization
 keeping initial charge density in first step

 Maximum index for augmentation-charges         4557 (set IRDMAX)

 First call to EWALD:  gamma=   0.298
 Maximum number of real-space cells 4x 6x 1
 Maximum number of reciprocal cells 2x 1x 8

 FEWALD executed in parallel

----------------------------------------- Iteration    1(   1)  ---------------------------------------

 eigenvalue-minimisations  :  5928
 total energy-change (2. order) : 0.1872731E+03  (-0.1064564E+04)
 number of electron      16.0000000 magnetization
 augmentation part       16.0000000 magnetization

 Free energy of the ion-electron system (eV)
  alpha Z        PSCENC =         6.18334092
  Ewald energy   TEWEN  =      2502.57844812
  -Hartree energ DENC   =     -2930.48073163
  -exchange      EXHF   =         0.00000000
  -V(xc)+E(xc)   XCENC  =        54.92660724
  PAW double counting   =       151.32577238     -155.92769107
  entropy T*S    EENTRO =        -0.00105745
  eigenvalues    EBANDS =       -29.95516060
  atomic energy  EATOM  =       588.62352690
  free energy    TOTEN  =       187.27305482 eV

  energy without entropy =      187.27411226  energy(sigma->0) =      187.27358354

[...]

 eigenvalue-minimisations  : 10456
 total energy-change (2. order) :-0.1964120E+03  (-0.1741538E+03)
 number of electron      16.0000000 magnetization
 augmentation part       16.0000000 magnetization

[...]

 Broyden mixing:
  rms(total) = 0.71884E+00    rms(broyden)= 0.71884E+00
  rms(prec ) = 0.78258E+00
  weight for this iteration     100.00

[...]

 eigenvalues of (default mixing * dielectric matrix)
  average eigenvalue GAMMA=   2.3206
  2.3206

[...]

WARNING in EDDRMM: call to ZHEGV failed, returncode =   6  3  1
WARNING in EDDRMM: call to ZHEGV failed, returncode =   6  3  1

[...]

 average (electrostatic) potential at core
  the test charge radii are     0.6991
  (the norm of the test charge is              1.0000)
       1 -58.2655       2 -58.2655       3 -58.2655       4 -58.2655

 E-fermi :  -2.7972     XC(G=0):  -2.1640     alpha+bet : -1.9046

 k-point     1 :       0.0000    0.0000    0.0000
  band No.  band energies     occupation
      1     -22.1486      2.00000
      2     -17.1684      2.00000
      3     -15.8900      2.00000
      4     -10.2778      2.00000
      5      -8.9397      2.00000
      6      -5.9235      2.00000
      7      -5.7488      2.00000
      8      -5.2496      2.00000
      9      -1.1449      0.00000
     10       0.5364      0.00000
     11       1.3357      0.00000
     12       1.7237      0.00000

[...]

 soft charge-density along one line, spin component           1
         0         1         2         3         4         5         6         7         8         9
 total charge-density along one line

------------------------ aborting loop because EDIFF is reached ----------------------------------------

  FORCE on cell =-STRESS in cart. coord.  units (eV):
  Direction    XX          YY          ZZ          XY          YZ          ZX
  Alpha Z     6.18334     6.18334     6.18334
  Ewald    3035.73508  3037.70935 -3570.86623     0.00000     0.00000    -0.00000
  Hartree  2973.45137  2974.13924 -2950.85773     0.00000    -0.00000    -0.00000
  E(xc)     -58.10745   -58.12499   -60.44448    -0.00000    -0.00000    -0.00000
  Local   -6182.30322 -6184.64329  6316.11936    -0.00000    -0.00000    -0.00000
  n-local   -13.37245   -13.87475   -12.59324     0.06287    -0.00000    -0.00000
  augment    -1.50270    -1.50431    -1.38839     0.00000     0.00000    -0.00000
  Kinetic   236.59046   240.11634   273.84602    -4.50802     0.00000     0.00000
  Fock        0.00000     0.00000     0.00000     0.00000     0.00000     0.00000
  Total      -3.32556     0.00092    -0.00136     0.00000     0.00000     0.00000
  in kB     -25.27121     0.00698    -0.01032     0.00000     0.00000     0.00000

 VOLUME and BASIS-vectors are now :
  energy-cutoff  :     2000.00
  volume of cell :      210.84
      direct lattice vectors                 reciprocal lattice vectors
     4.338214877  0.000000000  0.000000000     0.230509559  0.000000000  0.000000000
     0.000000000  2.460785858  0.000000000     0.000000000  0.406374247  0.000000000
     0.000000000  0.000000000 19.749850076     0.000000000  0.000000000  0.050633296

[...]

 FORCES acting on ions
    electron-ion (+dipol)            ewald-force                    non-local-force                 convergence-correction
   0.328E+01 0.734E-15 -.130E-08   -.328E+01 -.150E-14 0.991E-18   0.421E-03 -.104E-16 0.000E+00   0.247E-07 0.107E-14 -.827E-13
   -.328E+01 0.612E-15 -.843E-08   0.328E+01 0.258E-14 -.185E-17   -.421E-03 -.694E-17 0.207E-24   -.247E-07 -.133E-14 -.819E-13
   0.328E+01 -.192E-12 -.130E-08   -.328E+01 -.232E-14 0.312E-18   0.421E-03 -.173E-16 -.207E-24   0.247E-07 0.123E-14 -.829E-13
   -.328E+01 -.597E-15 -.845E-08   0.328E+01 0.176E-14 0.549E-18   -.421E-03 -.694E-17 0.000E+00   -.247E-07 -.150E-14 -.820E-13
   -.125E-05 -.191E-12 -.195E-07   0.000E+00 0.511E-15 0.000E+00   0.271E-18 -.416E-16 0.000E+00   0.424E-13 -.537E-15 -.329E-12

 POSITION                                       TOTAL-FORCE (eV/Angst)
      4.33666      0.00000      0.00000        -0.001012      0.000000      0.000000
      0.72459      1.23039      0.00000         0.001012     -0.000000     -0.000000
      2.16756      1.23039      0.00000        -0.001012     -0.000000      0.000000
      2.89370      0.00000      0.00000         0.001012      0.000000     -0.000000
    total drift:                               -0.000001     -0.000000     -0.000000

  FREE ENERGIE OF THE ION-ELECTRON SYSTEM (eV)
  free  energy   TOTEN  =       -36.90042006 eV

  energy  without entropy=      -36.90041554  energy(sigma->0) =      -36.90041780

 Quasi-Newton relaxation of ions (Broydens 2nd method)
  g(Force)  = 0.198E-06   g(Stress)= 0.000E+00

 Reset! Starting new Quasi-Newton update for ions

[...]

 d Force =-0.2857697E-06[-0.769E-06, 0.198E-06]  d Energy =-0.2929459E-06 0.718E-08
 d Force = 0.6390031E-03[ 0.637E-03, 0.641E-03]  d Ewald  = 0.6390032E-03-0.905E-10

[...]

 retain information from N=  1 steps
 eigenvalues of (default step * inverse Hessian matrix)
  average eigenvalue of G=   0.2045
 eigenvalue spectrum of G is  0.2045

[...]

 d Force = 0.3064393E-06[ 0.918E-09, 0.612E-06]  d Energy = 0.3114186E-06-0.498E-08
 d Force =-0.5080830E-03[-0.509E-03,-0.507E-03]  d Ewald  =-0.5080831E-03 0.455E-10

[...]

 eigenvalue-minimisations  :  4856
 total energy-change (2. order) : 0.3808509E-09  ( 0.5458458E-09)
 number of electron      16.0000000 magnetization
 augmentation part        0.3762027 magnetization

[...]

 d Force =-0.4530549E-12[-0.228E-11, 0.138E-11]  d Energy = 0.8992629E-10-0.904E-10
 d Force =-0.7646181E-06[-0.765E-06,-0.765E-06]  d Ewald  =-0.7646186E-06 0.455E-12

[...]

 eigenvalue-minimisations  :  1397
 total energy-change (2. order) :-0.6890559E-09  ( 0.7732909E-13)
 number of electron      16.0000000 magnetization
 augmentation part        0.3762027 magnetization

[...]

 d Force = 0.8013551E-12[ 0.178E-12, 0.142E-11]  d Energy =-0.9617906E-10 0.970E-10
 d Force = 0.4768961E-06[ 0.477E-06, 0.477E-06]  d Ewald  = 0.4768972E-06-0.909E-12

[...]

 d Force = 0.2685956E-13[ 0.283E-13, 0.254E-13]  d Energy = 0.3125251E-09-0.312E-09
 d Force = 0.6809337E-07[ 0.681E-07, 0.681E-07]  d Ewald  = 0.6809250E-07 0.909E-12

[...]

 d Force =-0.8882562E-12[-0.150E-11,-0.278E-12]  d Energy =-0.3944933E-10 0.386E-10
 d Force =-0.6679532E-06[-0.668E-06,-0.668E-06]  d Ewald  =-0.6679534E-06 0.000E+00

[...]

 FEWALD executed in parallel

[...]

 eigenvalue-minimisations  :   914
 total energy-change (2. order) :-0.4665708E-09  ( 0.4247631E-14)
 number of electron      16.0000000 magnetization
 augmentation part        0.3762027 magnetization

[...]

 eigenvalue-minimisations  :   847
 total energy-change (2. order) :-0.1422222E-09  (-0.1205620E-13)
 number of electron      16.0000000 magnetization
 augmentation part        0.3762027 magnetization

[...]

 eigenvalue-minimisations  :   415
 total energy-change (2. order) : 0.2286242E-09  (-0.1261542E-13)
 number of electron      16.0000000 magnetization
 augmentation part        0.3762027 magnetization

 Broyden mixing:
  rms(total) = 0.69165E-09    rms(broyden)= 0.69162E-09
  rms(prec ) = 0.71154E-09
  weight for this iteration     100.00

 eigenvalues of (default mixing * dielectric matrix)
  average eigenvalue GAMMA=   1.4569
  2.7038  2.4830  0.3203  0.3203

[...]

----------------------------------------- Iteration    8(   6)  ---------------------------------------

 eigenvalue-minimisations  :   677
 total energy-change (2. order) : 0.2069100E-10  ( 0.5316735E-14)
 number of electron      16.0000000 magnetization
 augmentation part        0.3762027 magnetization

 Free energy of the ion-electron system (eV)
  alpha Z        PSCENC =         6.18334092
  Ewald energy   TEWEN  =      2502.57831726
  -Hartree energ DENC   =     -2996.73276318
  -exchange      EXHF   =         0.00000000
  -V(xc)+E(xc)   XCENC  =        57.29039301
  PAW double counting   =       272.01063190     -277.13649212
  entropy T*S    EENTRO =        -0.00000457
  eigenvalues    EBANDS =      -189.71737021
  atomic energy  EATOM  =       588.62352690
  free energy    TOTEN  =       -36.90042008 eV

  energy without entropy =      -36.90041551  energy(sigma->0) =      -36.90041780

 average (electrostatic) potential at core
  the test charge radii are     0.6991
  (the norm of the test charge is              1.0000)
       1 -58.2655       2 -58.2655       3 -58.2655       4 -58.2655

 E-fermi :  -2.7972     XC(G=0):  -2.1634     alpha+bet : -1.9046

[...]

 k-point   247 :       0.5000    0.5000    0.0000
  band No.  band energies     occupation
      1     -16.9135      2.00000
      2     -16.9135      2.00000
      3     -15.9022      2.00000
      4     -15.9022      2.00000
      5      -9.2516      2.00000
      6      -9.2516      2.00000
      7      -5.0507      2.00000
      8      -5.0507      2.00000
      9      -1.1203      0.00000
     10      -1.1203      0.00000
     11       4.1689      0.00000
     12       4.1689      0.00000

 soft charge-density along one line, spin component           1
         0         1         2         3         4         5         6         7         8         9
 total charge-density along one line

------------------------ aborting loop because EDIFF is reached ----------------------------------------

  FORCE on cell =-STRESS in cart. coord.  units (eV):
  Direction    XX          YY          ZZ          XY          YZ          ZX
  Alpha Z     6.18334     6.18334     6.18334
  Ewald    3035.74369  3037.70062 -3570.86623     0.00000     0.00000     0.00000
  Hartree  2973.45254  2974.13796 -2950.85774     0.00000    -0.00000    -0.00000
  E(xc)     -58.10741   -58.12502   -60.44448     0.00000    -0.00000    -0.00000
  Local   -6182.31141 -6184.63494  6316.11940     0.00000     0.00000    -0.00000
  n-local   -13.37238   -13.87482   -12.59324     0.06286    -0.00000    -0.00000
  augment    -1.50271    -1.50430    -1.38839     0.00000    -0.00000     0.00000
  Kinetic   236.58908   240.11764   273.84598    -4.50798     0.00000     0.00000
  Fock        0.00000     0.00000     0.00000     0.00000     0.00000     0.00000
  Total      -3.32525     0.00048    -0.00136     0.00000     0.00000     0.00000
  in kB     -25.26887     0.00365    -0.01032     0.00000     0.00000     0.00000

 VOLUME and BASIS-vectors are now :
  energy-cutoff  :     2000.00
  volume of cell :      210.84
      direct lattice vectors                 reciprocal lattice vectors
     4.338214877  0.000000000  0.000000000     0.230509559  0.000000000  0.000000000
     0.000000000  2.460785858  0.000000000     0.000000000  0.406374247  0.000000000
     0.000000000  0.000000000 19.749850076     0.000000000  0.000000000  0.050633296

  length of vectors
     4.338214877  2.460785858 19.749850076     0.230509559  0.406374247  0.050633296

 FORCES acting on ions
    electron-ion (+dipol)            ewald-force                    non-local-force                 convergence-correction
   0.328E+01 0.250E-15 -.132E-08   -.328E+01 0.405E-14 0.534E-18   0.781E-03 0.000E+00 -.162E-26   -.241E-08 -.128E-14 -.470E-12
   -.328E+01 -.173E-12 -.844E-08   0.328E+01 0.104E-15 -.544E-18   -.781E-03 0.000E+00 0.162E-26   0.241E-08 0.947E-15 -.498E-12
   0.328E+01 -.155E-12 -.129E-08   -.328E+01 0.151E-15 0.129E-17   0.781E-03 0.000E+00 -.162E-26   -.241E-08 0.523E-15 -.457E-12
   -.328E+01 0.106E-15 -.845E-08   0.328E+01 -.379E-14 -.128E-17   -.781E-03 0.000E+00 0.162E-26   0.241E-08 -.845E-15 -.427E-12
   -.125E-05 -.327E-12 -.195E-07   0.000E+00 0.511E-15 0.193E-33   -.325E-18 0.000E+00 0.000E+00   -.494E-14 -.653E-15 -.185E-11

 POSITION                                       TOTAL-FORCE (eV/Angst)
      4.33665     -0.00000      0.00000         0.000001     -0.000000      0.000000
      0.72460      1.23039     -0.00000        -0.000001      0.000000     -0.000000
      2.16755      1.23039      0.00000         0.000001      0.000000      0.000000
      2.89371      0.00000     -0.00000        -0.000001     -0.000000     -0.000000
    total drift:                               -0.000001     -0.000000     -0.000000

  FREE ENERGIE OF THE ION-ELECTRON SYSTEM (eV)
  free  energy   TOTEN  =       -36.90042008 eV

  energy  without entropy=      -36.90041551  energy(sigma->0) =      -36.90041780

 d Force = 0.8509867E-12[-0.138E-12, 0.184E-11]  d Energy =-0.2567049E-09 0.258E-09
 d Force = 0.8197968E-06[ 0.820E-06, 0.820E-06]  d Ewald  = 0.8197967E-06 0.000E+00

 Quasi-Newton relaxation of ions (Broydens 2nd method)
  g(Force)  = 0.584E-13   g(Stress)= 0.000E+00

 retain information from N=  1 steps
 eigenvalues of (default step * inverse Hessian matrix)
  average eigenvalue of G=   0.1641
 eigenvalue spectrum of G is  0.1641

 reached required accuracy - stopping structural energy minimisation