 vasp.5.3.5 31Mar14 (build Mar 02 2015 18:14:16) complex

 executed on             LinuxIFC date 2018.08.08  18:30:46

 INCAR:
 POTCAR:   PAW_PBE C 08Apr2002
 POTCAR:   PAW_PBE C 08Apr2002
   VRHFIN =C: s2p2

   TITEL  = PAW_PBE C 08Apr2002
   POMASS =   12.011; ZVAL   =    4.000    mass and valenz
   ENMAX  =  400.000; ENMIN  =  300.000 eV
   QCUT   =   -5.516; QGAM   =   11.032    optimization parameters

   Description
     l     E      TYP  RCUT    TYP  RCUT
     0   .000     23  1.200
     0   .000     23  1.200
     1   .000     23  1.500
     1  2.500     23  1.500
     2   .000      7  1.500

 PAW_PBE C 08Apr2002                    :

 POSCAR: MD-kMC export data
  positions in direct lattice
  velocities in cartesian coordinates
 exchange correlation table for  LEXCH =        8
   RHO(1)=    0.500       N(1)  =     2000
   RHO(2)=  100.500       N(2)  =     4000

 ion  position               nearest neighbor table
   1  1.000  0.000  0.000-   2 1.43   2 1.43   4 1.44
   2  0.167  0.500  0.000-   1 1.43   1 1.43   3 1.44
   3  0.500  0.500  0.000-   4 1.43   4 1.43   2 1.44
   4  0.667  0.000  0.000-   3 1.43   3 1.43   1 1.44

  LATTYP: Found a simple orthorhombic cell.
 ALAT       =     2.4608078340
 B/A-ratio  =     1.7628362251
 C/A-ratio  =     8.0260824393

  Lattice vectors:

 A1 = (   0.0000000000,  -2.4608078340,   0.0000000000)
 A2 = (  -4.3380011929,   0.0000000000,   0.0000000000)
 A3 = (   0.0000000000,   0.0000000000, -19.7506465433)

Analysis of symmetry for initial positions (statically):
 Subroutine PRICEL returns following result:

  LATTYP: Found a base centered orthorhombic cell.
 ALAT       =     2.4608078340
 B/A-ratio  =     1.7628362251
 C/A-ratio  =     8.0260824393

[...]

   2 primitive cells build up your supercell.

 Routine SETGRP: Setting up the symmetry group for a
 simple orthorhombic supercell.

 Subroutine GETGRP returns: Found  8 space group operations
 (whereof  4 operations were pure point group operations)
 out of a pool of  8 trial point group operations.

The static configuration has the point symmetry C_2v.
 The point group associated with its full space group is D_2h.

Analysis of symmetry for dynamics (positions and initial velocities):
 Subroutine PRICEL returns following result:

  LATTYP: Found a base centered orthorhombic cell.
 ALAT       =     2.4608078340
 B/A-ratio  =     1.7628362251
 C/A-ratio  =     8.0260824393

  Lattice vectors:

 A1 = (   2.1690005965,  -1.2304039170,   0.0000000000)
 A2 = (  -2.1690005965,  -1.2304039170,   0.0000000000)
 A3 = (   0.0000000000,   0.0000000000, -19.7506465433)

   2 primitive cells build up your supercell.

 Routine SETGRP: Setting up the symmetry group for a
 simple orthorhombic supercell.

 Subroutine GETGRP returns: Found  8 space group operations
 (whereof  4 operations were pure point group operations)
 out of a pool of  8 trial point group operations.

The dynamic configuration has the point symmetry C_2v.
 The point group associated with its full space group is D_2h.

 KPOINTS: Automatic mesh

Automatic generation of k-mesh.
Space group operators:
 irot       det(A)        alpha          n_x          n_y          n_z        tau_x        tau_y        tau_z
    1     1.000000     0.000000     1.000000     0.000000     0.000000     0.000000     0.000000     0.000000
    2    -1.000000   180.000000     0.000000     0.000000     1.000000     0.000000     0.000000     0.000000
    3     1.000000   180.000000     1.000000     0.000000     0.000000     0.000000     0.000000     0.000000
    4    -1.000000   180.000000     0.000000     1.000000     0.000000     0.000000     0.000000     0.000000
    5    -1.000000     0.000000     1.000000     0.000000     0.000000     0.166667    -0.500000     0.000000
    6     1.000000   180.000000     0.000000     0.000000     1.000000     0.166667    -0.500000     0.000000
    7    -1.000000   180.000000     1.000000     0.000000     0.000000     0.166667    -0.500000     0.000000
    8     1.000000   180.000000     0.000000     1.000000     0.000000     0.166667    -0.500000     0.000000

 Subroutine IBZKPT returns following result:

 Found    247 irreducible k-points:

 Following reciprocal coordinates:
            Coordinates               Weight
  0.000000  0.000000  0.000000      1.000000
  0.041667  0.000000  0.000000      2.000000
  0.083333  0.000000  0.000000      2.000000
  0.125000  0.000000  0.000000      2.000000
  0.166667  0.000000  0.000000      2.000000
  0.208333  0.000000  0.000000      2.000000
  0.250000  0.000000  0.000000      2.000000
  0.291667  0.000000  0.000000      2.000000
  0.333333  0.000000  0.000000      2.000000
  0.375000  0.000000  0.000000      2.000000
  0.416667  0.000000  0.000000      2.000000
  0.458333  0.000000  0.000000      2.000000
  0.500000  0.000000  0.000000      1.000000
  0.000000  0.027778  0.000000      2.000000
  0.041667  0.027778  0.000000      4.000000
  0.083333  0.027778  0.000000      4.000000
  0.125000  0.027778  0.000000      4.000000
  0.166667  0.027778  0.000000      4.000000
  0.208333  0.027778  0.000000      4.000000
  0.250000  0.027778  0.000000      4.000000
  0.291667  0.027778  0.000000      4.000000
  0.333333  0.027778  0.000000      4.000000
  0.375000  0.027778  0.000000      4.000000
  0.416667  0.027778  0.000000      4.000000
  0.458333  0.027778  0.000000      4.000000
  0.500000  0.027778  0.000000      2.000000
  0.000000  0.055556  0.000000      2.000000
  0.041667  0.055556  0.000000      4.000000
  0.083333  0.055556  0.000000      4.000000
  0.125000  0.055556  0.000000      4.000000
  0.166667  0.055556  0.000000      4.000000
  0.208333  0.055556  0.000000      4.000000
  0.250000  0.055556  0.000000      4.000000
  0.291667  0.055556  0.000000      4.000000
  0.333333  0.055556  0.000000      4.000000
  0.375000  0.055556  0.000000      4.000000
  0.416667  0.055556  0.000000      4.000000
  0.458333  0.055556  0.000000      4.000000
  0.500000  0.055556  0.000000      2.000000
  0.000000  0.083333  0.000000      2.000000
  0.041667  0.083333  0.000000      4.000000
  0.083333  0.083333  0.000000      4.000000
  0.125000  0.083333  0.000000      4.000000
  0.166667  0.083333  0.000000      4.000000
  0.208333  0.083333  0.000000      4.000000
  0.250000  0.083333  0.000000      4.000000
  0.291667  0.083333  0.000000      4.000000
  0.333333  0.083333  0.000000      4.000000
  0.375000  0.083333  0.000000      4.000000
  0.416667  0.083333  0.000000      4.000000
  0.458333  0.083333  0.000000      4.000000
  0.500000  0.083333  0.000000      2.000000
  0.000000  0.111111  0.000000      2.000000
  0.041667  0.111111  0.000000      4.000000
  0.083333  0.111111  0.000000      4.000000
  0.125000  0.111111  0.000000      4.000000
  0.166667  0.111111  0.000000      4.000000
  0.208333  0.111111  0.000000      4.000000
  0.250000  0.111111  0.000000      4.000000
  0.291667  0.111111  0.000000      4.000000
[...]
  0.458333  0.472222  0.000000      4.000000
  0.500000  0.472222  0.000000      2.000000
  0.000000  0.500000  0.000000      1.000000
  0.041667  0.500000  0.000000      2.000000
  0.083333  0.500000  0.000000      2.000000
  0.125000  0.500000  0.000000      2.000000
  0.166667  0.500000  0.000000      2.000000
  0.208333  0.500000  0.000000      2.000000
  0.250000  0.500000  0.000000      2.000000
  0.291667  0.500000  0.000000      2.000000
  0.333333  0.500000  0.000000      2.000000
  0.375000  0.500000  0.000000      2.000000
  0.416667  0.500000  0.000000      2.000000
  0.458333  0.500000  0.000000      2.000000
  0.500000  0.500000  0.000000      1.000000

 Following cartesian coordinates:
            Coordinates               Weight
  0.000000  0.000000  0.000000      1.000000
  0.009605  0.000000  0.000000      2.000000
  0.019210  0.000000  0.000000      2.000000
  0.028815  0.000000  0.000000      2.000000
  0.038420  0.000000  0.000000      2.000000
  0.048025  0.000000  0.000000      2.000000
  0.057630  0.000000  0.000000      2.000000
  0.067235  0.000000  0.000000      2.000000
  0.076840  0.000000  0.000000      2.000000
  0.086445  0.000000  0.000000      2.000000
  0.096050  0.000000  0.000000      2.000000
  0.105655  0.000000  0.000000      2.000000
  0.115260  0.000000  0.000000      1.000000
  0.000000  0.011288  0.000000      2.000000
  0.009605  0.011288  0.000000      4.000000
  0.019210  0.011288  0.000000      4.000000
  0.028815  0.011288  0.000000      4.000000
  0.038420  0.011288  0.000000      4.000000
  0.048025  0.011288  0.000000      4.000000
  0.057630  0.011288  0.000000      4.000000
  0.067235  0.011288  0.000000      4.000000
  0.076840  0.011288  0.000000      4.000000
  0.086445  0.011288  0.000000      4.000000
  0.096050  0.011288  0.000000      4.000000
  0.105655  0.011288  0.000000      4.000000
  0.115260  0.011288  0.000000      2.000000
  0.000000  0.022576  0.000000      2.000000
  0.009605  0.022576  0.000000      4.000000
  0.019210  0.022576  0.000000      4.000000
  0.028815  0.022576  0.000000      4.000000
  0.038420  0.022576  0.000000      4.000000
  0.048025  0.022576  0.000000      4.000000
  0.057630  0.022576  0.000000      4.000000
  0.067235  0.022576  0.000000      4.000000
  0.076840  0.022576  0.000000      4.000000
  0.086445  0.022576  0.000000      4.000000
  0.096050  0.022576  0.000000      4.000000
  0.105655  0.022576  0.000000      4.000000
  0.115260  0.022576  0.000000      2.000000
  0.000000  0.033864  0.000000      2.000000
  0.009605  0.033864  0.000000      4.000000
  0.019210  0.033864  0.000000      4.000000
  0.028815  0.033864  0.000000      4.000000
  0.038420  0.033864  0.000000      4.000000
  0.048025  0.033864  0.000000      4.000000
  0.057630  0.033864  0.000000      4.000000
  0.067235  0.033864  0.000000      4.000000
  0.076840  0.033864  0.000000      4.000000
  0.086445  0.033864  0.000000      4.000000
  0.096050  0.033864  0.000000      4.000000
  0.105655  0.033864  0.000000      4.000000
  0.115260  0.033864  0.000000      2.000000
  0.000000  0.045152  0.000000      2.000000
  0.009605  0.045152  0.000000      4.000000
  0.019210  0.045152  0.000000      4.000000
  0.028815  0.045152  0.000000      4.000000
  0.038420  0.045152  0.000000      4.000000
  0.048025  0.045152  0.000000      4.000000
  0.057630  0.045152  0.000000      4.000000
  0.067235  0.045152  0.000000      4.000000
[...]
  0.105655  0.191897  0.000000      4.000000
  0.115260  0.191897  0.000000      2.000000
  0.000000  0.203185  0.000000      1.000000
  0.009605  0.203185  0.000000      2.000000
  0.019210  0.203185  0.000000      2.000000
  0.028815  0.203185  0.000000      2.000000
  0.038420  0.203185  0.000000      2.000000
  0.048025  0.203185  0.000000      2.000000
  0.057630  0.203185  0.000000      2.000000
  0.067235  0.203185  0.000000      2.000000
  0.076840  0.203185  0.000000      2.000000
  0.086445  0.203185  0.000000      2.000000
  0.096050  0.203185  0.000000      2.000000
  0.105655  0.203185  0.000000      2.000000
  0.115260  0.203185  0.000000      1.000000

 I would recommend the setting:
   dimension x,y,z NGX =    63 NGY =   36 NGZ =  288
[...]
 k-point ** :   0.1250 0.3056 0.0000  plane waves:   42850
 k-point ** :   0.1667 0.3056 0.0000  plane waves:   42839
 k-point ** :   0.2083 0.3056 0.0000  plane waves:   42845
 k-point ** :   0.2500 0.3056 0.0000  plane waves:   42848
 k-point ** :   0.2917 0.3056 0.0000  plane waves:   42846
 k-point ** :   0.3333 0.3056 0.0000  plane waves:   42869
 k-point ** :   0.3750 0.3056 0.0000  plane waves:   42870
 k-point ** :   0.4167 0.3056 0.0000  plane waves:   42845
 k-point ** :   0.4583 0.3056 0.0000  plane waves:   42847
 k-point ** :   0.5000 0.3056 0.0000  plane waves:   42832
 k-point ** :   0.0000 0.3333 0.0000  plane waves:   42880
 k-point ** :   0.0417 0.3333 0.0000  plane waves:   42898
 k-point ** :   0.0833 0.3333 0.0000  plane waves:   42878
[...]
 k-point ** :   0.4583 0.4722 0.0000  plane waves:   42934
 k-point ** :   0.5000 0.4722 0.0000  plane waves:   42938
 k-point ** :   0.0000 0.5000 0.0000  plane waves:   42902
 k-point ** :   0.0417 0.5000 0.0000  plane waves:   42878
 k-point ** :   0.0833 0.5000 0.0000  plane waves:   42864
 k-point ** :   0.1250 0.5000 0.0000  plane waves:   42890
 k-point ** :   0.1667 0.5000 0.0000  plane waves:   42850
 k-point ** :   0.2083 0.5000 0.0000  plane waves:   42830
 k-point ** :   0.2500 0.5000 0.0000  plane waves:   42858
 k-point ** :   0.2917 0.5000 0.0000  plane waves:   42866
 k-point ** :   0.3333 0.5000 0.0000  plane waves:   42918
 k-point ** :   0.3750 0.5000 0.0000  plane waves:   42894
 k-point ** :   0.4167 0.5000 0.0000  plane waves:   42924
 k-point ** :   0.4583 0.5000 0.0000  plane waves:   42930
 k-point ** :   0.5000 0.5000 0.0000  plane waves:   42908

 maximum and minimum number of plane-waves per node :     21494    21299

 maximum number of plane-waves:     42962
 maximum index in each direction:
   IXMAX=   15   IYMAX=    8   IZMAX=   72
   IXMIN=  -16   IYMIN=   -9   IZMIN=  -72

 NGX is ok and might be reduce to  64
 NGY is ok and might be reduce to  36
 WARNING: aliasing errors must be expected set NGZ to 290 to avoid them
 aliasing errors are usually negligible using standard VASP settings
 and one can safely disregard these warnings

 parallel 3D FFT for wavefunctions:
    minimum data exchange during FFTs selected (reduces bandwidth)
 parallel 3D FFT for charge:
    minimum data exchange during FFTs selected (reduces bandwidth)

 Broyden mixing: mesh for mixing (old mesh)
   NGX = 31   NGY = 17   NGZ =145
  (NGX  =128   NGY  = 72   NGZ  =576)
  gives a total of  76415 points

 initial charge density was supplied:
 charge density of overlapping atoms calculated
 number of electron      16.0000000 magnetization
 keeping initial charge density in first step

 Maximum index for augmentation-charges         4557 (set IRDMAX)

 First call to EWALD:  gamma=   0.298
 Maximum number of real-space cells 4x 6x 1
 Maximum number of reciprocal cells 2x 1x 8

 FEWALD executed in parallel

----------------------------------------- Iteration    1(   1)  ---------------------------------------

 eigenvalue-minimisations  :  5928
 total energy-change (2. order) : 0.1873941E+03  (-0.1062012E+04)
 number of electron      16.0000000 magnetization
 augmentation part       16.0000000 magnetization

 Free energy of the ion-electron system (eV)
  alpha Z        PSCENC =         6.18334092
  Ewald energy   TEWEN  =      2502.84486630
  -Hartree energ DENC   =     -2930.73920829
  -exchange      EXHF   =         0.00000000
  -V(xc)+E(xc)   XCENC  =        54.92715210
  PAW double counting   =       151.32577238     -155.92769107
  entropy T*S    EENTRO =        -0.00145502
  eigenvalues    EBANDS =       -29.84219613
  atomic energy  EATOM  =       588.62352690
  free energy    TOTEN  =       187.39410810 eV

  energy without entropy =      187.39556312  energy(sigma->0) =      187.39483561

[...]

 eigenvalue-minimisations  : 10360
 total energy-change (2. order) :-0.1964738E+03  (-0.1731901E+03)
 number of electron      16.0000000 magnetization
 augmentation part       16.0000000 magnetization

[...]

 Broyden mixing:
  rms(total) = 0.71946E+00    rms(broyden)= 0.71946E+00
  rms(prec ) = 0.78331E+00
  weight for this iteration     100.00

[...]

 eigenvalues of (default mixing * dielectric matrix)
  average eigenvalue GAMMA=   2.3174
  2.3174

[...]

WARNING in EDDRMM: call to ZHEGV failed, returncode =   6  3  1
WARNING in EDDRMM: call to ZHEGV failed, returncode =   6  3  1
WARNING in EDDRMM: call to ZHEGV failed, returncode =   6  3  1

[...]

 average (electrostatic) potential at core
  the test charge radii are     0.6991
  (the norm of the test charge is              1.0000)
       1 -58.2653       2 -58.2653       3 -58.2653       4 -58.2653

 E-fermi :  -2.7971     XC(G=0):  -2.1634     alpha+bet : -1.9046

 k-point     1 :       0.0000    0.0000    0.0000
  band No.  band energies     occupation
      1     -22.1489      2.00000
      2     -17.1679      2.00000
      3     -15.8904      2.00000
      4     -10.2781      2.00000
      5      -8.9403      2.00000
      6      -5.9232      2.00000
      7      -5.7487      2.00000
      8      -5.2490      2.00000
      9      -1.1448      0.00000
     10       0.5364      0.00000
     11       1.3357      0.00000
     12       1.7249      0.00000

[...]

 soft charge-density along one line, spin component           1
         0         1         2         3         4         5         6         7         8         9
 total charge-density along one line

------------------------ aborting loop because EDIFF is reached ----------------------------------------

  FORCE on cell =-STRESS in cart. coord.  units (eV):
  Direction    XX          YY          ZZ          XY          YZ          ZX
  Alpha Z     6.18334     6.18334     6.18334
  Ewald    3036.01984  3037.97903 -3571.15425     0.00000     0.00000     0.00000
  Hartree  2973.71985  2974.40417 -2951.12538    -0.00000    -0.00000    -0.00000
  E(xc)     -58.10817   -58.12570   -60.44523     0.00000     0.00000    -0.00000
  Local   -6182.85359 -6185.17764  6316.67326    -0.00000     0.00000    -0.00000
  n-local   -13.37427   -13.87501   -12.59380     0.06284    -0.00000    -0.00000
  augment    -1.50282    -1.50443    -1.38847    -0.00000    -0.00000    -0.00000
  Kinetic   236.60119   240.11669   273.84917    -4.50829     0.00000     0.00000
  Fock        0.00000     0.00000     0.00000     0.00000     0.00000     0.00000
  Total      -3.31464     0.00046    -0.00136     0.00000     0.00000     0.00000
  in kB     -25.18828     0.00346    -0.01030     0.00000     0.00000     0.00000

 VOLUME and BASIS-vectors are now :
  energy-cutoff  :     2000.00
  volume of cell :      210.84
      direct lattice vectors                 reciprocal lattice vectors
     4.338001193  0.000000000  0.000000000     0.230520914  0.000000000  0.000000000
     0.000000000  2.460807834  0.000000000     0.000000000  0.406370618  0.000000000
     0.000000000  0.000000000 19.750646543     0.000000000  0.000000000  0.050631254

[...]

 FORCES acting on ions
    electron-ion (+dipol)            ewald-force                    non-local-force                 convergence-correction
   0.327E+01 0.165E-15 -.130E-08   -.327E+01 -.257E-14 -.852E-18   0.605E-03 0.139E-16 0.000E+00   0.141E-07 0.268E-15 -.823E-13
   -.327E+01 -.149E-14 -.842E-08   0.327E+01 -.703E-14 0.750E-18   -.605E-03 -.694E-17 0.000E+00   -.141E-07 -.260E-14 -.809E-13
   0.327E+01 -.195E-12 -.130E-08   -.327E+01 0.198E-14 -.883E-18   0.605E-03 0.139E-16 0.000E+00   0.141E-07 -.815E-16 -.828E-13
   -.327E+01 0.267E-15 -.844E-08   0.327E+01 -.248E-14 0.984E-18   -.605E-03 -.694E-17 0.000E+00   -.141E-07 -.227E-14 -.811E-13
   -.125E-05 -.197E-12 -.195E-07   -.178E-14 -.101E-13 0.000E+00   -.108E-18 0.139E-16 0.000E+00   0.152E-13 -.469E-14 -.327E-12

 POSITION                                       TOTAL-FORCE (eV/Angst)
      4.33645      0.00000      0.00000        -0.000534     -0.000000      0.000000
      0.72455      1.23040      0.00000         0.000534      0.000000      0.000000
      2.16745      1.23040      0.00000        -0.000534      0.000000      0.000000
      2.89355      0.00000      0.00000         0.000534     -0.000000      0.000000
    total drift:                               -0.000001     -0.000000     -0.000000

  FREE ENERGIE OF THE ION-ELECTRON SYSTEM (eV)
  free  energy   TOTEN  =       -36.90058361 eV

  energy  without entropy=      -36.90057896  energy(sigma->0) =      -36.90058128

 Quasi-Newton relaxation of ions (Broydens 2nd method)
  g(Force)  = 0.551E-07   g(Stress)= 0.000E+00

 Reset! Starting new Quasi-Newton update for ions

[...]

 d Force =-0.7958416E-07[-0.214E-06, 0.551E-07]  d Energy =-0.8302175E-07 0.344E-08
 d Force = 0.3365686E-03[ 0.336E-03, 0.337E-03]  d Ewald  = 0.3365687E-03-0.132E-10

[...]

 retain information from N=  1 steps
 eigenvalues of (default step * inverse Hessian matrix)
  average eigenvalue of G=   0.2046
 eigenvalue spectrum of G is  0.2046

[...]

WARNING in EDDRMM: call to ZHEGV failed, returncode =   6  3  1

[...]

 d Force = 0.8492246E-07[-0.604E-09, 0.170E-06]  d Energy = 0.8822553E-07-0.330E-08
 d Force =-0.2676258E-03[-0.268E-03,-0.267E-03]  d Ewald  =-0.2676258E-03 0.591E-11

[...]

 eigenvalue-minimisations  :  4724
 total energy-change (2. order) : 0.4914682E-09  ( 0.5418662E-09)
 number of electron      16.0000000 magnetization
 augmentation part        0.3762208 magnetization

[...]

 eigenvalue-minimisations  :  3082
 total energy-change (2. order) :-0.4820322E-09  ( 0.2997397E-12)
 number of electron      16.0000000 magnetization
 augmentation part        0.3762208 magnetization

[...]

 d Force =-0.3693909E-12[-0.287E-11, 0.213E-11]  d Energy =-0.9595169E-10 0.956E-10
 d Force = 0.9456497E-06[ 0.946E-06, 0.946E-06]  d Ewald  = 0.9456498E-06 0.000E+00

[...]

 d Force = 0.9876333E-12[ 0.328E-12, 0.165E-11]  d Energy = 0.8185452E-10-0.809E-10
 d Force =-0.5426754E-06[-0.543E-06,-0.543E-06]  d Ewald  =-0.5426759E-06 0.455E-12

[...]

 eigenvalue-minimisations  :   581
 total energy-change (2. order) :-0.2154366E-09  ( 0.7730442E-15)
 number of electron      16.0000000 magnetization
 augmentation part        0.3762208 magnetization

[...]

 d Force = 0.8105166E-13[ 0.803E-13, 0.818E-13]  d Energy =-0.7503331E-10 0.751E-10
 d Force =-0.1351585E-06[-0.135E-06,-0.135E-06]  d Ewald  =-0.1351577E-06-0.909E-12

[...]

 d Force =-0.5737709E-10[-0.119E-09, 0.439E-11]  d Energy =-0.1198259E-09 0.624E-10
 d Force =-0.7382040E-05[-0.738E-05,-0.738E-05]  d Ewald  =-0.7382040E-05 0.455E-12

[...]

 FEWALD executed in parallel

[...]

 eigenvalue-minimisations  :  6600
 total energy-change (2. order) : 0.1025455E-09  ( 0.2158115E-09)
 number of electron      16.0000000 magnetization
 augmentation part        0.3762208 magnetization

[...]

 eigenvalue-minimisations  :  2562
 total energy-change (2. order) : 0.2492015E-09  (-0.6938704E-12)
 number of electron      16.0000000 magnetization
 augmentation part        0.3762208 magnetization

 Broyden mixing:
  rms(total) = 0.14039E-06    rms(broyden)= 0.14039E-06
  rms(prec ) = 0.15181E-06
  weight for this iteration     100.00

 eigenvalues of (default mixing * dielectric matrix)
  average eigenvalue GAMMA=   1.4079
  2.4271  1.1715  1.0164  1.0164

[...]

----------------------------------------- Iteration    8(   6)  ---------------------------------------

 eigenvalue-minimisations  :  2225
 total energy-change (2. order) :-0.7389644E-10  (-0.1512969E-12)
 number of electron      16.0000000 magnetization
 augmentation part        0.3762208 magnetization

 Free energy of the ion-electron system (eV)
  alpha Z        PSCENC =         6.18334092
  Ewald energy   TEWEN  =      2502.84479736
  -Hartree energ DENC   =     -2996.99858367
  -exchange      EXHF   =         0.00000000
  -V(xc)+E(xc)   XCENC  =        57.29113477
  PAW double counting   =       272.02666112     -277.15259368
  entropy T*S    EENTRO =        -0.00000467
  eigenvalues    EBANDS =      -189.71886266
  atomic energy  EATOM  =       588.62352690
  free energy    TOTEN  =       -36.90058361 eV

  energy without entropy =      -36.90057894  energy(sigma->0) =      -36.90058128

 average (electrostatic) potential at core
  the test charge radii are     0.6991
  (the norm of the test charge is              1.0000)
       1 -58.2653       2 -58.2653       3 -58.2653       4 -58.2653

 E-fermi :  -2.7971     XC(G=0):  -2.1633     alpha+bet : -1.9046

[...]

 k-point   247 :       0.5000    0.5000    0.0000
  band No.  band energies     occupation
      1     -16.9139      2.00000
      2     -16.9139      2.00000
      3     -15.9024      2.00000
      4     -15.9024      2.00000
      5      -9.2514      2.00000
      6      -9.2514      2.00000
      7      -5.0509      2.00000
      8      -5.0509      2.00000
      9      -1.1202      0.00000
     10      -1.1202      0.00000
     11       4.1704      0.00000
     12       4.1704      0.00000

 soft charge-density along one line, spin component           1
         0         1         2         3         4         5         6         7         8         9
 total charge-density along one line

------------------------ aborting loop because EDIFF is reached ----------------------------------------

  FORCE on cell =-STRESS in cart. coord.  units (eV):
  Direction    XX          YY          ZZ          XY          YZ          ZX
  Alpha Z     6.18334     6.18334     6.18334
  Ewald    3036.02439  3037.97442 -3571.15425    -0.00000     0.00000    -0.00000
  Hartree  2973.72047  2974.40350 -2951.12538     0.00000    -0.00000    -0.00000
  E(xc)     -58.10815   -58.12571   -60.44523     0.00000    -0.00000    -0.00000
  Local   -6182.85791 -6185.17322  6316.67328    -0.00000     0.00000    -0.00000
  n-local   -13.37423   -13.87505   -12.59380     0.06283     0.00000    -0.00000
  augment    -1.50283    -1.50442    -1.38847    -0.00000    -0.00000     0.00000
  Kinetic   236.60046   240.11737   273.84915    -4.50827    -0.00000     0.00000
  Fock        0.00000     0.00000     0.00000     0.00000     0.00000     0.00000
  Total      -3.31448     0.00022    -0.00136     0.00000     0.00000     0.00000
  in kB     -25.18703     0.00170    -0.01031     0.00000     0.00000     0.00000

 VOLUME and BASIS-vectors are now :
  energy-cutoff  :     2000.00
  volume of cell :      210.84
      direct lattice vectors                 reciprocal lattice vectors
     4.338001193  0.000000000  0.000000000     0.230520914  0.000000000  0.000000000
     0.000000000  2.460807834  0.000000000     0.000000000  0.406370618  0.000000000
     0.000000000  0.000000000 19.750646543     0.000000000  0.000000000  0.050631254

  length of vectors
     4.338001193  2.460807834 19.750646543     0.230520914  0.406370618  0.050631254

 FORCES acting on ions
    electron-ion (+dipol)            ewald-force                    non-local-force                 convergence-correction
   0.327E+01 0.182E-15 -.131E-08   -.327E+01 -.109E-13 0.679E-18   0.796E-03 0.000E+00 0.404E-27   -.134E-05 0.329E-14 0.183E-11
   -.327E+01 0.202E-12 -.843E-08   0.327E+01 0.348E-14 -.983E-18   -.796E-03 0.000E+00 -.808E-27   0.134E-05 -.553E-14 0.177E-11
   0.327E+01 -.155E-12 -.131E-08   -.327E+01 -.852E-14 0.620E-18   0.796E-03 0.000E+00 0.000E+00   -.134E-05 -.104E-14 0.180E-11
   -.327E+01 0.102E-15 -.845E-08   0.327E+01 0.582E-14 -.317E-18   -.796E-03 0.000E+00 0.000E+00   0.134E-05 -.926E-15 0.185E-11
   -.125E-05 0.469E-13 -.195E-07   -.178E-14 -.101E-13 0.000E+00   -.542E-18 0.000E+00 -.404E-27   -.834E-12 -.421E-14 0.724E-11

 POSITION                                       TOTAL-FORCE (eV/Angst)
      4.33644      0.00000     -0.00000        -0.000000     -0.000000     -0.000000
      0.72456      1.23040      0.00000         0.000000      0.000000      0.000000
      2.16744      1.23040     -0.00000        -0.000000      0.000000     -0.000000
      2.89356     -0.00000      0.00000         0.000000     -0.000000      0.000000
    total drift:                               -0.000001      0.000000     -0.000000

  FREE ENERGIE OF THE ION-ELECTRON SYSTEM (eV)
  free  energy   TOTEN  =       -36.90058361 eV

  energy  without entropy=      -36.90057894  energy(sigma->0) =      -36.90058128

 d Force = 0.5785916E-10[ 0.808E-12, 0.115E-09]  d Energy = 0.2273737E-10 0.351E-10
 d Force = 0.7119905E-05[ 0.712E-05, 0.712E-05]  d Ewald  = 0.7119905E-05 0.455E-12

 Quasi-Newton relaxation of ions (Broydens 2nd method)
  g(Force)  = 0.265E-13   g(Stress)= 0.000E+00

 retain information from N=  1 steps
 eigenvalues of (default step * inverse Hessian matrix)
  average eigenvalue of G=   0.2159
 eigenvalue spectrum of G is  0.2159

 reached required accuracy - stopping structural energy minimisation