 vasp.5.3.5 31Mar14 (build Mar 02 2015 18:14:16) complex

 executed on             LinuxIFC date 2018.08.10  14:45:14

 INCAR:
 POTCAR:   PAW_PBE C 08Apr2002
 POTCAR:   PAW_PBE C 08Apr2002
   VRHFIN =C: s2p2

   TITEL  = PAW_PBE C 08Apr2002
   POMASS =   12.011; ZVAL   =    4.000    mass and valenz
   ENMAX  =  400.000; ENMIN  =  300.000 eV
   QCUT   =   -5.516; QGAM   =   11.032    optimization parameters

   Description
     l     E      TYP  RCUT    TYP  RCUT
     0   .000     23  1.200
     0   .000     23  1.200
     1   .000     23  1.500
     1  2.500     23  1.500
     2   .000      7  1.500

 PAW_PBE C 08Apr2002                    :

 POSCAR: MD-kMC export data
  positions in direct lattice
  velocities in cartesian coordinates
 exchange correlation table for  LEXCH =        8
   RHO(1)=    0.500       N(1)  =     2000
   RHO(2)=  100.500       N(2)  =     4000

 ion  position               nearest neighbor table
   1  1.000  0.000  0.000-   4 1.42   2 1.43   2 1.43
   2  0.167  0.500  0.000-   3 1.42   1 1.43   1 1.43
   3  0.500  0.500  0.000-   2 1.42   4 1.43   4 1.43
   4  0.667  0.000  0.000-   1 1.42   3 1.43   3 1.43

  LATTYP: Found a simple orthorhombic cell.
 ALAT       =     2.4675479872
 B/A-ratio  =     1.7315220925
 C/A-ratio  =     8.1044551987

  Lattice vectors:

 A1 = (   0.0000000000,  -2.4675479872,   0.0000000000)
 A2 = (  -4.2726138541,   0.0000000000,   0.0000000000)
 A3 = (   0.0000000000,   0.0000000000, -19.9981321128)

Analysis of symmetry for initial positions (statically):
 Subroutine PRICEL returns following result:

  LATTYP: Found a base centered orthorhombic cell.
 ALAT       =     2.4675479872
 B/A-ratio  =     1.7315220925
 C/A-ratio  =     8.1044551987

[...]

   2 primitive cells build up your supercell.

 Routine SETGRP: Setting up the symmetry group for a
 simple orthorhombic supercell.

 Subroutine GETGRP returns: Found  8 space group operations
 (whereof  4 operations were pure point group operations)
 out of a pool of  8 trial point group operations.

The static configuration has the point symmetry C_2v.
 The point group associated with its full space group is D_2h.

Analysis of symmetry for dynamics (positions and initial velocities):
 Subroutine PRICEL returns following result:

  LATTYP: Found a base centered orthorhombic cell.
 ALAT       =     2.4675479872
 B/A-ratio  =     1.7315220925
 C/A-ratio  =     8.1044551987

  Lattice vectors:

 A1 = (   2.1363069271,  -1.2337739936,   0.0000000000)
 A2 = (  -2.1363069271,  -1.2337739936,   0.0000000000)
 A3 = (   0.0000000000,   0.0000000000, -19.9981321128)

   2 primitive cells build up your supercell.

 Routine SETGRP: Setting up the symmetry group for a
 simple orthorhombic supercell.

 Subroutine GETGRP returns: Found  8 space group operations
 (whereof  4 operations were pure point group operations)
 out of a pool of  8 trial point group operations.

The dynamic configuration has the point symmetry C_2v.
 The point group associated with its full space group is D_2h.

 KPOINTS: Automatic mesh

Automatic generation of k-mesh.
Space group operators:
 irot       det(A)        alpha          n_x          n_y          n_z        tau_x        tau_y        tau_z
    1     1.000000     0.000000     1.000000     0.000000     0.000000     0.000000     0.000000     0.000000
    2    -1.000000   180.000000     0.000000     0.000000     1.000000     0.000000     0.000000     0.000000
    3     1.000000   179.999999     1.000000     0.000000     0.000000     0.000000     0.000000     0.000000
    4    -1.000000   180.000000     0.000000     1.000000     0.000000     0.000000     0.000000     0.000000
    5    -1.000000     0.000000     1.000000     0.000000     0.000000     0.166667    -0.500000     0.000000
    6     1.000000   180.000000     0.000000     0.000000     1.000000     0.166667    -0.500000     0.000000
    7    -1.000000   179.999999     1.000000     0.000000     0.000000     0.166667    -0.500000     0.000000
    8     1.000000   180.000000     0.000000     1.000000     0.000000     0.166667    -0.500000     0.000000

 Subroutine IBZKPT returns following result:

 Found    247 irreducible k-points:

 Following reciprocal coordinates:
            Coordinates               Weight
  0.000000  0.000000  0.000000      1.000000
  0.041667  0.000000  0.000000      2.000000
  0.083333  0.000000  0.000000      2.000000
  0.125000  0.000000  0.000000      2.000000
  0.166667  0.000000  0.000000      2.000000
  0.208333  0.000000  0.000000      2.000000
  0.250000  0.000000  0.000000      2.000000
  0.291667  0.000000  0.000000      2.000000
  0.333333  0.000000  0.000000      2.000000
  0.375000  0.000000  0.000000      2.000000
  0.416667  0.000000  0.000000      2.000000
  0.458333  0.000000  0.000000      2.000000
  0.500000  0.000000  0.000000      1.000000
  0.000000  0.027778  0.000000      2.000000
  0.041667  0.027778  0.000000      4.000000
  0.083333  0.027778  0.000000      4.000000
  0.125000  0.027778  0.000000      4.000000
  0.166667  0.027778  0.000000      4.000000
  0.208333  0.027778  0.000000      4.000000
  0.250000  0.027778  0.000000      4.000000
  0.291667  0.027778  0.000000      4.000000
  0.333333  0.027778  0.000000      4.000000
  0.375000  0.027778  0.000000      4.000000
  0.416667  0.027778  0.000000      4.000000
  0.458333  0.027778  0.000000      4.000000
  0.500000  0.027778  0.000000      2.000000
  0.000000  0.055556  0.000000      2.000000
  0.041667  0.055556  0.000000      4.000000
  0.083333  0.055556  0.000000      4.000000
  0.125000  0.055556  0.000000      4.000000
  0.166667  0.055556  0.000000      4.000000
  0.208333  0.055556  0.000000      4.000000
  0.250000  0.055556  0.000000      4.000000
  0.291667  0.055556  0.000000      4.000000
  0.333333  0.055556  0.000000      4.000000
  0.375000  0.055556  0.000000      4.000000
  0.416667  0.055556  0.000000      4.000000
  0.458333  0.055556  0.000000      4.000000
  0.500000  0.055556  0.000000      2.000000
  0.000000  0.083333  0.000000      2.000000
  0.041667  0.083333  0.000000      4.000000
  0.083333  0.083333  0.000000      4.000000
  0.125000  0.083333  0.000000      4.000000
  0.166667  0.083333  0.000000      4.000000
  0.208333  0.083333  0.000000      4.000000
  0.250000  0.083333  0.000000      4.000000
  0.291667  0.083333  0.000000      4.000000
  0.333333  0.083333  0.000000      4.000000
  0.375000  0.083333  0.000000      4.000000
  0.416667  0.083333  0.000000      4.000000
  0.458333  0.083333  0.000000      4.000000
  0.500000  0.083333  0.000000      2.000000
  0.000000  0.111111  0.000000      2.000000
  0.041667  0.111111  0.000000      4.000000
  0.083333  0.111111  0.000000      4.000000
  0.125000  0.111111  0.000000      4.000000
  0.166667  0.111111  0.000000      4.000000
  0.208333  0.111111  0.000000      4.000000
  0.250000  0.111111  0.000000      4.000000
  0.291667  0.111111  0.000000      4.000000
[...]
  0.458333  0.472222  0.000000      4.000000
  0.500000  0.472222  0.000000      2.000000
  0.000000  0.500000  0.000000      1.000000
  0.041667  0.500000  0.000000      2.000000
  0.083333  0.500000  0.000000      2.000000
  0.125000  0.500000  0.000000      2.000000
  0.166667  0.500000  0.000000      2.000000
  0.208333  0.500000  0.000000      2.000000
  0.250000  0.500000  0.000000      2.000000
  0.291667  0.500000  0.000000      2.000000
  0.333333  0.500000  0.000000      2.000000
  0.375000  0.500000  0.000000      2.000000
  0.416667  0.500000  0.000000      2.000000
  0.458333  0.500000  0.000000      2.000000
  0.500000  0.500000  0.000000      1.000000

 Following cartesian coordinates:
            Coordinates               Weight
  0.000000  0.000000  0.000000      1.000000
  0.009752  0.000000  0.000000      2.000000
  0.019504  0.000000  0.000000      2.000000
  0.029256  0.000000  0.000000      2.000000
  0.039008  0.000000  0.000000      2.000000
  0.048760  0.000000  0.000000      2.000000
  0.058512  0.000000  0.000000      2.000000
  0.068264  0.000000  0.000000      2.000000
  0.078016  0.000000  0.000000      2.000000
  0.087768  0.000000  0.000000      2.000000
  0.097520  0.000000  0.000000      2.000000
  0.107272  0.000000  0.000000      2.000000
  0.117024  0.000000  0.000000      1.000000
  0.000000  0.011257  0.000000      2.000000
  0.009752  0.011257  0.000000      4.000000
  0.019504  0.011257  0.000000      4.000000
  0.029256  0.011257  0.000000      4.000000
  0.039008  0.011257  0.000000      4.000000
  0.048760  0.011257  0.000000      4.000000
  0.058512  0.011257  0.000000      4.000000
  0.068264  0.011257  0.000000      4.000000
  0.078016  0.011257  0.000000      4.000000
  0.087768  0.011257  0.000000      4.000000
  0.097520  0.011257  0.000000      4.000000
  0.107272  0.011257  0.000000      4.000000
  0.117024  0.011257  0.000000      2.000000
  0.000000  0.022514  0.000000      2.000000
  0.009752  0.022514  0.000000      4.000000
  0.019504  0.022514  0.000000      4.000000
  0.029256  0.022514  0.000000      4.000000
  0.039008  0.022514  0.000000      4.000000
  0.048760  0.022514  0.000000      4.000000
  0.058512  0.022514  0.000000      4.000000
  0.068264  0.022514  0.000000      4.000000
  0.078016  0.022514  0.000000      4.000000
  0.087768  0.022514  0.000000      4.000000
  0.097520  0.022514  0.000000      4.000000
  0.107272  0.022514  0.000000      4.000000
  0.117024  0.022514  0.000000      2.000000
  0.000000  0.033772  0.000000      2.000000
  0.009752  0.033772  0.000000      4.000000
  0.019504  0.033772  0.000000      4.000000
  0.029256  0.033772  0.000000      4.000000
  0.039008  0.033772  0.000000      4.000000
  0.048760  0.033772  0.000000      4.000000
  0.058512  0.033772  0.000000      4.000000
  0.068264  0.033772  0.000000      4.000000
  0.078016  0.033772  0.000000      4.000000
  0.087768  0.033772  0.000000      4.000000
  0.097520  0.033772  0.000000      4.000000
  0.107272  0.033772  0.000000      4.000000
  0.117024  0.033772  0.000000      2.000000
  0.000000  0.045029  0.000000      2.000000
  0.009752  0.045029  0.000000      4.000000
  0.019504  0.045029  0.000000      4.000000
  0.029256  0.045029  0.000000      4.000000
  0.039008  0.045029  0.000000      4.000000
  0.048760  0.045029  0.000000      4.000000
  0.058512  0.045029  0.000000      4.000000
  0.068264  0.045029  0.000000      4.000000
[...]
  0.107272  0.191373  0.000000      4.000000
  0.117024  0.191373  0.000000      2.000000
  0.000000  0.202630  0.000000      1.000000
  0.009752  0.202630  0.000000      2.000000
  0.019504  0.202630  0.000000      2.000000
  0.029256  0.202630  0.000000      2.000000
  0.039008  0.202630  0.000000      2.000000
  0.048760  0.202630  0.000000      2.000000
  0.058512  0.202630  0.000000      2.000000
  0.068264  0.202630  0.000000      2.000000
  0.078016  0.202630  0.000000      2.000000
  0.087768  0.202630  0.000000      2.000000
  0.097520  0.202630  0.000000      2.000000
  0.107272  0.202630  0.000000      2.000000
  0.117024  0.202630  0.000000      1.000000

 I would recommend the setting:
   dimension x,y,z NGX =    62 NGY =   36 NGZ =  292
[...]
 k-point ** :   0.5000 0.2222 0.0000  plane waves:   42796
 k-point ** :   0.0000 0.2500 0.0000  plane waves:   42878
 k-point ** :   0.0417 0.2500 0.0000  plane waves:   42889
 k-point ** :   0.0833 0.2500 0.0000  plane waves:   42867
 k-point ** :   0.1250 0.2500 0.0000  plane waves:   42877
 k-point ** :   0.1667 0.2500 0.0000  plane waves:   42861
 k-point ** :   0.2083 0.2500 0.0000  plane waves:   42830
 k-point ** :   0.2500 0.2500 0.0000  plane waves:   42809
 k-point ** :   0.2917 0.2500 0.0000  plane waves:   42809
 k-point ** :   0.3333 0.2500 0.0000  plane waves:   42822
 k-point ** :   0.3750 0.2500 0.0000  plane waves:   42818
 k-point ** :   0.4167 0.2500 0.0000  plane waves:   42818
 k-point ** :   0.4583 0.2500 0.0000  plane waves:   42804
 k-point ** :   0.5000 0.2500 0.0000  plane waves:   42818
 k-point ** :   0.0000 0.2778 0.0000  plane waves:   42888
 k-point ** :   0.0417 0.2778 0.0000  plane waves:   42886
 k-point ** :   0.0833 0.2778 0.0000  plane waves:   42877
 k-point ** :   0.1250 0.2778 0.0000  plane waves:   42870
 k-point ** :   0.1667 0.2778 0.0000  plane waves:   42875
 k-point ** :   0.2083 0.2778 0.0000  plane waves:   42863
 k-point ** :   0.2500 0.2778 0.0000  plane waves:   42839
 k-point ** :   0.2917 0.2778 0.0000  plane waves:   42840
 k-point ** :   0.3333 0.2778 0.0000  plane waves:   42814
 k-point ** :   0.3750 0.2778 0.0000  plane waves:   42823
 k-point ** :   0.4167 0.2778 0.0000  plane waves:   42812
 k-point ** :   0.4583 0.2778 0.0000  plane waves:   42818
 k-point ** :   0.5000 0.2778 0.0000  plane waves:   42830
 k-point ** :   0.0000 0.3056 0.0000  plane waves:   42886
 k-point ** :   0.0417 0.3056 0.0000  plane waves:   42910
 k-point ** :   0.0833 0.3056 0.0000  plane waves:   42873
 k-point ** :   0.1250 0.3056 0.0000  plane waves:   42857
 k-point ** :   0.1667 0.3056 0.0000  plane waves:   42884
 k-point ** :   0.2083 0.3056 0.0000  plane waves:   42857
 k-point ** :   0.2500 0.3056 0.0000  plane waves:   42845
 k-point ** :   0.2917 0.3056 0.0000  plane waves:   42836
 k-point ** :   0.3333 0.3056 0.0000  plane waves:   42842
 k-point ** :   0.3750 0.3056 0.0000  plane waves:   42830
 k-point ** :   0.4167 0.3056 0.0000  plane waves:   42812
 k-point ** :   0.4583 0.3056 0.0000  plane waves:   42818
 k-point ** :   0.5000 0.3056 0.0000  plane waves:   42856
 k-point ** :   0.0000 0.3333 0.0000  plane waves:   42916
 k-point ** :   0.0417 0.3333 0.0000  plane waves:   42899
 k-point ** :   0.0833 0.3333 0.0000  plane waves:   42881
[...]
 k-point ** :   0.4583 0.4722 0.0000  plane waves:   42813
 k-point ** :   0.5000 0.4722 0.0000  plane waves:   42842
 k-point ** :   0.0000 0.5000 0.0000  plane waves:   42886
 k-point ** :   0.0417 0.5000 0.0000  plane waves:   42944
 k-point ** :   0.0833 0.5000 0.0000  plane waves:   42932
 k-point ** :   0.1250 0.5000 0.0000  plane waves:   42922
 k-point ** :   0.1667 0.5000 0.0000  plane waves:   42910
 k-point ** :   0.2083 0.5000 0.0000  plane waves:   42950
 k-point ** :   0.2500 0.5000 0.0000  plane waves:   42932
 k-point ** :   0.2917 0.5000 0.0000  plane waves:   42880
 k-point ** :   0.3333 0.5000 0.0000  plane waves:   42850
 k-point ** :   0.3750 0.5000 0.0000  plane waves:   42826
 k-point ** :   0.4167 0.5000 0.0000  plane waves:   42804
 k-point ** :   0.4583 0.5000 0.0000  plane waves:   42830
 k-point ** :   0.5000 0.5000 0.0000  plane waves:   42816

 maximum and minimum number of plane-waves per node :     21511    21248

 maximum number of plane-waves:     42950
 maximum index in each direction:
   IXMAX=   15   IYMAX=    8   IZMAX=   72
   IXMIN=  -16   IYMIN=   -9   IZMIN=  -72

 NGX is ok and might be reduce to  64
 NGY is ok and might be reduce to  36
 NGZ is ok and might be reduce to 290

 parallel 3D FFT for wavefunctions:
    minimum data exchange during FFTs selected (reduces bandwidth)
 parallel 3D FFT for charge:
    minimum data exchange during FFTs selected (reduces bandwidth)

 Broyden mixing: mesh for mixing (old mesh)
   NGX = 31   NGY = 17   NGZ =145
  (NGX  =128   NGY  = 72   NGZ  =588)
  gives a total of  76415 points

 initial charge density was supplied:
 charge density of overlapping atoms calculated
 number of electron      16.0000000 magnetization
 keeping initial charge density in first step

 Maximum index for augmentation-charges         4659 (set IRDMAX)

 First call to EWALD:  gamma=   0.298
 Maximum number of real-space cells 4x 6x 1
 Maximum number of reciprocal cells 2x 1x 8

 FEWALD executed in parallel

----------------------------------------- Iteration    1(   1)  ---------------------------------------

 eigenvalue-minimisations  :  5928
 total energy-change (2. order) : 0.1912864E+03  (-0.1060268E+04)
 number of electron      16.0000000 magnetization
 augmentation part       16.0000000 magnetization

 Free energy of the ion-electron system (eV)
  alpha Z        PSCENC =         6.18334092
  Ewald energy   TEWEN  =      2586.23166568
  -Hartree energ DENC   =     -3011.63093947
  -exchange      EXHF   =         0.00000000
  -V(xc)+E(xc)   XCENC  =        55.09638153
  PAW double counting   =       151.32577238     -155.92769107
  entropy T*S    EENTRO =        -0.00147770
  eigenvalues    EBANDS =       -28.61414793
  atomic energy  EATOM  =       588.62352690
  free energy    TOTEN  =       191.28643125 eV

  energy without entropy =      191.28790895  energy(sigma->0) =      191.28717010

[...]

 eigenvalue-minimisations  : 10576
 total energy-change (2. order) :-0.2006010E+03  (-0.1790457E+03)
 number of electron      16.0000000 magnetization
 augmentation part       16.0000000 magnetization

[...]

 Broyden mixing:
  rms(total) = 0.73761E+00    rms(broyden)= 0.73761E+00
  rms(prec ) = 0.80201E+00
  weight for this iteration     100.00

[...]

 eigenvalues of (default mixing * dielectric matrix)
  average eigenvalue GAMMA=   2.3070
  2.3070

[...]

 average (electrostatic) potential at core
  the test charge radii are     0.6991
  (the norm of the test charge is              1.0000)
       1 -58.1896       2 -58.1896       3 -58.1896       4 -58.1896

 E-fermi :  -2.7538     XC(G=0):  -2.1440     alpha+bet : -1.9046

 k-point     1 :       0.0000    0.0000    0.0000
  band No.  band energies     occupation
      1     -22.2536      2.00000
      2     -17.0130      2.00000
      3     -15.9826      2.00000
      4     -10.3589      2.00000
      5      -9.1545      2.00000
      6      -5.8013      2.00000
      7      -5.7704      2.00000
      8      -5.1001      2.00000
      9      -1.0879      0.00000
     10       0.5238      0.00000
     11       1.3246      0.00000
     12       1.7039      0.00000

[...]

 soft charge-density along one line, spin component           1
         0         1         2         3         4         5         6         7         8         9
 total charge-density along one line

------------------------ aborting loop because EDIFF is reached ----------------------------------------

  FORCE on cell =-STRESS in cart. coord.  units (eV):
  Direction    XX          YY          ZZ          XY          YZ          ZX
  Alpha Z     6.18334     6.18334     6.18334
  Ewald    3124.23476  3123.20831 -3661.21168    -0.00000     0.00000     0.00000
  Hartree  3057.59115  3057.44331 -3034.85609     0.00000    -0.00000    -0.00000
  E(xc)     -58.33757   -58.34103   -60.67837     0.00000    -0.00000     0.00000
  Local   -6354.17613 -6353.19831  6489.90960    -0.00000     0.00000     0.00000
  n-local   -13.94850   -13.94771   -12.76720     0.05565     0.00000    -0.00000
  augment    -1.54261    -1.54095    -1.41438    -0.00000     0.00000    -0.00000
  Kinetic   240.05265   240.14758   274.83346    -4.59834    -0.00000     0.00000
  Fock        0.00000     0.00000     0.00000     0.00000     0.00000     0.00000
  Total       0.05710    -0.04546    -0.00131     0.00000     0.00000     0.00000
  in kB       0.43391    -0.34544    -0.00998     0.00000     0.00000     0.00000

 VOLUME and BASIS-vectors are now :
  energy-cutoff  :     2000.00
  volume of cell :      210.84
      direct lattice vectors                 reciprocal lattice vectors
     4.272613854  0.000000000  0.000000000     0.234048766  0.000000000  0.000000000
     0.000000000  2.467547987  0.000000000     0.000000000  0.405260609  0.000000000
     0.000000000  0.000000000 19.998132113     0.000000000  0.000000000  0.050004670

[...]

 FORCES acting on ions
    electron-ion (+dipol)            ewald-force                    non-local-force                 convergence-correction
   -.221E+00 0.127E-16 -.317E-09   0.259E+00 0.285E-14 0.000E+00   0.211E-01 0.347E-17 0.000E+00   -.197E-06 0.339E-14 0.172E-12
   0.221E+00 0.124E-13 -.580E-08   -.259E+00 0.297E-14 0.124E-18   -.211E-01 -.347E-17 -.517E-25   0.197E-06 0.534E-14 0.195E-12
   -.221E+00 -.204E-12 -.351E-09   0.259E+00 -.774E-15 0.000E+00   0.211E-01 0.347E-17 -.969E-26   -.197E-06 0.320E-14 0.171E-12
   0.221E+00 -.765E-15 -.583E-08   -.259E+00 -.656E-15 -.124E-18   -.211E-01 -.347E-17 -.517E-25   0.197E-06 0.573E-14 0.194E-12
   -.480E-06 -.192E-12 -.123E-07   -.444E-15 0.438E-14 0.000E+00   0.139E-16 0.000E+00 -.113E-24   0.370E-12 0.177E-13 0.733E-12

 POSITION                                       TOTAL-FORCE (eV/Angst)
      4.27208      0.00000      0.00000         0.059280      0.000000      0.000000
      0.71264      1.23377      0.00000        -0.059280      0.000000     -0.000000
      2.13577      1.23377      0.00000         0.059280     -0.000000      0.000000
      2.84895      0.00000      0.00000        -0.059280      0.000000     -0.000000
    total drift:                               -0.000000     -0.000000     -0.000000

  FREE ENERGIE OF THE ION-ELECTRON SYSTEM (eV)
  free  energy   TOTEN  =       -36.92541579 eV

  energy  without entropy=      -36.92528952  energy(sigma->0) =      -36.92535265

 Quasi-Newton relaxation of ions (Broydens 2nd method)
  g(Force)  = 0.678E-03   g(Stress)= 0.000E+00

 Reset! Starting new Quasi-Newton update for ions

[...]

WARNING in EDDRMM: call to ZHEGV failed, returncode =   6  3  1

[...]

 d Force =-0.1017258E-02[-0.271E-02, 0.678E-03]  d Energy =-0.1017652E-02 0.394E-06
 d Force =-0.2817234E-02[-0.859E-02, 0.296E-02]  d Ewald  =-0.2835967E-02 0.187E-04

[...]

 retain information from N=  1 steps
 eigenvalues of (default step * inverse Hessian matrix)
  average eigenvalue of G=   0.2000
 eigenvalue spectrum of G is  0.2000

[...]

WARNING in EDDRMM: call to ZHEGV failed, returncode =   6  3  1

[...]

 d Force = 0.1085731E-02[ 0.132E-05, 0.217E-02]  d Energy = 0.1085244E-02 0.487E-06
 d Force = 0.3185139E-02[-0.504E-03, 0.687E-02]  d Ewald  = 0.3194727E-02-0.959E-05

[...]

 FEWALD executed in parallel

[...]

 eigenvalue-minimisations  :  2864
 total energy-change (2. order) :-0.1413127E-09  (-0.5466285E-12)
 number of electron      16.0000000 magnetization
 augmentation part        0.3818452 magnetization

 Broyden mixing:
  rms(total) = 0.49447E-07    rms(broyden)= 0.49447E-07
  rms(prec ) = 0.51546E-07
  weight for this iteration     100.00

 eigenvalues of (default mixing * dielectric matrix)
  average eigenvalue GAMMA=   1.4921
  2.5879  1.6560  1.6560  0.9989  0.5620

[...]

----------------------------------------- Iteration    4(   7)  ---------------------------------------

 eigenvalue-minimisations  :  2407
 total energy-change (2. order) : 0.1000444E-10  (-0.2461795E-12)
 number of electron      16.0000000 magnetization
 augmentation part        0.3818452 magnetization

 Free energy of the ion-electron system (eV)
  alpha Z        PSCENC =         6.18334092
  Ewald energy   TEWEN  =      2586.23130723
  -Hartree energ DENC   =     -3080.17807486
  -exchange      EXHF   =         0.00000000
  -V(xc)+E(xc)   XCENC  =        57.52090179
  PAW double counting   =       277.04286725     -282.19156455
  entropy T*S    EENTRO =        -0.00013047
  eigenvalues    EBANDS =      -190.15765759
  atomic energy  EATOM  =       588.62352690
  free energy    TOTEN  =       -36.92548338 eV

  energy without entropy =      -36.92535291  energy(sigma->0) =      -36.92541814

 average (electrostatic) potential at core
  the test charge radii are     0.6991
  (the norm of the test charge is              1.0000)
       1 -58.1896       2 -58.1896       3 -58.1896       4 -58.1896

 E-fermi :  -2.7538     XC(G=0):  -2.1422     alpha+bet : -1.9046

[...]

 k-point   247 :       0.5000    0.5000    0.0000
  band No.  band energies     occupation
      1     -17.0218      2.00000
      2     -17.0218      2.00000
      3     -15.9730      2.00000
      4     -15.9730      2.00000
      5      -9.1565      2.00000
      6      -9.1565      2.00000
      7      -5.1116      2.00000
      8      -5.1116      2.00000
      9      -1.0754      0.00000
     10      -1.0754      0.00000
     11       4.6118      0.00000
     12       4.6118      0.00000

 soft charge-density along one line, spin component           1
         0         1         2         3         4         5         6         7         8         9
 total charge-density along one line

------------------------ aborting loop because EDIFF is reached ----------------------------------------

  FORCE on cell =-STRESS in cart. coord.  units (eV):
  Direction    XX          YY          ZZ          XY          YZ          ZX
  Alpha Z     6.18334     6.18334     6.18334
  Ewald    3123.73449  3123.70822 -3661.21168    -0.00000     0.00000    -0.00000
  Hartree  3057.52220  3057.51194 -3034.85607    -0.00000    -0.00000    -0.00000
  E(xc)     -58.33945   -58.33912   -60.67836     0.00000    -0.00000    -0.00000
  Local   -6353.70291 -6353.67113  6489.90967    -0.00000     0.00000    -0.00000
  n-local   -13.95252   -13.94370   -12.76718     0.05632     0.00000     0.00000
  augment    -1.54181    -1.54174    -1.41437     0.00000     0.00000     0.00000
  Kinetic   240.13127   240.06870   274.83332    -4.60088    -0.00000    -0.00000
  Fock        0.00000     0.00000     0.00000     0.00000     0.00000     0.00000
  Total       0.03462    -0.02347    -0.00132     0.00000     0.00000     0.00000
  in kB       0.26305    -0.17838    -0.01006     0.00000     0.00000     0.00000

 VOLUME and BASIS-vectors are now :
  energy-cutoff  :     2000.00
  volume of cell :      210.84
      direct lattice vectors                 reciprocal lattice vectors
     4.272613854  0.000000000  0.000000000     0.234048766  0.000000000  0.000000000
     0.000000000  2.467547987  0.000000000     0.000000000  0.405260609  0.000000000
     0.000000000  0.000000000 19.998132113     0.000000000  0.000000000  0.050004670

  length of vectors
     4.272613854  2.467547987 19.998132113     0.234048766  0.405260609  0.050004670

 FORCES acting on ions
    electron-ion (+dipol)            ewald-force                    non-local-force                 convergence-correction
   -.555E-01 0.831E-16 0.482E-10   0.556E-01 0.251E-14 0.137E-18   -.141E-03 0.104E-16 0.000E+00   0.242E-06 0.173E-14 -.356E-12
   0.555E-01 0.268E-13 -.514E-08   -.556E-01 0.609E-14 -.881E-19   0.141E-03 -.139E-16 0.000E+00   -.242E-06 -.173E-14 -.361E-12
   -.555E-01 -.155E-12 0.373E-10   0.556E-01 -.390E-14 -.111E-17   -.141E-03 0.347E-17 0.000E+00   0.242E-06 0.151E-14 -.345E-12
   0.555E-01 0.318E-16 -.514E-08   -.556E-01 -.321E-15 0.106E-17   0.141E-03 -.139E-16 0.000E+00   -.242E-06 -.153E-14 -.339E-12
   -.455E-06 -.128E-12 -.102E-07   -.437E-15 0.438E-14 0.000E+00   -.542E-19 -.139E-16 0.000E+00   -.945E-13 -.284E-16 -.140E-11

 POSITION                                       TOTAL-FORCE (eV/Angst)
      4.27265      0.00000     -0.00000         0.000001      0.000000      0.000000
      0.71207      1.23377      0.00000        -0.000001      0.000000     -0.000000
      2.13634      1.23377     -0.00000         0.000001      0.000000      0.000000
      2.84838      0.00000      0.00000        -0.000001     -0.000000     -0.000000
    total drift:                               -0.000000     -0.000000     -0.000000

  FREE ENERGIE OF THE ION-ELECTRON SYSTEM (eV)
  free  energy   TOTEN  =       -36.92548338 eV

  energy  without entropy=      -36.92535291  energy(sigma->0) =      -36.92541814

 d Force = 0.4012095E-09[-0.447E-11, 0.807E-09]  d Energy = 0.3410605E-09 0.601E-10
 d Force =-0.3090289E-06[-0.310E-06,-0.308E-06]  d Ewald  =-0.3090295E-06 0.455E-12

 Quasi-Newton relaxation of ions (Broydens 2nd method)
  g(Force)  = 0.124E-12   g(Stress)= 0.000E+00

 retain information from N=  1 steps
 eigenvalues of (default step * inverse Hessian matrix)
  average eigenvalue of G=   0.1990
 eigenvalue spectrum of G is  0.1990

 reached required accuracy - stopping structural energy minimisation