 vasp.5.3.5 31Mar14 (build Mar 02 2015 18:14:16) complex

 executed on             LinuxIFC date 2018.08.11  01:21:39

 INCAR:
 POTCAR:   PAW_PBE C 08Apr2002
 POTCAR:   PAW_PBE C 08Apr2002
   VRHFIN =C: s2p2

   TITEL  = PAW_PBE C 08Apr2002
   POMASS =   12.011; ZVAL   =    4.000    mass and valenz
   ENMAX  =  400.000; ENMIN  =  300.000 eV
   QCUT   =   -5.516; QGAM   =   11.032    optimization parameters

   Description
     l     E      TYP  RCUT    TYP  RCUT
     0   .000     23  1.200
     0   .000     23  1.200
     1   .000     23  1.500
     1  2.500     23  1.500
     2   .000      7  1.500

 PAW_PBE C 08Apr2002                    :

 POSCAR: MD-kMC export data
  positions in direct lattice
  velocities in cartesian coordinates
 exchange correlation table for  LEXCH =        8
   RHO(1)=    0.500       N(1)  =     2000
   RHO(2)=  100.500       N(2)  =     4000

 ion  position               nearest neighbor table
   1  0.999  0.000  0.000-   2 1.43   2 1.43   4 1.46
   2  0.167  0.500  0.000-   1 1.43   1 1.43   3 1.46
   3  0.499  0.500  0.000-   4 1.43   4 1.43   2 1.46
   4  0.667  0.000  0.000-   3 1.43   3 1.43   1 1.46

  LATTYP: Found a simple orthorhombic cell.
 ALAT       =     2.4554405841
 B/A-ratio  =     1.7925358908
 C/A-ratio  =     7.9449750131

  Lattice vectors:

 A1 = (   0.0000000000,  -2.4554405841,   0.0000000000)
 A2 = (  -4.4014653747,   0.0000000000,   0.0000000000)
 A3 = (   0.0000000000,   0.0000000000, -19.5084140866)

Analysis of symmetry for initial positions (statically):
 Subroutine PRICEL returns following result:

  LATTYP: Found a base centered orthorhombic cell.
 ALAT       =     2.4554405841
 B/A-ratio  =     1.7925358908
 C/A-ratio  =     7.9449750131

[...]

   2 primitive cells build up your supercell.

 Routine SETGRP: Setting up the symmetry group for a
 simple orthorhombic supercell.

 Subroutine GETGRP returns: Found  8 space group operations
 (whereof  4 operations were pure point group operations)
 out of a pool of  8 trial point group operations.

The static configuration has the point symmetry C_2v.
 The point group associated with its full space group is D_2h.

Analysis of symmetry for dynamics (positions and initial velocities):
 Subroutine PRICEL returns following result:

  LATTYP: Found a base centered orthorhombic cell.
 ALAT       =     2.4554405841
 B/A-ratio  =     1.7925358908
 C/A-ratio  =     7.9449750131

  Lattice vectors:

 A1 = (   2.2007326874,  -1.2277202920,   0.0000000000)
 A2 = (  -2.2007326874,  -1.2277202920,   0.0000000000)
 A3 = (   0.0000000000,   0.0000000000, -19.5084140866)

   2 primitive cells build up your supercell.

 Routine SETGRP: Setting up the symmetry group for a
 simple orthorhombic supercell.

 Subroutine GETGRP returns: Found  8 space group operations
 (whereof  4 operations were pure point group operations)
 out of a pool of  8 trial point group operations.

The dynamic configuration has the point symmetry C_2v.
 The point group associated with its full space group is D_2h.

 KPOINTS: Automatic mesh

Automatic generation of k-mesh.
Space group operators:
 irot       det(A)        alpha          n_x          n_y          n_z        tau_x        tau_y        tau_z
    1     1.000000     0.000001     1.000000     0.000000     0.000000     0.000000     0.000000     0.000000
    2    -1.000000   179.999999     0.000000     0.000000     1.000000     0.000000     0.000000     0.000000
    3     1.000000   180.000000     1.000000     0.000000     0.000000     0.000000     0.000000     0.000000
    4    -1.000000   179.999999     0.000000     1.000000     0.000000     0.000000     0.000000     0.000000
    5    -1.000000     0.000001     1.000000     0.000000     0.000000     0.166667    -0.500000     0.000000
    6     1.000000   179.999999     0.000000     0.000000     1.000000     0.166667    -0.500000     0.000000
    7    -1.000000   180.000000     1.000000     0.000000     0.000000     0.166667    -0.500000     0.000000
    8     1.000000   179.999999     0.000000     1.000000     0.000000     0.166667    -0.500000     0.000000

 Subroutine IBZKPT returns following result:

 Found    247 irreducible k-points:

 Following reciprocal coordinates:
            Coordinates               Weight
  0.000000  0.000000  0.000000      1.000000
  0.041667  0.000000  0.000000      2.000000
  0.083333  0.000000  0.000000      2.000000
  0.125000  0.000000  0.000000      2.000000
  0.166667  0.000000  0.000000      2.000000
  0.208333  0.000000  0.000000      2.000000
  0.250000  0.000000  0.000000      2.000000
  0.291667  0.000000  0.000000      2.000000
  0.333333  0.000000  0.000000      2.000000
  0.375000  0.000000  0.000000      2.000000
  0.416667  0.000000  0.000000      2.000000
  0.458333  0.000000  0.000000      2.000000
  0.500000  0.000000  0.000000      1.000000
  0.000000  0.027778  0.000000      2.000000
  0.041667  0.027778  0.000000      4.000000
  0.083333  0.027778  0.000000      4.000000
  0.125000  0.027778  0.000000      4.000000
  0.166667  0.027778  0.000000      4.000000
  0.208333  0.027778  0.000000      4.000000
  0.250000  0.027778  0.000000      4.000000
  0.291667  0.027778  0.000000      4.000000
  0.333333  0.027778  0.000000      4.000000
  0.375000  0.027778  0.000000      4.000000
  0.416667  0.027778  0.000000      4.000000
  0.458333  0.027778  0.000000      4.000000
  0.500000  0.027778  0.000000      2.000000
  0.000000  0.055556  0.000000      2.000000
  0.041667  0.055556  0.000000      4.000000
  0.083333  0.055556  0.000000      4.000000
  0.125000  0.055556  0.000000      4.000000
  0.166667  0.055556  0.000000      4.000000
  0.208333  0.055556  0.000000      4.000000
  0.250000  0.055556  0.000000      4.000000
  0.291667  0.055556  0.000000      4.000000
  0.333333  0.055556  0.000000      4.000000
  0.375000  0.055556  0.000000      4.000000
  0.416667  0.055556  0.000000      4.000000
  0.458333  0.055556  0.000000      4.000000
  0.500000  0.055556  0.000000      2.000000
  0.000000  0.083333  0.000000      2.000000
  0.041667  0.083333  0.000000      4.000000
  0.083333  0.083333  0.000000      4.000000
  0.125000  0.083333  0.000000      4.000000
  0.166667  0.083333  0.000000      4.000000
  0.208333  0.083333  0.000000      4.000000
  0.250000  0.083333  0.000000      4.000000
  0.291667  0.083333  0.000000      4.000000
  0.333333  0.083333  0.000000      4.000000
  0.375000  0.083333  0.000000      4.000000
  0.416667  0.083333  0.000000      4.000000
  0.458333  0.083333  0.000000      4.000000
  0.500000  0.083333  0.000000      2.000000
  0.000000  0.111111  0.000000      2.000000
  0.041667  0.111111  0.000000      4.000000
  0.083333  0.111111  0.000000      4.000000
  0.125000  0.111111  0.000000      4.000000
  0.166667  0.111111  0.000000      4.000000
  0.208333  0.111111  0.000000      4.000000
  0.250000  0.111111  0.000000      4.000000
  0.291667  0.111111  0.000000      4.000000
[...]
  0.458333  0.472222  0.000000      4.000000
  0.500000  0.472222  0.000000      2.000000
  0.000000  0.500000  0.000000      1.000000
  0.041667  0.500000  0.000000      2.000000
  0.083333  0.500000  0.000000      2.000000
  0.125000  0.500000  0.000000      2.000000
  0.166667  0.500000  0.000000      2.000000
  0.208333  0.500000  0.000000      2.000000
  0.250000  0.500000  0.000000      2.000000
  0.291667  0.500000  0.000000      2.000000
  0.333333  0.500000  0.000000      2.000000
  0.375000  0.500000  0.000000      2.000000
  0.416667  0.500000  0.000000      2.000000
  0.458333  0.500000  0.000000      2.000000
  0.500000  0.500000  0.000000      1.000000

 Following cartesian coordinates:
            Coordinates               Weight
  0.000000  0.000000  0.000000      1.000000
  0.009467  0.000000  0.000000      2.000000
  0.018933  0.000000  0.000000      2.000000
  0.028400  0.000000  0.000000      2.000000
  0.037866  0.000000  0.000000      2.000000
  0.047333  0.000000  0.000000      2.000000
  0.056799  0.000000  0.000000      2.000000
  0.066266  0.000000  0.000000      2.000000
  0.075732  0.000000  0.000000      2.000000
  0.085199  0.000000  0.000000      2.000000
  0.094665  0.000000  0.000000      2.000000
  0.104132  0.000000  0.000000      2.000000
  0.113599  0.000000  0.000000      1.000000
  0.000000  0.011313  0.000000      2.000000
  0.009467  0.011313  0.000000      4.000000
  0.018933  0.011313  0.000000      4.000000
  0.028400  0.011313  0.000000      4.000000
  0.037866  0.011313  0.000000      4.000000
  0.047333  0.011313  0.000000      4.000000
  0.056799  0.011313  0.000000      4.000000
  0.066266  0.011313  0.000000      4.000000
  0.075732  0.011313  0.000000      4.000000
  0.085199  0.011313  0.000000      4.000000
  0.094665  0.011313  0.000000      4.000000
  0.104132  0.011313  0.000000      4.000000
  0.113599  0.011313  0.000000      2.000000
  0.000000  0.022625  0.000000      2.000000
  0.009467  0.022625  0.000000      4.000000
  0.018933  0.022625  0.000000      4.000000
  0.028400  0.022625  0.000000      4.000000
  0.037866  0.022625  0.000000      4.000000
  0.047333  0.022625  0.000000      4.000000
  0.056799  0.022625  0.000000      4.000000
  0.066266  0.022625  0.000000      4.000000
  0.075732  0.022625  0.000000      4.000000
  0.085199  0.022625  0.000000      4.000000
  0.094665  0.022625  0.000000      4.000000
  0.104132  0.022625  0.000000      4.000000
  0.113599  0.022625  0.000000      2.000000
  0.000000  0.033938  0.000000      2.000000
  0.009467  0.033938  0.000000      4.000000
  0.018933  0.033938  0.000000      4.000000
  0.028400  0.033938  0.000000      4.000000
  0.037866  0.033938  0.000000      4.000000
  0.047333  0.033938  0.000000      4.000000
  0.056799  0.033938  0.000000      4.000000
  0.066266  0.033938  0.000000      4.000000
  0.075732  0.033938  0.000000      4.000000
  0.085199  0.033938  0.000000      4.000000
  0.094665  0.033938  0.000000      4.000000
  0.104132  0.033938  0.000000      4.000000
  0.113599  0.033938  0.000000      2.000000
  0.000000  0.045251  0.000000      2.000000
  0.009467  0.045251  0.000000      4.000000
  0.018933  0.045251  0.000000      4.000000
  0.028400  0.045251  0.000000      4.000000
  0.037866  0.045251  0.000000      4.000000
  0.047333  0.045251  0.000000      4.000000
  0.056799  0.045251  0.000000      4.000000
  0.066266  0.045251  0.000000      4.000000
[...]
  0.104132  0.192317  0.000000      4.000000
  0.113599  0.192317  0.000000      2.000000
  0.000000  0.203629  0.000000      1.000000
  0.009467  0.203629  0.000000      2.000000
  0.018933  0.203629  0.000000      2.000000
  0.028400  0.203629  0.000000      2.000000
  0.037866  0.203629  0.000000      2.000000
  0.047333  0.203629  0.000000      2.000000
  0.056799  0.203629  0.000000      2.000000
  0.066266  0.203629  0.000000      2.000000
  0.075732  0.203629  0.000000      2.000000
  0.085199  0.203629  0.000000      2.000000
  0.094665  0.203629  0.000000      2.000000
  0.104132  0.203629  0.000000      2.000000
  0.113599  0.203629  0.000000      1.000000

 I would recommend the setting:
   dimension x,y,z NGX =    64 NGY =   36 NGZ =  285
[...]
 k-point ** :   0.2500 0.2500 0.0000  plane waves:   42854
 k-point ** :   0.2917 0.2500 0.0000  plane waves:   42842
 k-point ** :   0.3333 0.2500 0.0000  plane waves:   42837
 k-point ** :   0.3750 0.2500 0.0000  plane waves:   42831
 k-point ** :   0.4167 0.2500 0.0000  plane waves:   42805
 k-point ** :   0.4583 0.2500 0.0000  plane waves:   42820
 k-point ** :   0.5000 0.2500 0.0000  plane waves:   42832
 k-point ** :   0.0000 0.2778 0.0000  plane waves:   42824
 k-point ** :   0.0417 0.2778 0.0000  plane waves:   42818
 k-point ** :   0.0833 0.2778 0.0000  plane waves:   42848
 k-point ** :   0.1250 0.2778 0.0000  plane waves:   42826
 k-point ** :   0.1667 0.2778 0.0000  plane waves:   42844
 k-point ** :   0.2083 0.2778 0.0000  plane waves:   42856
 k-point ** :   0.2500 0.2778 0.0000  plane waves:   42851
 k-point ** :   0.2917 0.2778 0.0000  plane waves:   42848
 k-point ** :   0.3333 0.2778 0.0000  plane waves:   42842
 k-point ** :   0.3750 0.2778 0.0000  plane waves:   42828
 k-point ** :   0.4167 0.2778 0.0000  plane waves:   42854
 k-point ** :   0.4583 0.2778 0.0000  plane waves:   42861
 k-point ** :   0.5000 0.2778 0.0000  plane waves:   42874
 k-point ** :   0.0000 0.3056 0.0000  plane waves:   42812
 k-point ** :   0.0417 0.3056 0.0000  plane waves:   42815
 k-point ** :   0.0833 0.3056 0.0000  plane waves:   42825
 k-point ** :   0.1250 0.3056 0.0000  plane waves:   42861
 k-point ** :   0.1667 0.3056 0.0000  plane waves:   42870
 k-point ** :   0.2083 0.3056 0.0000  plane waves:   42871
 k-point ** :   0.2500 0.3056 0.0000  plane waves:   42848
 k-point ** :   0.2917 0.3056 0.0000  plane waves:   42855
 k-point ** :   0.3333 0.3056 0.0000  plane waves:   42855
 k-point ** :   0.3750 0.3056 0.0000  plane waves:   42862
 k-point ** :   0.4167 0.3056 0.0000  plane waves:   42863
 k-point ** :   0.4583 0.3056 0.0000  plane waves:   42877
 k-point ** :   0.5000 0.3056 0.0000  plane waves:   42902
 k-point ** :   0.0000 0.3333 0.0000  plane waves:   42824
 k-point ** :   0.0417 0.3333 0.0000  plane waves:   42827
 k-point ** :   0.0833 0.3333 0.0000  plane waves:   42824
[...]
 k-point ** :   0.4583 0.4722 0.0000  plane waves:   42950
 k-point ** :   0.5000 0.4722 0.0000  plane waves:   42960
 k-point ** :   0.0000 0.5000 0.0000  plane waves:   42738
 k-point ** :   0.0417 0.5000 0.0000  plane waves:   42750
 k-point ** :   0.0833 0.5000 0.0000  plane waves:   42796
 k-point ** :   0.1250 0.5000 0.0000  plane waves:   42810
 k-point ** :   0.1667 0.5000 0.0000  plane waves:   42834
 k-point ** :   0.2083 0.5000 0.0000  plane waves:   42880
 k-point ** :   0.2500 0.5000 0.0000  plane waves:   42900
 k-point ** :   0.2917 0.5000 0.0000  plane waves:   42960
 k-point ** :   0.3333 0.5000 0.0000  plane waves:   42956
 k-point ** :   0.3750 0.5000 0.0000  plane waves:   42974
 k-point ** :   0.4167 0.5000 0.0000  plane waves:   42936
 k-point ** :   0.4583 0.5000 0.0000  plane waves:   42960
 k-point ** :   0.5000 0.5000 0.0000  plane waves:   43000

 maximum and minimum number of plane-waves per node :     21500    21314

 maximum number of plane-waves:     43000
 maximum index in each direction:
   IXMAX=   16   IYMAX=    8   IZMAX=   71
   IXMIN=  -16   IYMIN=   -9   IZMIN=  -71

 WARNING: aliasing errors must be expected set NGX to  66 to avoid them
 NGY is ok and might be reduce to  36
 NGZ is ok and might be reduce to 286
 aliasing errors are usually negligible using standard VASP settings
 and one can safely disregard these warnings

 parallel 3D FFT for wavefunctions:
    minimum data exchange during FFTs selected (reduces bandwidth)
 parallel 3D FFT for charge:
    minimum data exchange during FFTs selected (reduces bandwidth)

 Broyden mixing: mesh for mixing (old mesh)
   NGX = 33   NGY = 17   NGZ =143
  (NGX  =128   NGY  = 72   NGZ  =576)
  gives a total of  80223 points

 initial charge density was supplied:
 charge density of overlapping atoms calculated
 number of electron      16.0000000 magnetization
 keeping initial charge density in first step

 Maximum index for augmentation-charges         4575 (set IRDMAX)

 First call to EWALD:  gamma=   0.298
 Maximum number of real-space cells 4x 6x 1
 Maximum number of reciprocal cells 2x 1x 8

 FEWALD executed in parallel

----------------------------------------- Iteration    1(   1)  ---------------------------------------

 eigenvalue-minimisations  :  5928
 total energy-change (2. order) : 0.1853983E+03  (-0.1064993E+04)
 number of electron      16.0000000 magnetization
 augmentation part       16.0000000 magnetization

 Free energy of the ion-electron system (eV)
  alpha Z        PSCENC =         6.18334092
  Ewald energy   TEWEN  =      2422.36121360
  -Hartree energ DENC   =     -2852.66610630
  -exchange      EXHF   =         0.00000000
  -V(xc)+E(xc)   XCENC  =        54.76078903
  PAW double counting   =       151.32577238     -155.92769107
  entropy T*S    EENTRO =        -0.00213289
  eigenvalues    EBANDS =       -29.26043807
  atomic energy  EATOM  =       588.62352690
  free energy    TOTEN  =       185.39827451 eV

  energy without entropy =      185.40040740  energy(sigma->0) =      185.39934095

[...]

 eigenvalue-minimisations  : 10376
 total energy-change (2. order) :-0.1945311E+03  (-0.1723054E+03)
 number of electron      16.0000000 magnetization
 augmentation part       16.0000000 magnetization

[...]

 Broyden mixing:
  rms(total) = 0.70202E+00    rms(broyden)= 0.70202E+00
  rms(prec ) = 0.76536E+00
  weight for this iteration     100.00

[...]

 eigenvalues of (default mixing * dielectric matrix)
  average eigenvalue GAMMA=   2.3234
  2.3234

[...]

WARNING in EDDRMM: call to ZHEGV failed, returncode =   6  3  1
WARNING in EDDRMM: call to ZHEGV failed, returncode =   6  3  1
WARNING in EDDRMM: call to ZHEGV failed, returncode =   6  3  1
WARNING in EDDRMM: call to ZHEGV failed, returncode =   6  3  1
WARNING in EDDRMM: call to ZHEGV failed, returncode =   6  3  1
WARNING in EDDRMM: call to ZHEGV failed, returncode =   6  3  1
WARNING in EDDRMM: call to ZHEGV failed, returncode =   6  3  1
WARNING in EDDRMM: call to ZHEGV failed, returncode =   6  3  1
WARNING in EDDRMM: call to ZHEGV failed, returncode =   6  3  1

[...]

 average (electrostatic) potential at core
  the test charge radii are     0.6991
  (the norm of the test charge is              1.0000)
       1 -58.3401       2 -58.3401       3 -58.3401       4 -58.3401

 E-fermi :  -2.8376     XC(G=0):  -2.1846     alpha+bet : -1.9046

 k-point     1 :       0.0000    0.0000    0.0000
  band No.  band energies     occupation
      1     -22.0460      2.00000
      2     -17.3016      2.00000
      3     -15.8016      2.00000
      4     -10.1986      2.00000
      5      -8.7379      2.00000
      6      -6.0462      2.00000
      7      -5.7177      2.00000
      8      -5.3787      2.00000
      9      -1.2050      0.00000
     10       0.5491      0.00000
     11       1.3465      0.00000
     12       1.7423      0.00000

[...]

 soft charge-density along one line, spin component           1
         0         1         2         3         4         5         6         7         8         9
 total charge-density along one line

------------------------ aborting loop because EDIFF is reached ----------------------------------------

  FORCE on cell =-STRESS in cart. coord.  units (eV):
  Direction    XX          YY          ZZ          XY          YZ          ZX
  Alpha Z     6.18334     6.18334     6.18334
  Ewald    2951.07548  2955.37987 -3484.09432    -0.00000     0.00000     0.00000
  Hartree  2892.76485  2894.21440 -2870.26698    -0.00000    -0.00000    -0.00000
  E(xc)     -57.88182   -57.91441   -60.21604    -0.00000    -0.00000    -0.00000
  Local   -6017.59260 -6022.68767  6149.28998    -0.00000    -0.00000     0.00000
  n-local   -12.82743   -13.78609   -12.42273     0.07041    -0.00000     0.00000
  augment    -1.46577    -1.46840    -1.36309    -0.00000    -0.00000    -0.00000
  Kinetic   233.28917   240.07799   272.88850    -4.42608     0.00000    -0.00000
  Fock        0.00000     0.00000     0.00000     0.00000     0.00000     0.00000
  Total      -6.45478    -0.00097    -0.00134     0.00000     0.00000     0.00000
  in kB     -49.05047    -0.00739    -0.01015     0.00000     0.00000     0.00000

 VOLUME and BASIS-vectors are now :
  energy-cutoff  :     2000.00
  volume of cell :      210.84
      direct lattice vectors                 reciprocal lattice vectors
     4.401465375  0.000000000  0.000000000     0.227197062  0.000000000  0.000000000
     0.000000000  2.455440584  0.000000000     0.000000000  0.407258887  0.000000000
     0.000000000  0.000000000 19.508414087     0.000000000  0.000000000  0.051259933

[...]

 FORCES acting on ions
    electron-ion (+dipol)            ewald-force                    non-local-force                 convergence-correction
   0.641E+01 -.150E-16 -.303E-08   -.640E+01 -.416E-14 -.314E-17   -.967E-02 0.000E+00 0.000E+00   -.802E-07 -.114E-14 -.798E-13
   -.641E+01 0.796E-14 -.120E-07   0.640E+01 0.101E-13 -.508E-19   0.967E-02 0.000E+00 0.000E+00   0.802E-07 0.677E-15 -.798E-13
   0.641E+01 -.213E-12 -.306E-08   -.640E+01 -.506E-14 -.325E-18   -.967E-02 0.000E+00 0.000E+00   -.802E-07 -.123E-14 -.797E-13
   -.641E+01 0.555E-16 -.120E-07   0.640E+01 0.924E-14 0.352E-17   0.967E-02 0.000E+00 0.000E+00   0.802E-07 0.714E-15 -.798E-13
   -.742E-06 -.205E-12 -.301E-07   0.355E-14 0.101E-13 0.000E+00   -.694E-17 0.000E+00 0.000E+00   -.192E-12 -.982E-15 -.319E-12

 POSITION                                       TOTAL-FORCE (eV/Angst)
      4.39878      0.00000      0.00000         0.000535     -0.000000      0.000000
      0.73626      1.22772      0.00000        -0.000535      0.000000     -0.000000
      2.19805      1.22772      0.00000         0.000535      0.000000      0.000000
      2.93700      0.00000      0.00000        -0.000535     -0.000000     -0.000000
    total drift:                               -0.000001     -0.000000     -0.000000

  FREE ENERGIE OF THE ION-ELECTRON SYSTEM (eV)
  free  energy   TOTEN  =       -36.82951923 eV

  energy  without entropy=      -36.82951923  energy(sigma->0) =      -36.82951923

 Quasi-Newton relaxation of ions (Broydens 2nd method)
  g(Force)  = 0.553E-07   g(Stress)= 0.000E+00

 Reset! Starting new Quasi-Newton update for ions

[...]

 d Force =-0.7148254E-07[-0.198E-06, 0.553E-07]  d Energy =-0.6474329E-07-0.674E-08
 d Force =-0.6614890E-03[-0.662E-03,-0.661E-03]  d Ewald  =-0.6614890E-03 0.136E-10

[...]

 retain information from N=  1 steps
 eigenvalues of (default step * inverse Hessian matrix)
  average eigenvalue of G=   0.2181
 eigenvalue spectrum of G is  0.2181

 FEWALD executed in parallel

[...]

 eigenvalue-minimisations  :  3752
 total energy-change (2. order) : 0.6338041E-09  (-0.4107132E-11)
 number of electron      16.0000000 magnetization
 augmentation part        0.3707172 magnetization

 Broyden mixing:
  rms(total) = 0.85395E-06    rms(broyden)= 0.85395E-06
  rms(prec ) = 0.92107E-06
  weight for this iteration     100.00

 eigenvalues of (default mixing * dielectric matrix)
  average eigenvalue GAMMA=   1.6688
  2.5904  2.0635  1.0107  1.0107

[...]

----------------------------------------- Iteration    3(   6)  ---------------------------------------

 eigenvalue-minimisations  :  3326
 total energy-change (2. order) :-0.3342393E-10  (-0.1741070E-11)
 number of electron      16.0000000 magnetization
 augmentation part        0.3707172 magnetization

 Free energy of the ion-electron system (eV)
  alpha Z        PSCENC =         6.18334092
  Ewald energy   TEWEN  =      2422.36135778
  -Hartree energ DENC   =     -2916.71241157
  -exchange      EXHF   =         0.00000000
  -V(xc)+E(xc)   XCENC  =        57.06518775
  PAW double counting   =       267.19884408     -272.30307048
  entropy T*S    EENTRO =        -0.00000000
  eigenvalues    EBANDS =      -189.24629462
  atomic energy  EATOM  =       588.62352690
  free energy    TOTEN  =       -36.82951924 eV

  energy without entropy =      -36.82951924  energy(sigma->0) =      -36.82951924

 average (electrostatic) potential at core
  the test charge radii are     0.6991
  (the norm of the test charge is              1.0000)
       1 -58.3401       2 -58.3401       3 -58.3401       4 -58.3401

 E-fermi :  -2.8379     XC(G=0):  -2.1856     alpha+bet : -1.9046

[...]

 k-point   247 :       0.5000    0.5000    0.0000
  band No.  band energies     occupation
      1     -16.8104      2.00000
      2     -16.8104      2.00000
      3     -15.8352      2.00000
      4     -15.8352      2.00000
      5      -9.3261      2.00000
      6      -9.3261      2.00000
      7      -4.9918      2.00000
      8      -4.9918      2.00000
      9      -1.1690      0.00000
     10      -1.1690      0.00000
     11       3.7586      0.00000
     12       3.7586      0.00000

 soft charge-density along one line, spin component           1
         0         1         2         3         4         5         6         7         8         9
 total charge-density along one line

------------------------ aborting loop because EDIFF is reached ----------------------------------------

  FORCE on cell =-STRESS in cart. coord.  units (eV):
  Direction    XX          YY          ZZ          XY          YZ          ZX
  Alpha Z     6.18334     6.18334     6.18334
  Ewald    2951.07070  2955.38478 -3484.09432     0.00000     0.00000     0.00000
  Hartree  2892.76420  2894.21515 -2870.26697    -0.00000    -0.00000    -0.00000
  E(xc)     -57.88184   -57.91440   -60.21605     0.00000    -0.00000    -0.00000
  Local   -6017.58800 -6022.69243  6149.28994     0.00000    -0.00000     0.00000
  n-local   -12.82747   -13.78605   -12.42273     0.07042    -0.00000    -0.00000
  augment    -1.46576    -1.46841    -1.36309     0.00000    -0.00000     0.00000
  Kinetic   233.28997   240.07728   272.88854    -4.42610     0.00000     0.00000
  Fock        0.00000     0.00000     0.00000     0.00000     0.00000     0.00000
  Total      -6.45487    -0.00073    -0.00134     0.00000     0.00000     0.00000
  in kB     -49.05116    -0.00556    -0.01015     0.00000     0.00000     0.00000

 VOLUME and BASIS-vectors are now :
  energy-cutoff  :     2000.00
  volume of cell :      210.84
      direct lattice vectors                 reciprocal lattice vectors
     4.401465375  0.000000000  0.000000000     0.227197062  0.000000000  0.000000000
     0.000000000  2.455440584  0.000000000     0.000000000  0.407258887  0.000000000
     0.000000000  0.000000000 19.508414087     0.000000000  0.000000000  0.051259933

  length of vectors
     4.401465375  2.455440584 19.508414087     0.227197062  0.407258887  0.051259933

 FORCES acting on ions
    electron-ion (+dipol)            ewald-force                    non-local-force                 convergence-correction
   0.641E+01 0.173E-15 -.309E-08   -.640E+01 0.842E-14 0.508E-19   -.986E-02 0.104E-16 0.000E+00   0.277E-05 0.121E-14 0.355E-11
   -.641E+01 -.200E-12 -.120E-07   0.640E+01 -.476E-14 0.508E-19   0.986E-02 0.694E-17 0.000E+00   -.277E-05 -.176E-14 0.350E-11
   0.641E+01 -.161E-12 -.302E-08   -.640E+01 0.983E-14 -.508E-19   -.986E-02 0.104E-16 0.000E+00   0.277E-05 0.197E-14 0.348E-11
   -.641E+01 -.126E-15 -.120E-07   0.640E+01 -.334E-14 -.508E-19   0.986E-02 0.694E-17 0.000E+00   -.277E-05 -.243E-14 0.354E-11
   -.742E-06 -.361E-12 -.302E-07   0.355E-14 0.101E-13 0.000E+00   -.520E-17 0.347E-16 0.000E+00   -.140E-12 -.102E-14 0.141E-10

 POSITION                                       TOTAL-FORCE (eV/Angst)
      4.39879     -0.00000      0.00000        -0.000001     -0.000000      0.000000
      0.73626      1.22772     -0.00000         0.000001     -0.000000     -0.000000
      2.19805      1.22772      0.00000        -0.000001     -0.000000      0.000000
      2.93699     -0.00000     -0.00000         0.000001      0.000000     -0.000000
    total drift:                               -0.000001     -0.000000     -0.000000

  FREE ENERGIE OF THE ION-ELECTRON SYSTEM (eV)
  free  energy   TOTEN  =       -36.82951924 eV

  energy  without entropy=      -36.82951924  energy(sigma->0) =      -36.82951924

 d Force = 0.7754965E-07[ 0.757E-10, 0.155E-06]  d Energy = 0.7201504E-07 0.553E-08
 d Force = 0.5173105E-03[ 0.517E-03, 0.518E-03]  d Ewald  = 0.5173105E-03-0.637E-11

 Quasi-Newton relaxation of ions (Broydens 2nd method)
  g(Force)  = 0.170E-12   g(Stress)= 0.000E+00

 retain information from N=  1 steps
 eigenvalues of (default step * inverse Hessian matrix)
  average eigenvalue of G=   0.2182
 eigenvalue spectrum of G is  0.2182

 reached required accuracy - stopping structural energy minimisation