 vasp.5.3.5 31Mar14 (build Mar 02 2015 18:14:16) complex

 executed on             LinuxIFC date 2018.08.08  18:30:21

 INCAR:
 POTCAR:   PAW_PBE C 08Apr2002
 POTCAR:   PAW_PBE C 08Apr2002
   VRHFIN =C: s2p2

   TITEL  = PAW_PBE C 08Apr2002
   POMASS =   12.011; ZVAL   =    4.000    mass and valenz
   ENMAX  =  400.000; ENMIN  =  300.000 eV
   QCUT   =   -5.516; QGAM   =   11.032    optimization parameters

   Description
     l     E      TYP  RCUT    TYP  RCUT
     0   .000     23  1.200
     0   .000     23  1.200
     1   .000     23  1.500
     1  2.500     23  1.500
     2   .000      7  1.500

 PAW_PBE C 08Apr2002                    :

 POSCAR: MD-kMC export data
  positions in direct lattice
  velocities in cartesian coordinates
 exchange correlation table for  LEXCH =        8
   RHO(1)=    0.500       N(1)  =     2000
   RHO(2)=  100.500       N(2)  =     4000

 ion  position               nearest neighbor table
   1  1.000  0.000  0.000-   2 1.43   2 1.43   4 1.44
   2  0.167  0.500  0.000-   1 1.43   1 1.43   3 1.44
   3  0.500  0.500  0.000-   4 1.43   4 1.43   2 1.44
   4  0.667  0.000  0.000-   3 1.43   3 1.43   1 1.44

  LATTYP: Found a simple orthorhombic cell.
 ALAT       =     2.4608298101
 B/A-ratio  =     1.7627336482
 C/A-ratio  =     8.0263344548

  Lattice vectors:

 A1 = (   0.0000000000,  -2.4608298101,   0.0000000000)
 A2 = (  -4.3377875088,   0.0000000000,   0.0000000000)
 A3 = (   0.0000000000,   0.0000000000, -19.7514430925)

Analysis of symmetry for initial positions (statically):
 Subroutine PRICEL returns following result:

  LATTYP: Found a base centered orthorhombic cell.
 ALAT       =     2.4608298101
 B/A-ratio  =     1.7627336482
 C/A-ratio  =     8.0263344548

[...]

   2 primitive cells build up your supercell.

 Routine SETGRP: Setting up the symmetry group for a
 simple orthorhombic supercell.

 Subroutine GETGRP returns: Found  8 space group operations
 (whereof  4 operations were pure point group operations)
 out of a pool of  8 trial point group operations.

The static configuration has the point symmetry C_2v.
 The point group associated with its full space group is D_2h.

Analysis of symmetry for dynamics (positions and initial velocities):
 Subroutine PRICEL returns following result:

  LATTYP: Found a base centered orthorhombic cell.
 ALAT       =     2.4608298101
 B/A-ratio  =     1.7627336482
 C/A-ratio  =     8.0263344548

  Lattice vectors:

 A1 = (   2.1688937544,  -1.2304149051,   0.0000000000)
 A2 = (  -2.1688937544,  -1.2304149051,   0.0000000000)
 A3 = (   0.0000000000,   0.0000000000, -19.7514430925)

   2 primitive cells build up your supercell.

 Routine SETGRP: Setting up the symmetry group for a
 simple orthorhombic supercell.

 Subroutine GETGRP returns: Found  8 space group operations
 (whereof  4 operations were pure point group operations)
 out of a pool of  8 trial point group operations.

The dynamic configuration has the point symmetry C_2v.
 The point group associated with its full space group is D_2h.

 KPOINTS: Automatic mesh

Automatic generation of k-mesh.
Space group operators:
 irot       det(A)        alpha          n_x          n_y          n_z        tau_x        tau_y        tau_z
    1     1.000000     0.000000     1.000000     0.000000     0.000000     0.000000     0.000000     0.000000
    2    -1.000000   180.000000     0.000000     0.000000     1.000000     0.000000     0.000000     0.000000
    3     1.000000   180.000000     1.000000     0.000000     0.000000     0.000000     0.000000     0.000000
    4    -1.000000   180.000000     0.000000     1.000000     0.000000     0.000000     0.000000     0.000000
    5    -1.000000     0.000000     1.000000     0.000000     0.000000     0.166667    -0.500000     0.000000
    6     1.000000   180.000000     0.000000     0.000000     1.000000     0.166667    -0.500000     0.000000
    7    -1.000000   180.000000     1.000000     0.000000     0.000000     0.166667    -0.500000     0.000000
    8     1.000000   180.000000     0.000000     1.000000     0.000000     0.166667    -0.500000     0.000000

 Subroutine IBZKPT returns following result:

 Found    247 irreducible k-points:

 Following reciprocal coordinates:
            Coordinates               Weight
  0.000000  0.000000  0.000000      1.000000
  0.041667  0.000000  0.000000      2.000000
  0.083333  0.000000  0.000000      2.000000
  0.125000  0.000000  0.000000      2.000000
  0.166667  0.000000  0.000000      2.000000
  0.208333  0.000000  0.000000      2.000000
  0.250000  0.000000  0.000000      2.000000
  0.291667  0.000000  0.000000      2.000000
  0.333333  0.000000  0.000000      2.000000
  0.375000  0.000000  0.000000      2.000000
  0.416667  0.000000  0.000000      2.000000
  0.458333  0.000000  0.000000      2.000000
  0.500000  0.000000  0.000000      1.000000
  0.000000  0.027778  0.000000      2.000000
  0.041667  0.027778  0.000000      4.000000
  0.083333  0.027778  0.000000      4.000000
  0.125000  0.027778  0.000000      4.000000
  0.166667  0.027778  0.000000      4.000000
  0.208333  0.027778  0.000000      4.000000
  0.250000  0.027778  0.000000      4.000000
  0.291667  0.027778  0.000000      4.000000
  0.333333  0.027778  0.000000      4.000000
  0.375000  0.027778  0.000000      4.000000
  0.416667  0.027778  0.000000      4.000000
  0.458333  0.027778  0.000000      4.000000
  0.500000  0.027778  0.000000      2.000000
  0.000000  0.055556  0.000000      2.000000
  0.041667  0.055556  0.000000      4.000000
  0.083333  0.055556  0.000000      4.000000
  0.125000  0.055556  0.000000      4.000000
  0.166667  0.055556  0.000000      4.000000
  0.208333  0.055556  0.000000      4.000000
  0.250000  0.055556  0.000000      4.000000
  0.291667  0.055556  0.000000      4.000000
  0.333333  0.055556  0.000000      4.000000
  0.375000  0.055556  0.000000      4.000000
  0.416667  0.055556  0.000000      4.000000
  0.458333  0.055556  0.000000      4.000000
  0.500000  0.055556  0.000000      2.000000
  0.000000  0.083333  0.000000      2.000000
  0.041667  0.083333  0.000000      4.000000
  0.083333  0.083333  0.000000      4.000000
  0.125000  0.083333  0.000000      4.000000
  0.166667  0.083333  0.000000      4.000000
  0.208333  0.083333  0.000000      4.000000
  0.250000  0.083333  0.000000      4.000000
  0.291667  0.083333  0.000000      4.000000
  0.333333  0.083333  0.000000      4.000000
  0.375000  0.083333  0.000000      4.000000
  0.416667  0.083333  0.000000      4.000000
  0.458333  0.083333  0.000000      4.000000
  0.500000  0.083333  0.000000      2.000000
  0.000000  0.111111  0.000000      2.000000
  0.041667  0.111111  0.000000      4.000000
  0.083333  0.111111  0.000000      4.000000
  0.125000  0.111111  0.000000      4.000000
  0.166667  0.111111  0.000000      4.000000
  0.208333  0.111111  0.000000      4.000000
  0.250000  0.111111  0.000000      4.000000
  0.291667  0.111111  0.000000      4.000000
[...]
  0.458333  0.472222  0.000000      4.000000
  0.500000  0.472222  0.000000      2.000000
  0.000000  0.500000  0.000000      1.000000
  0.041667  0.500000  0.000000      2.000000
  0.083333  0.500000  0.000000      2.000000
  0.125000  0.500000  0.000000      2.000000
  0.166667  0.500000  0.000000      2.000000
  0.208333  0.500000  0.000000      2.000000
  0.250000  0.500000  0.000000      2.000000
  0.291667  0.500000  0.000000      2.000000
  0.333333  0.500000  0.000000      2.000000
  0.375000  0.500000  0.000000      2.000000
  0.416667  0.500000  0.000000      2.000000
  0.458333  0.500000  0.000000      2.000000
  0.500000  0.500000  0.000000      1.000000

 Following cartesian coordinates:
            Coordinates               Weight
  0.000000  0.000000  0.000000      1.000000
  0.009606  0.000000  0.000000      2.000000
  0.019211  0.000000  0.000000      2.000000
  0.028817  0.000000  0.000000      2.000000
  0.038422  0.000000  0.000000      2.000000
  0.048028  0.000000  0.000000      2.000000
  0.057633  0.000000  0.000000      2.000000
  0.067239  0.000000  0.000000      2.000000
  0.076844  0.000000  0.000000      2.000000
  0.086450  0.000000  0.000000      2.000000
  0.096055  0.000000  0.000000      2.000000
  0.105661  0.000000  0.000000      2.000000
  0.115266  0.000000  0.000000      1.000000
  0.000000  0.011288  0.000000      2.000000
  0.009606  0.011288  0.000000      4.000000
  0.019211  0.011288  0.000000      4.000000
  0.028817  0.011288  0.000000      4.000000
  0.038422  0.011288  0.000000      4.000000
  0.048028  0.011288  0.000000      4.000000
  0.057633  0.011288  0.000000      4.000000
  0.067239  0.011288  0.000000      4.000000
  0.076844  0.011288  0.000000      4.000000
  0.086450  0.011288  0.000000      4.000000
  0.096055  0.011288  0.000000      4.000000
  0.105661  0.011288  0.000000      4.000000
  0.115266  0.011288  0.000000      2.000000
  0.000000  0.022576  0.000000      2.000000
  0.009606  0.022576  0.000000      4.000000
  0.019211  0.022576  0.000000      4.000000
  0.028817  0.022576  0.000000      4.000000
  0.038422  0.022576  0.000000      4.000000
  0.048028  0.022576  0.000000      4.000000
  0.057633  0.022576  0.000000      4.000000
  0.067239  0.022576  0.000000      4.000000
  0.076844  0.022576  0.000000      4.000000
  0.086450  0.022576  0.000000      4.000000
  0.096055  0.022576  0.000000      4.000000
  0.105661  0.022576  0.000000      4.000000
  0.115266  0.022576  0.000000      2.000000
  0.000000  0.033864  0.000000      2.000000
  0.009606  0.033864  0.000000      4.000000
  0.019211  0.033864  0.000000      4.000000
  0.028817  0.033864  0.000000      4.000000
  0.038422  0.033864  0.000000      4.000000
  0.048028  0.033864  0.000000      4.000000
  0.057633  0.033864  0.000000      4.000000
  0.067239  0.033864  0.000000      4.000000
  0.076844  0.033864  0.000000      4.000000
  0.086450  0.033864  0.000000      4.000000
  0.096055  0.033864  0.000000      4.000000
  0.105661  0.033864  0.000000      4.000000
  0.115266  0.033864  0.000000      2.000000
  0.000000  0.045152  0.000000      2.000000
  0.009606  0.045152  0.000000      4.000000
  0.019211  0.045152  0.000000      4.000000
  0.028817  0.045152  0.000000      4.000000
  0.038422  0.045152  0.000000      4.000000
  0.048028  0.045152  0.000000      4.000000
  0.057633  0.045152  0.000000      4.000000
  0.067239  0.045152  0.000000      4.000000
[...]
  0.105661  0.191896  0.000000      4.000000
  0.115266  0.191896  0.000000      2.000000
  0.000000  0.203183  0.000000      1.000000
  0.009606  0.203183  0.000000      2.000000
  0.019211  0.203183  0.000000      2.000000
  0.028817  0.203183  0.000000      2.000000
  0.038422  0.203183  0.000000      2.000000
  0.048028  0.203183  0.000000      2.000000
  0.057633  0.203183  0.000000      2.000000
  0.067239  0.203183  0.000000      2.000000
  0.076844  0.203183  0.000000      2.000000
  0.086450  0.203183  0.000000      2.000000
  0.096055  0.203183  0.000000      2.000000
  0.105661  0.203183  0.000000      2.000000
  0.115266  0.203183  0.000000      1.000000

 I would recommend the setting:
   dimension x,y,z NGX =    63 NGY =   36 NGZ =  288
[...]
 k-point ** :   0.4167 0.2500 0.0000  plane waves:   42824
 k-point ** :   0.4583 0.2500 0.0000  plane waves:   42810
 k-point ** :   0.5000 0.2500 0.0000  plane waves:   42846
 k-point ** :   0.0000 0.2778 0.0000  plane waves:   42868
 k-point ** :   0.0417 0.2778 0.0000  plane waves:   42874
 k-point ** :   0.0833 0.2778 0.0000  plane waves:   42868
 k-point ** :   0.1250 0.2778 0.0000  plane waves:   42836
 k-point ** :   0.1667 0.2778 0.0000  plane waves:   42828
 k-point ** :   0.2083 0.2778 0.0000  plane waves:   42823
 k-point ** :   0.2500 0.2778 0.0000  plane waves:   42850
 k-point ** :   0.2917 0.2778 0.0000  plane waves:   42851
 k-point ** :   0.3333 0.2778 0.0000  plane waves:   42845
 k-point ** :   0.3750 0.2778 0.0000  plane waves:   42852
 k-point ** :   0.4167 0.2778 0.0000  plane waves:   42857
 k-point ** :   0.4583 0.2778 0.0000  plane waves:   42848
 k-point ** :   0.5000 0.2778 0.0000  plane waves:   42838
 k-point ** :   0.0000 0.3056 0.0000  plane waves:   42866
 k-point ** :   0.0417 0.3056 0.0000  plane waves:   42863
 k-point ** :   0.0833 0.3056 0.0000  plane waves:   42869
 k-point ** :   0.1250 0.3056 0.0000  plane waves:   42848
 k-point ** :   0.1667 0.3056 0.0000  plane waves:   42839
 k-point ** :   0.2083 0.3056 0.0000  plane waves:   42843
 k-point ** :   0.2500 0.3056 0.0000  plane waves:   42846
 k-point ** :   0.2917 0.3056 0.0000  plane waves:   42846
 k-point ** :   0.3333 0.3056 0.0000  plane waves:   42871
 k-point ** :   0.3750 0.3056 0.0000  plane waves:   42866
 k-point ** :   0.4167 0.3056 0.0000  plane waves:   42845
 k-point ** :   0.4583 0.3056 0.0000  plane waves:   42847
 k-point ** :   0.5000 0.3056 0.0000  plane waves:   42832
 k-point ** :   0.0000 0.3333 0.0000  plane waves:   42880
 k-point ** :   0.0417 0.3333 0.0000  plane waves:   42900
 k-point ** :   0.0833 0.3333 0.0000  plane waves:   42878
[...]
 k-point ** :   0.4583 0.4722 0.0000  plane waves:   42934
 k-point ** :   0.5000 0.4722 0.0000  plane waves:   42938
 k-point ** :   0.0000 0.5000 0.0000  plane waves:   42902
 k-point ** :   0.0417 0.5000 0.0000  plane waves:   42878
 k-point ** :   0.0833 0.5000 0.0000  plane waves:   42860
 k-point ** :   0.1250 0.5000 0.0000  plane waves:   42890
 k-point ** :   0.1667 0.5000 0.0000  plane waves:   42850
 k-point ** :   0.2083 0.5000 0.0000  plane waves:   42834
 k-point ** :   0.2500 0.5000 0.0000  plane waves:   42862
 k-point ** :   0.2917 0.5000 0.0000  plane waves:   42866
 k-point ** :   0.3333 0.5000 0.0000  plane waves:   42918
 k-point ** :   0.3750 0.5000 0.0000  plane waves:   42894
 k-point ** :   0.4167 0.5000 0.0000  plane waves:   42924
 k-point ** :   0.4583 0.5000 0.0000  plane waves:   42926
 k-point ** :   0.5000 0.5000 0.0000  plane waves:   42908

 maximum and minimum number of plane-waves per node :     21490    21299

 maximum number of plane-waves:     42958
 maximum index in each direction:
   IXMAX=   15   IYMAX=    8   IZMAX=   72
   IXMIN=  -16   IYMIN=   -9   IZMIN=  -72

 NGX is ok and might be reduce to  64
 NGY is ok and might be reduce to  36
 WARNING: aliasing errors must be expected set NGZ to 290 to avoid them
 aliasing errors are usually negligible using standard VASP settings
 and one can safely disregard these warnings

 parallel 3D FFT for wavefunctions:
    minimum data exchange during FFTs selected (reduces bandwidth)
 parallel 3D FFT for charge:
    minimum data exchange during FFTs selected (reduces bandwidth)

 Broyden mixing: mesh for mixing (old mesh)
   NGX = 31   NGY = 17   NGZ =145
  (NGX  =128   NGY  = 72   NGZ  =576)
  gives a total of  76415 points

 initial charge density was supplied:
 charge density of overlapping atoms calculated
 number of electron      16.0000000 magnetization
 keeping initial charge density in first step

 Maximum index for augmentation-charges         4557 (set IRDMAX)

 First call to EWALD:  gamma=   0.298
 Maximum number of real-space cells 4x 6x 1
 Maximum number of reciprocal cells 2x 1x 8

 FEWALD executed in parallel

----------------------------------------- Iteration    1(   1)  ---------------------------------------

 eigenvalue-minimisations  :  5928
 total energy-change (2. order) : 0.1879143E+03  (-0.1059745E+04)
 number of electron      16.0000000 magnetization
 augmentation part       16.0000000 magnetization

 Free energy of the ion-electron system (eV)
  alpha Z        PSCENC =         6.18334092
  Ewald energy   TEWEN  =      2503.11132429
  -Hartree energ DENC   =     -2930.99772333
  -exchange      EXHF   =         0.00000000
  -V(xc)+E(xc)   XCENC  =        54.92769701
  PAW double counting   =       151.32577238     -155.92769107
  entropy T*S    EENTRO =        -0.00144082
  eigenvalues    EBANDS =       -29.33052093
  atomic energy  EATOM  =       588.62352690
  free energy    TOTEN  =       187.91428536 eV

  energy without entropy =      187.91572617  energy(sigma->0) =      187.91500577

[...]

 eigenvalue-minimisations  : 10296
 total energy-change (2. order) :-0.1966168E+03  (-0.1742758E+03)
 number of electron      16.0000000 magnetization
 augmentation part       16.0000000 magnetization

[...]

 Broyden mixing:
  rms(total) = 0.71928E+00    rms(broyden)= 0.71928E+00
  rms(prec ) = 0.78293E+00
  weight for this iteration     100.00

[...]

 eigenvalues of (default mixing * dielectric matrix)
  average eigenvalue GAMMA=   2.3154
  2.3154

[...]

WARNING in EDDRMM: call to ZHEGV failed, returncode =   6  3  1
WARNING in EDDRMM: call to ZHEGV failed, returncode =   6  3  1
WARNING in EDDRMM: call to ZHEGV failed, returncode =   6  3  1
WARNING in EDDRMM: call to ZHEGV failed, returncode =   6  3  1
WARNING in EDDRMM: call to ZHEGV failed, returncode =   6  3  1
WARNING in EDDRMM: call to ZHEGV failed, returncode =   6  3  1

[...]

 average (electrostatic) potential at core
  the test charge radii are     0.6991
  (the norm of the test charge is              1.0000)
       1 -58.2650       2 -58.2650       3 -58.2650       4 -58.2650

 E-fermi :  -2.7969     XC(G=0):  -2.1639     alpha+bet : -1.9046

 k-point     1 :       0.0000    0.0000    0.0000
  band No.  band energies     occupation
      1     -22.1493      2.00000
      2     -17.1674      2.00000
      3     -15.8908      2.00000
      4     -10.2783      2.00000
      5      -8.9410      2.00000
      6      -5.9229      2.00000
      7      -5.7487      2.00000
      8      -5.2485      2.00000
      9      -1.1447      0.00000
     10       0.5363      0.00000
     11       1.3356      0.00000
     12       1.7235      0.00000

[...]

 soft charge-density along one line, spin component           1
         0         1         2         3         4         5         6         7         8         9
 total charge-density along one line

------------------------ aborting loop because EDIFF is reached ----------------------------------------

  FORCE on cell =-STRESS in cart. coord.  units (eV):
  Direction    XX          YY          ZZ          XY          YZ          ZX
  Alpha Z     6.18334     6.18334     6.18334
  Ewald    3036.30463  3038.24875 -3571.44230    -0.00000     0.00000     0.00000
  Hartree  2973.98836  2974.66915 -2951.39306     0.00000    -0.00000    -0.00000
  E(xc)     -58.10890   -58.12640   -60.44598     0.00000     0.00000    -0.00000
  Local   -6183.40403 -6185.71207  6317.22725    -0.00000    -0.00000    -0.00000
  n-local   -13.37609   -13.87528   -12.59436     0.06281    -0.00000     0.00000
  augment    -1.50295    -1.50454    -1.38855    -0.00000     0.00000    -0.00000
  Kinetic   236.61192   240.11703   273.85231    -4.50857     0.00000    -0.00000
  Fock        0.00000     0.00000     0.00000     0.00000     0.00000     0.00000
  Total      -3.30373    -0.00001    -0.00136     0.00000     0.00000     0.00000
  in kB     -25.10532    -0.00006    -0.01030     0.00000     0.00000     0.00000

 VOLUME and BASIS-vectors are now :
  energy-cutoff  :     2000.00
  volume of cell :      210.84
      direct lattice vectors                 reciprocal lattice vectors
     4.337787509  0.000000000  0.000000000     0.230532270  0.000000000  0.000000000
     0.000000000  2.460829810  0.000000000     0.000000000  0.406366989  0.000000000
     0.000000000  0.000000000 19.751443093     0.000000000  0.000000000  0.050629212

[...]

 FORCES acting on ions
    electron-ion (+dipol)            ewald-force                    non-local-force                 convergence-correction
   0.325E+01 0.398E-15 -.130E-08   -.326E+01 0.950E-15 0.991E-18   0.789E-03 0.347E-17 0.000E+00   0.452E-07 -.633E-15 -.817E-13
   -.325E+01 -.483E-15 -.842E-08   0.326E+01 -.180E-14 -.103E-18   -.789E-03 0.000E+00 0.000E+00   -.452E-07 -.261E-15 -.815E-13
   0.325E+01 -.192E-12 -.130E-08   -.326E+01 -.486E-14 0.312E-18   0.789E-03 0.347E-17 0.000E+00   0.452E-07 -.488E-15 -.817E-13
   -.325E+01 0.289E-15 -.844E-08   0.326E+01 -.762E-14 -.120E-17   -.789E-03 0.000E+00 0.000E+00   -.452E-07 -.437E-15 -.815E-13
   -.125E-05 -.192E-12 -.194E-07   -.577E-14 -.133E-13 0.000E+00   -.217E-18 0.694E-17 0.000E+00   0.170E-13 -.182E-14 -.326E-12

 POSITION                                       TOTAL-FORCE (eV/Angst)
      4.33624      0.00000      0.00000        -0.000056     -0.000000     -0.000000
      0.72452      1.23041      0.00000         0.000056     -0.000000      0.000000
      2.16734      1.23041      0.00000        -0.000056     -0.000000     -0.000000
      2.89341      0.00000      0.00000         0.000056      0.000000      0.000000
    total drift:                               -0.000001     -0.000000     -0.000000

  FREE ENERGIE OF THE ION-ELECTRON SYSTEM (eV)
  free  energy   TOTEN  =       -36.90074662 eV

  energy  without entropy=      -36.90074184  energy(sigma->0) =      -36.90074423

 Quasi-Newton relaxation of ions (Broydens 2nd method)
  g(Force)  = 0.602E-09   g(Stress)= 0.000E+00

 Reset! Starting new Quasi-Newton update for ions

[...]

WARNING in EDDRMM: call to ZHEGV failed, returncode =   6  3  1
WARNING in EDDRMM: call to ZHEGV failed, returncode =   6  3  1
WARNING in EDDRMM: call to ZHEGV failed, returncode =   6  3  1

[...]

 eigenvalue-minimisations  :  1831
 total energy-change (2. order) : 0.3789182E-09  ( 0.2004775E-13)
 number of electron      16.0000000 magnetization
 augmentation part        0.3762388 magnetization

[...]

 d Force =-0.8657387E-09[-0.233E-08, 0.602E-09]  d Energy =-0.1049330E-08 0.184E-09
 d Force = 0.3507526E-04[ 0.351E-04, 0.351E-04]  d Ewald  = 0.3507526E-04-0.455E-12

[...]

 retain information from N=  1 steps
 eigenvalues of (default step * inverse Hessian matrix)
  average eigenvalue of G=   0.2050
 eigenvalue spectrum of G is  0.2050

 FEWALD executed in parallel

[...]

 eigenvalue-minimisations  :  2240
 total energy-change (2. order) : 0.3615241E-09  (-0.1896767E-12)
 number of electron      16.0000000 magnetization
 augmentation part        0.3762389 magnetization

 Broyden mixing:
  rms(total) = 0.85464E-07    rms(broyden)= 0.85464E-07
  rms(prec ) = 0.92791E-07
  weight for this iteration     100.00

 eigenvalues of (default mixing * dielectric matrix)
  average eigenvalue GAMMA=   1.1959
  2.6349  2.0238  1.1717  0.9921  0.1765  0.1765

[...]

----------------------------------------- Iteration    3(   8)  ---------------------------------------

 eigenvalue-minimisations  :  1968
 total energy-change (2. order) :-0.2785328E-10  (-0.2062589E-12)
 number of electron      16.0000000 magnetization
 augmentation part        0.3762389 magnetization

 Free energy of the ion-electron system (eV)
  alpha Z        PSCENC =         6.18334092
  Ewald energy   TEWEN  =      2503.11131709
  -Hartree energ DENC   =     -2997.26444273
  -exchange      EXHF   =         0.00000000
  -V(xc)+E(xc)   XCENC  =        57.29187661
  PAW double counting   =       272.04268587     -277.16869077
  entropy T*S    EENTRO =        -0.00000478
  eigenvalues    EBANDS =      -189.72035574
  atomic energy  EATOM  =       588.62352690
  free energy    TOTEN  =       -36.90074662 eV

  energy without entropy =      -36.90074184  energy(sigma->0) =      -36.90074423

 average (electrostatic) potential at core
  the test charge radii are     0.6991
  (the norm of the test charge is              1.0000)
       1 -58.2650       2 -58.2650       3 -58.2650       4 -58.2650

 E-fermi :  -2.7969     XC(G=0):  -2.1633     alpha+bet : -1.9046

[...]

 k-point   247 :       0.5000    0.5000    0.0000
  band No.  band energies     occupation
      1     -16.9142      2.00000
      2     -16.9142      2.00000
      3     -15.9026      2.00000
      4     -15.9026      2.00000
      5      -9.2511      2.00000
      6      -9.2511      2.00000
      7      -5.0511      2.00000
      8      -5.0511      2.00000
      9      -1.1200      0.00000
     10      -1.1200      0.00000
     11       4.1718      0.00000
     12       4.1718      0.00000

 soft charge-density along one line, spin component           1
         0         1         2         3         4         5         6         7         8         9
 total charge-density along one line

------------------------ aborting loop because EDIFF is reached ----------------------------------------

  FORCE on cell =-STRESS in cart. coord.  units (eV):
  Direction    XX          YY          ZZ          XY          YZ          ZX
  Alpha Z     6.18334     6.18334     6.18334
  Ewald    3036.30511  3038.24827 -3571.44230    -0.00000     0.00000    -0.00000
  Hartree  2973.98843  2974.66908 -2951.39306    -0.00000    -0.00000    -0.00000
  E(xc)     -58.10890   -58.12640   -60.44598     0.00000    -0.00000    -0.00000
  Local   -6183.40448 -6185.71161  6317.22725    -0.00000     0.00000    -0.00000
  n-local   -13.37609   -13.87528   -12.59436     0.06281    -0.00000    -0.00000
  augment    -1.50295    -1.50454    -1.38855    -0.00000     0.00000     0.00000
  Kinetic   236.61184   240.11710   273.85231    -4.50856     0.00000     0.00000
  Fock        0.00000     0.00000     0.00000     0.00000     0.00000     0.00000
  Total      -3.30370    -0.00003    -0.00135     0.00000     0.00000     0.00000
  in kB     -25.10516    -0.00024    -0.01029     0.00000     0.00000     0.00000

 VOLUME and BASIS-vectors are now :
  energy-cutoff  :     2000.00
  volume of cell :      210.84
      direct lattice vectors                 reciprocal lattice vectors
     4.337787509  0.000000000  0.000000000     0.230532270  0.000000000  0.000000000
     0.000000000  2.460829810  0.000000000     0.000000000  0.406366989  0.000000000
     0.000000000  0.000000000 19.751443093     0.000000000  0.000000000  0.050629212

  length of vectors
     4.337787509  2.460829810 19.751443093     0.230532270  0.406366989  0.050629212

 FORCES acting on ions
    electron-ion (+dipol)            ewald-force                    non-local-force                 convergence-correction
   0.325E+01 0.761E-16 -.132E-08   -.326E+01 -.100E-13 0.620E-18   0.808E-03 0.347E-17 0.000E+00   -.115E-05 -.120E-14 0.281E-11
   -.325E+01 0.214E-12 -.842E-08   0.326E+01 0.426E-14 -.906E-18   -.808E-03 -.347E-17 0.000E+00   0.115E-05 -.121E-14 0.279E-11
   0.325E+01 -.154E-12 -.129E-08   -.326E+01 -.340E-14 0.247E-18   0.808E-03 0.104E-16 0.000E+00   -.115E-05 -.115E-14 0.269E-11
   -.325E+01 0.272E-15 -.842E-08   0.326E+01 -.418E-14 0.390E-19   -.808E-03 -.104E-16 0.000E+00   0.115E-05 -.123E-14 0.270E-11
   -.125E-05 0.606E-13 -.194E-07   -.577E-14 -.133E-13 0.602E-34   0.000E+00 0.000E+00 0.000E+00   -.365E-12 -.479E-14 0.110E-10

 POSITION                                       TOTAL-FORCE (eV/Angst)
      4.33623      0.00000     -0.00000         0.000000      0.000000      0.000000
      0.72452      1.23041      0.00000        -0.000000      0.000000     -0.000000
      2.16734      1.23041     -0.00000         0.000000      0.000000      0.000000
      2.89341      0.00000      0.00000        -0.000000     -0.000000     -0.000000
    total drift:                               -0.000001      0.000000     -0.000000

  FREE ENERGIE OF THE ION-ELECTRON SYSTEM (eV)
  free  energy   TOTEN  =       -36.90074662 eV

  energy  without entropy=      -36.90074184  energy(sigma->0) =      -36.90074423

 d Force = 0.9282916E-09[ 0.170E-11, 0.185E-08]  d Energy = 0.9232508E-09 0.504E-11
 d Force =-0.2788250E-04[-0.279E-04,-0.279E-04]  d Ewald  =-0.2788250E-04 0.000E+00

 Quasi-Newton relaxation of ions (Broydens 2nd method)
  g(Force)  = 0.764E-14   g(Stress)= 0.000E+00

 retain information from N=  1 steps
 eigenvalues of (default step * inverse Hessian matrix)
  average eigenvalue of G=   0.2052
 eigenvalue spectrum of G is  0.2052

 reached required accuracy - stopping structural energy minimisation