 vasp.5.3.5 31Mar14 (build Mar 02 2015 18:14:16) complex

 executed on             LinuxIFC date 2018.08.09  20:03:22

 INCAR:
 POTCAR:   PAW_PBE C 08Apr2002
 POTCAR:   PAW_PBE C 08Apr2002
   VRHFIN =C: s2p2

   TITEL  = PAW_PBE C 08Apr2002
   POMASS =   12.011; ZVAL   =    4.000    mass and valenz
   ENMAX  =  400.000; ENMIN  =  300.000 eV
   QCUT   =   -5.516; QGAM   =   11.032    optimization parameters

   Description
     l     E      TYP  RCUT    TYP  RCUT
     0   .000     23  1.200
     0   .000     23  1.200
     1   .000     23  1.500
     1  2.500     23  1.500
     2   .000      7  1.500

 PAW_PBE C 08Apr2002                    :

 POSCAR: MD-kMC export data
  positions in direct lattice
  velocities in cartesian coordinates
 exchange correlation table for  LEXCH =        8
   RHO(1)=    0.500       N(1)  =     2000
   RHO(2)=  100.500       N(2)  =     4000

 ion  position               nearest neighbor table
   1  0.000  0.000  0.000-   4 1.42   2 1.44   2 1.44
   2  0.166  0.500  0.000-   3 1.42   1 1.44   1 1.44
   3  0.500  0.500  0.000-   2 1.42   4 1.44   4 1.44
   4  0.666  0.000  0.000-   1 1.42   3 1.44   3 1.44

  LATTYP: Found a simple orthorhombic cell.
 ALAT       =     2.5045573466
 B/A-ratio  =     1.7016888142
 C/A-ratio  =     7.8863418810

  Lattice vectors:

 A1 = (   0.0000000000,  -2.5045573466,   0.0000000000)
 A2 = (  -4.2619772213,   0.0000000000,   0.0000000000)
 A3 = (   0.0000000000,   0.0000000000, -19.7517954958)

Analysis of symmetry for initial positions (statically):
 Subroutine PRICEL returns following result:

  LATTYP: Found a base centered orthorhombic cell.
 ALAT       =     2.5045573466
 B/A-ratio  =     1.7016888142
 C/A-ratio  =     7.8863418810

[...]

   2 primitive cells build up your supercell.

 Routine SETGRP: Setting up the symmetry group for a
 simple orthorhombic supercell.

 Subroutine GETGRP returns: Found  8 space group operations
 (whereof  4 operations were pure point group operations)
 out of a pool of  8 trial point group operations.

The static configuration has the point symmetry C_2v.
 The point group associated with its full space group is D_2h.

Analysis of symmetry for dynamics (positions and initial velocities):
 Subroutine PRICEL returns following result:

  LATTYP: Found a base centered orthorhombic cell.
 ALAT       =     2.5045573466
 B/A-ratio  =     1.7016888142
 C/A-ratio  =     7.8863418810

  Lattice vectors:

 A1 = (   2.1309886107,  -1.2522786733,   0.0000000000)
 A2 = (  -2.1309886107,  -1.2522786733,   0.0000000000)
 A3 = (   0.0000000000,   0.0000000000, -19.7517954958)

   2 primitive cells build up your supercell.

 Routine SETGRP: Setting up the symmetry group for a
 simple orthorhombic supercell.

 Subroutine GETGRP returns: Found  8 space group operations
 (whereof  4 operations were pure point group operations)
 out of a pool of  8 trial point group operations.

The dynamic configuration has the point symmetry C_2v.
 The point group associated with its full space group is D_2h.

 KPOINTS: Automatic mesh

Automatic generation of k-mesh.
Space group operators:
 irot       det(A)        alpha          n_x          n_y          n_z        tau_x        tau_y        tau_z
    1     1.000000     0.000001     1.000000     0.000000     0.000000     0.000000     0.000000     0.000000
    2    -1.000000   180.000000     0.000000     0.000000     1.000000     0.000000     0.000000     0.000000
    3     1.000000   180.000000     1.000000     0.000000     0.000000     0.000000     0.000000     0.000000
    4    -1.000000   179.999999     0.000000     1.000000     0.000000     0.000000     0.000000     0.000000
    5    -1.000000     0.000001     1.000000     0.000000     0.000000     0.166667    -0.500000     0.000000
    6     1.000000   180.000000     0.000000     0.000000     1.000000     0.166667    -0.500000     0.000000
    7    -1.000000   180.000000     1.000000     0.000000     0.000000     0.166667    -0.500000     0.000000
    8     1.000000   179.999999     0.000000     1.000000     0.000000     0.166667    -0.500000     0.000000

 Subroutine IBZKPT returns following result:

 Found    247 irreducible k-points:

 Following reciprocal coordinates:
            Coordinates               Weight
  0.000000  0.000000  0.000000      1.000000
  0.041667  0.000000  0.000000      2.000000
  0.083333  0.000000  0.000000      2.000000
  0.125000  0.000000  0.000000      2.000000
  0.166667  0.000000  0.000000      2.000000
  0.208333  0.000000  0.000000      2.000000
  0.250000  0.000000  0.000000      2.000000
  0.291667  0.000000  0.000000      2.000000
  0.333333  0.000000  0.000000      2.000000
  0.375000  0.000000  0.000000      2.000000
  0.416667  0.000000  0.000000      2.000000
  0.458333  0.000000  0.000000      2.000000
  0.500000  0.000000  0.000000      1.000000
  0.000000  0.027778  0.000000      2.000000
  0.041667  0.027778  0.000000      4.000000
  0.083333  0.027778  0.000000      4.000000
  0.125000  0.027778  0.000000      4.000000
  0.166667  0.027778  0.000000      4.000000
  0.208333  0.027778  0.000000      4.000000
  0.250000  0.027778  0.000000      4.000000
  0.291667  0.027778  0.000000      4.000000
  0.333333  0.027778  0.000000      4.000000
  0.375000  0.027778  0.000000      4.000000
  0.416667  0.027778  0.000000      4.000000
  0.458333  0.027778  0.000000      4.000000
  0.500000  0.027778  0.000000      2.000000
  0.000000  0.055556  0.000000      2.000000
  0.041667  0.055556  0.000000      4.000000
  0.083333  0.055556  0.000000      4.000000
  0.125000  0.055556  0.000000      4.000000
  0.166667  0.055556  0.000000      4.000000
  0.208333  0.055556  0.000000      4.000000
  0.250000  0.055556  0.000000      4.000000
  0.291667  0.055556  0.000000      4.000000
  0.333333  0.055556  0.000000      4.000000
  0.375000  0.055556  0.000000      4.000000
  0.416667  0.055556  0.000000      4.000000
  0.458333  0.055556  0.000000      4.000000
  0.500000  0.055556  0.000000      2.000000
  0.000000  0.083333  0.000000      2.000000
  0.041667  0.083333  0.000000      4.000000
  0.083333  0.083333  0.000000      4.000000
  0.125000  0.083333  0.000000      4.000000
  0.166667  0.083333  0.000000      4.000000
  0.208333  0.083333  0.000000      4.000000
  0.250000  0.083333  0.000000      4.000000
  0.291667  0.083333  0.000000      4.000000
  0.333333  0.083333  0.000000      4.000000
  0.375000  0.083333  0.000000      4.000000
  0.416667  0.083333  0.000000      4.000000
  0.458333  0.083333  0.000000      4.000000
  0.500000  0.083333  0.000000      2.000000
  0.000000  0.111111  0.000000      2.000000
  0.041667  0.111111  0.000000      4.000000
  0.083333  0.111111  0.000000      4.000000
  0.125000  0.111111  0.000000      4.000000
  0.166667  0.111111  0.000000      4.000000
  0.208333  0.111111  0.000000      4.000000
  0.250000  0.111111  0.000000      4.000000
  0.291667  0.111111  0.000000      4.000000
[...]
  0.458333  0.472222  0.000000      4.000000
  0.500000  0.472222  0.000000      2.000000
  0.000000  0.500000  0.000000      1.000000
  0.041667  0.500000  0.000000      2.000000
  0.083333  0.500000  0.000000      2.000000
  0.125000  0.500000  0.000000      2.000000
  0.166667  0.500000  0.000000      2.000000
  0.208333  0.500000  0.000000      2.000000
  0.250000  0.500000  0.000000      2.000000
  0.291667  0.500000  0.000000      2.000000
  0.333333  0.500000  0.000000      2.000000
  0.375000  0.500000  0.000000      2.000000
  0.416667  0.500000  0.000000      2.000000
  0.458333  0.500000  0.000000      2.000000
  0.500000  0.500000  0.000000      1.000000

 Following cartesian coordinates:
            Coordinates               Weight
  0.000000  0.000000  0.000000      1.000000
  0.009776  0.000000  0.000000      2.000000
  0.019553  0.000000  0.000000      2.000000
  0.029329  0.000000  0.000000      2.000000
  0.039105  0.000000  0.000000      2.000000
  0.048882  0.000000  0.000000      2.000000
  0.058658  0.000000  0.000000      2.000000
  0.068435  0.000000  0.000000      2.000000
  0.078211  0.000000  0.000000      2.000000
  0.087987  0.000000  0.000000      2.000000
  0.097764  0.000000  0.000000      2.000000
  0.107540  0.000000  0.000000      2.000000
  0.117316  0.000000  0.000000      1.000000
  0.000000  0.011091  0.000000      2.000000
  0.009776  0.011091  0.000000      4.000000
  0.019553  0.011091  0.000000      4.000000
  0.029329  0.011091  0.000000      4.000000
  0.039105  0.011091  0.000000      4.000000
  0.048882  0.011091  0.000000      4.000000
  0.058658  0.011091  0.000000      4.000000
  0.068435  0.011091  0.000000      4.000000
  0.078211  0.011091  0.000000      4.000000
  0.087987  0.011091  0.000000      4.000000
  0.097764  0.011091  0.000000      4.000000
  0.107540  0.011091  0.000000      4.000000
  0.117316  0.011091  0.000000      2.000000
  0.000000  0.022182  0.000000      2.000000
  0.009776  0.022182  0.000000      4.000000
  0.019553  0.022182  0.000000      4.000000
  0.029329  0.022182  0.000000      4.000000
  0.039105  0.022182  0.000000      4.000000
  0.048882  0.022182  0.000000      4.000000
  0.058658  0.022182  0.000000      4.000000
  0.068435  0.022182  0.000000      4.000000
  0.078211  0.022182  0.000000      4.000000
  0.087987  0.022182  0.000000      4.000000
  0.097764  0.022182  0.000000      4.000000
  0.107540  0.022182  0.000000      4.000000
  0.117316  0.022182  0.000000      2.000000
  0.000000  0.033273  0.000000      2.000000
  0.009776  0.033273  0.000000      4.000000
  0.019553  0.033273  0.000000      4.000000
  0.029329  0.033273  0.000000      4.000000
  0.039105  0.033273  0.000000      4.000000
  0.048882  0.033273  0.000000      4.000000
  0.058658  0.033273  0.000000      4.000000
  0.068435  0.033273  0.000000      4.000000
  0.078211  0.033273  0.000000      4.000000
  0.087987  0.033273  0.000000      4.000000
  0.097764  0.033273  0.000000      4.000000
  0.107540  0.033273  0.000000      4.000000
  0.117316  0.033273  0.000000      2.000000
  0.000000  0.044364  0.000000      2.000000
  0.009776  0.044364  0.000000      4.000000
  0.019553  0.044364  0.000000      4.000000
  0.029329  0.044364  0.000000      4.000000
  0.039105  0.044364  0.000000      4.000000
  0.048882  0.044364  0.000000      4.000000
  0.058658  0.044364  0.000000      4.000000
  0.068435  0.044364  0.000000      4.000000
[...]
  0.107540  0.188545  0.000000      4.000000
  0.117316  0.188545  0.000000      2.000000
  0.000000  0.199636  0.000000      1.000000
  0.009776  0.199636  0.000000      2.000000
  0.019553  0.199636  0.000000      2.000000
  0.029329  0.199636  0.000000      2.000000
  0.039105  0.199636  0.000000      2.000000
  0.048882  0.199636  0.000000      2.000000
  0.058658  0.199636  0.000000      2.000000
  0.068435  0.199636  0.000000      2.000000
  0.078211  0.199636  0.000000      2.000000
  0.087987  0.199636  0.000000      2.000000
  0.097764  0.199636  0.000000      2.000000
  0.107540  0.199636  0.000000      2.000000
  0.117316  0.199636  0.000000      1.000000

 I would recommend the setting:
   dimension x,y,z NGX =    62 NGY =   37 NGZ =  288
[...]
 k-point ** :   0.2083 0.2778 0.0000  plane waves:   42848
 k-point ** :   0.2500 0.2778 0.0000  plane waves:   42846
 k-point ** :   0.2917 0.2778 0.0000  plane waves:   42811
 k-point ** :   0.3333 0.2778 0.0000  plane waves:   42794
 k-point ** :   0.3750 0.2778 0.0000  plane waves:   42772
 k-point ** :   0.4167 0.2778 0.0000  plane waves:   42779
 k-point ** :   0.4583 0.2778 0.0000  plane waves:   42754
 k-point ** :   0.5000 0.2778 0.0000  plane waves:   42738
 k-point ** :   0.0000 0.3056 0.0000  plane waves:   42896
 k-point ** :   0.0417 0.3056 0.0000  plane waves:   42889
 k-point ** :   0.0833 0.3056 0.0000  plane waves:   42909
 k-point ** :   0.1250 0.3056 0.0000  plane waves:   42891
 k-point ** :   0.1667 0.3056 0.0000  plane waves:   42873
 k-point ** :   0.2083 0.3056 0.0000  plane waves:   42851
 k-point ** :   0.2500 0.3056 0.0000  plane waves:   42836
 k-point ** :   0.2917 0.3056 0.0000  plane waves:   42819
 k-point ** :   0.3333 0.3056 0.0000  plane waves:   42780
 k-point ** :   0.3750 0.3056 0.0000  plane waves:   42780
 k-point ** :   0.4167 0.3056 0.0000  plane waves:   42779
 k-point ** :   0.4583 0.3056 0.0000  plane waves:   42758
 k-point ** :   0.5000 0.3056 0.0000  plane waves:   42746
 k-point ** :   0.0000 0.3333 0.0000  plane waves:   42900
 k-point ** :   0.0417 0.3333 0.0000  plane waves:   42885
 k-point ** :   0.0833 0.3333 0.0000  plane waves:   42897
[...]
 k-point ** :   0.4583 0.4722 0.0000  plane waves:   42833
 k-point ** :   0.5000 0.4722 0.0000  plane waves:   42814
 k-point ** :   0.0000 0.5000 0.0000  plane waves:   42854
 k-point ** :   0.0417 0.5000 0.0000  plane waves:   42838
 k-point ** :   0.0833 0.5000 0.0000  plane waves:   42878
 k-point ** :   0.1250 0.5000 0.0000  plane waves:   42874
 k-point ** :   0.1667 0.5000 0.0000  plane waves:   42904
 k-point ** :   0.2083 0.5000 0.0000  plane waves:   42880
 k-point ** :   0.2500 0.5000 0.0000  plane waves:   42884
 k-point ** :   0.2917 0.5000 0.0000  plane waves:   42888
 k-point ** :   0.3333 0.5000 0.0000  plane waves:   42908
 k-point ** :   0.3750 0.5000 0.0000  plane waves:   42870
 k-point ** :   0.4167 0.5000 0.0000  plane waves:   42856
 k-point ** :   0.4583 0.5000 0.0000  plane waves:   42876
 k-point ** :   0.5000 0.5000 0.0000  plane waves:   42784

 maximum and minimum number of plane-waves per node :     21497    21316

 maximum number of plane-waves:     42920
 maximum index in each direction:
   IXMAX=   15   IYMAX=    9   IZMAX=   72
   IXMIN=  -16   IYMIN=   -9   IZMIN=  -72

 NGX is ok and might be reduce to  64
 NGY is ok and might be reduce to  38
 WARNING: aliasing errors must be expected set NGZ to 290 to avoid them
 aliasing errors are usually negligible using standard VASP settings
 and one can safely disregard these warnings

 parallel 3D FFT for wavefunctions:
    minimum data exchange during FFTs selected (reduces bandwidth)
 parallel 3D FFT for charge:
    minimum data exchange during FFTs selected (reduces bandwidth)

 Broyden mixing: mesh for mixing (old mesh)
   NGX = 31   NGY = 19   NGZ =145
  (NGX  =128   NGY  = 80   NGZ  =576)
  gives a total of  85405 points

 initial charge density was supplied:
 charge density of overlapping atoms calculated
 number of electron      16.0000000 magnetization
 keeping initial charge density in first step

 Maximum index for augmentation-charges         5073 (set IRDMAX)

 First call to EWALD:  gamma=   0.298
 Maximum number of real-space cells 4x 6x 1
 Maximum number of reciprocal cells 2x 1x 8

 FEWALD executed in parallel

----------------------------------------- Iteration    1(   1)  ---------------------------------------

 eigenvalue-minimisations  :  5928
 total energy-change (2. order) : 0.1878378E+03  (-0.1060171E+04)
 number of electron      16.0000000 magnetization
 augmentation part       16.0000000 magnetization

 Free energy of the ion-electron system (eV)
  alpha Z        PSCENC =         6.18334092
  Ewald energy   TEWEN  =      2503.22792213
  -Hartree energ DENC   =     -2931.11149308
  -exchange      EXHF   =         0.00000000
  -V(xc)+E(xc)   XCENC  =        54.92790445
  PAW double counting   =       151.32577238     -155.92769107
  entropy T*S    EENTRO =        -0.00133135
  eigenvalues    EBANDS =       -29.41013581
  atomic energy  EATOM  =       588.62352690
  free energy    TOTEN  =       187.83781548 eV

  energy without entropy =      187.83914683  energy(sigma->0) =      187.83848116

[...]

 eigenvalue-minimisations  : 10364
 total energy-change (2. order) :-0.1972158E+03  (-0.1752031E+03)
 number of electron      16.0000000 magnetization
 augmentation part       16.0000000 magnetization

[...]

 Broyden mixing:
  rms(total) = 0.71937E+00    rms(broyden)= 0.71937E+00
  rms(prec ) = 0.78317E+00
  weight for this iteration     100.00

[...]

 eigenvalues of (default mixing * dielectric matrix)
  average eigenvalue GAMMA=   2.3163
  2.3163

[...]

 average (electrostatic) potential at core
  the test charge radii are     0.6991
  (the norm of the test charge is              1.0000)
       1 -58.2649       2 -58.2649       3 -58.2649       4 -58.2649

 E-fermi :  -2.7969     XC(G=0):  -2.1634     alpha+bet : -1.9046

 k-point     1 :       0.0000    0.0000    0.0000
  band No.  band energies     occupation
      1     -22.1494      2.00000
      2     -16.8283      2.00000
      3     -15.9061      2.00000
      4     -10.2784      2.00000
      5      -9.3566      2.00000
      6      -5.9171      2.00000
      7      -5.7545      2.00000
      8      -4.9853      2.00000
      9      -1.1129      0.00000
     10       0.5363      0.00000
     11       1.3357      0.00000
     12       1.7252      0.00000

[...]

 soft charge-density along one line, spin component           1
         0         1         2         3         4         5         6         7         8         9
 total charge-density along one line

------------------------ aborting loop because EDIFF is reached ----------------------------------------

  FORCE on cell =-STRESS in cart. coord.  units (eV):
  Direction    XX          YY          ZZ          XY          YZ          ZX
  Alpha Z     6.18334     6.18334     6.18334
  Ewald    3038.33731  3036.46012 -3571.56975    -0.00000     0.00000     0.00000
  Hartree  2974.75625  2974.13613 -2951.51150     0.00000     0.00000    -0.00000
  E(xc)     -58.12703   -58.10879   -60.44626     0.00000     0.00000    -0.00000
  Local   -6185.87295 -6183.72077  6317.47240    -0.00000     0.00000    -0.00000
  n-local   -13.87600   -13.37584   -12.59444     0.07607    -0.00000    -0.00000
  augment    -1.50484    -1.50277    -1.38857    -0.00000     0.00000    -0.00000
  Kinetic   240.10435   236.62890   273.85344    -4.62741     0.00000     0.00000
  Fock        0.00000     0.00000     0.00000     0.00000     0.00000     0.00000
  Total       0.00042    -3.29967    -0.00135     0.00000     0.00000     0.00000
  in kB       0.00322   -25.07451    -0.01029     0.00000     0.00000     0.00000

 VOLUME and BASIS-vectors are now :
  energy-cutoff  :     2000.00
  volume of cell :      210.84
      direct lattice vectors                 reciprocal lattice vectors
     4.261977221  0.000000000  0.000000000     0.234632882  0.000000000  0.000000000
     0.000000000  2.504557347  0.000000000     0.000000000  0.399272151  0.000000000
     0.000000000  0.000000000 19.751795496     0.000000000  0.000000000  0.050628309

[...]

 FORCES acting on ions
    electron-ion (+dipol)            ewald-force                    non-local-force                 convergence-correction
   -.325E+01 -.281E-15 0.664E-09   0.325E+01 0.117E-13 0.188E-18   0.590E-03 0.000E+00 0.414E-24   0.238E-06 0.834E-15 -.835E-13
   0.325E+01 0.195E-12 -.327E-08   -.325E+01 -.506E-14 -.196E-34   -.590E-03 -.694E-17 -.414E-24   -.238E-06 -.221E-14 -.843E-13
   -.325E+01 -.152E-12 0.664E-09   0.325E+01 0.827E-14 -.188E-18   0.590E-03 0.139E-16 0.661E-24   0.238E-06 0.176E-14 -.836E-13
   0.325E+01 -.203E-15 -.324E-08   -.325E+01 -.848E-14 0.241E-34   -.590E-03 -.139E-16 -.620E-24   -.238E-06 -.321E-14 -.842E-13
   -.212E-06 0.432E-13 -.518E-08   0.355E-14 0.642E-14 0.000E+00   0.000E+00 -.694E-17 0.404E-25   0.117E-13 -.283E-14 -.336E-12

 POSITION                                       TOTAL-FORCE (eV/Angst)
      0.00168      0.00000      0.00000         0.000604     -0.000000      0.000000
      0.70865      1.25228      0.00000        -0.000604     -0.000000      0.000000
      2.13267      1.25228      0.00000         0.000604      0.000000      0.000000
      2.83964      0.00000      0.00000        -0.000604     -0.000000      0.000000
    total drift:                               -0.000000      0.000000     -0.000000

  FREE ENERGIE OF THE ION-ELECTRON SYSTEM (eV)
  free  energy   TOTEN  =       -36.90063775 eV

  energy  without entropy=      -36.90063332  energy(sigma->0) =      -36.90063554

 Quasi-Newton relaxation of ions (Broydens 2nd method)
  g(Force)  = 0.704E-07   g(Stress)= 0.000E+00

 Reset! Starting new Quasi-Newton update for ions

[...]

WARNING in EDDRMM: call to ZHEGV failed, returncode =   6  3  1

[...]

WARNING in EDDRMM: call to ZHEGV failed, returncode =   6  3  1

[...]

 d Force =-0.1079814E-06[-0.286E-06, 0.704E-07]  d Energy =-0.1120715E-06 0.409E-08
 d Force = 0.3776825E-03[ 0.377E-03, 0.378E-03]  d Ewald  = 0.3776825E-03 0.132E-10

[...]

 retain information from N=  1 steps
 eigenvalues of (default step * inverse Hessian matrix)
  average eigenvalue of G=   0.1973
 eigenvalue spectrum of G is  0.1973

[...]

 d Force = 0.1149992E-06[ 0.157E-09, 0.230E-06]  d Energy = 0.1179878E-06-0.299E-08
 d Force =-0.3030871E-03[-0.303E-03,-0.303E-03]  d Ewald  =-0.3030871E-03-0.909E-11

[...]

 eigenvalue-minimisations  :  4832
 total energy-change (2. order) : 0.5555876E-09  ( 0.6109908E-09)
 number of electron      16.0000000 magnetization
 augmentation part        0.3762440 magnetization

[...]

 eigenvalue-minimisations  :  1898
 total energy-change (2. order) :-0.5269385E-09  ( 0.5127174E-13)
 number of electron      16.0000000 magnetization
 augmentation part        0.3762440 magnetization

[...]

 eigenvalue-minimisations  :  1494
 total energy-change (2. order) :-0.1806484E-09  (-0.1079383E-13)
 number of electron      16.0000000 magnetization
 augmentation part        0.3762440 magnetization

[...]

 d Force =-0.2003831E-13[-0.147E-12, 0.107E-12]  d Energy = 0.1763283E-09-0.176E-09
 d Force =-0.2069703E-06[-0.207E-06,-0.207E-06]  d Ewald  =-0.2069705E-06 0.455E-12

[...]

 FEWALD executed in parallel

[...]

 eigenvalue-minimisations  :  1270
 total energy-change (2. order) : 0.2479510E-09  (-0.2611902E-13)
 number of electron      16.0000000 magnetization
 augmentation part        0.3762440 magnetization

[...]

 eigenvalue-minimisations  :  1163
 total energy-change (2. order) :-0.2830802E-10  ( 0.3708967E-14)
 number of electron      16.0000000 magnetization
 augmentation part        0.3762440 magnetization

 Broyden mixing:
  rms(total) = 0.43225E-09    rms(broyden)= 0.43225E-09
  rms(prec ) = 0.77517E-09
  weight for this iteration     100.00

 eigenvalues of (default mixing * dielectric matrix)
  average eigenvalue GAMMA=   2.2738
  1.0509  2.5262  3.2443

[...]

----------------------------------------- Iteration    5(   5)  ---------------------------------------

 eigenvalue-minimisations  :  1192
 total energy-change (2. order) : 0.2160050E-10  ( 0.1462205E-13)
 number of electron      16.0000000 magnetization
 augmentation part        0.3762440 magnetization

 Free energy of the ion-electron system (eV)
  alpha Z        PSCENC =         6.18334092
  Ewald energy   TEWEN  =      2503.22784763
  -Hartree energ DENC   =     -2997.38081676
  -exchange      EXHF   =         0.00000000
  -V(xc)+E(xc)   XCENC  =        57.29214992
  PAW double counting   =       272.04847007     -277.17450124
  entropy T*S    EENTRO =        -0.00000445
  eigenvalues    EBANDS =      -189.72065073
  atomic energy  EATOM  =       588.62352690
  free energy    TOTEN  =       -36.90063776 eV

  energy without entropy =      -36.90063330  energy(sigma->0) =      -36.90063553

 average (electrostatic) potential at core
  the test charge radii are     0.6991
  (the norm of the test charge is              1.0000)
       1 -58.2649       2 -58.2650       3 -58.2649       4 -58.2650

 E-fermi :  -2.7969     XC(G=0):  -2.1632     alpha+bet : -1.9046

[...]

 k-point   247 :       0.5000    0.5000    0.0000
  band No.  band energies     occupation
      1     -17.0837      2.00000
      2     -17.0837      2.00000
      3     -15.8951      2.00000
      4     -15.8951      2.00000
      5      -9.0432      2.00000
      6      -9.0432      2.00000
      7      -5.1826      2.00000
      8      -5.1826      2.00000
      9      -1.1360      0.00000
     10      -1.1360      0.00000
     11       4.5994      0.00000
     12       4.5994      0.00000

 soft charge-density along one line, spin component           1
         0         1         2         3         4         5         6         7         8         9
 total charge-density along one line

------------------------ aborting loop because EDIFF is reached ----------------------------------------

  FORCE on cell =-STRESS in cart. coord.  units (eV):
  Direction    XX          YY          ZZ          XY          YZ          ZX
  Alpha Z     6.18334     6.18334     6.18334
  Ewald    3038.33232  3036.46503 -3571.56975    -0.00000     0.00000    -0.00000
  Hartree  2974.75555  2974.13677 -2951.51151    -0.00000    -0.00000    -0.00000
  E(xc)     -58.12705   -58.10877   -60.44626    -0.00000    -0.00000    -0.00000
  Local   -6185.86824 -6183.72539  6317.47242    -0.00000     0.00000     0.00000
  n-local   -13.87604   -13.37580   -12.59444     0.07607    -0.00000    -0.00000
  augment    -1.50483    -1.50277    -1.38857     0.00000     0.00000    -0.00000
  Kinetic   240.10507   236.62813   273.85341    -4.62744     0.00000     0.00000
  Fock        0.00000     0.00000     0.00000     0.00000     0.00000     0.00000
  Total       0.00013    -3.29945    -0.00135     0.00000     0.00000     0.00000
  in kB       0.00099   -25.07284    -0.01028     0.00000     0.00000     0.00000

 VOLUME and BASIS-vectors are now :
  energy-cutoff  :     2000.00
  volume of cell :      210.84
      direct lattice vectors                 reciprocal lattice vectors
     4.261977221  0.000000000  0.000000000     0.234632882  0.000000000  0.000000000
     0.000000000  2.504557347  0.000000000     0.000000000  0.399272151  0.000000000
     0.000000000  0.000000000 19.751795496     0.000000000  0.000000000  0.050628309

  length of vectors
     4.261977221  2.504557347 19.751795496     0.234632882  0.399272151  0.050628309

 FORCES acting on ions
    electron-ion (+dipol)            ewald-force                    non-local-force                 convergence-correction
   -.324E+01 -.205E-15 0.666E-09   0.324E+01 0.639E-15 0.296E-18   0.377E-03 -.139E-16 -.646E-26   0.953E-09 -.214E-14 -.166E-11
   0.324E+01 -.168E-12 -.326E-08   -.324E+01 0.489E-14 -.129E-17   -.377E-03 0.694E-17 0.646E-26   -.953E-09 -.363E-15 -.167E-11
   -.324E+01 -.293E-12 0.674E-09   0.324E+01 -.168E-14 0.111E-17   0.377E-03 0.000E+00 -.646E-26   0.953E-09 0.322E-14 -.165E-11
   0.324E+01 -.665E-15 -.325E-08   -.324E+01 0.257E-14 -.123E-18   -.377E-03 0.694E-17 0.646E-26   -.953E-09 -.530E-14 -.165E-11
   -.211E-06 -.462E-12 -.516E-08   0.355E-14 0.642E-14 -.722E-34   0.000E+00 0.000E+00 0.000E+00   0.637E-14 -.458E-14 -.662E-11

 POSITION                                       TOTAL-FORCE (eV/Angst)
      0.00168     -0.00000      0.00000         0.000000      0.000000      0.000000
      0.70865      1.25228     -0.00000        -0.000000     -0.000000      0.000000
      2.13267      1.25228      0.00000         0.000000     -0.000000      0.000000
      2.83963      0.00000     -0.00000        -0.000000      0.000000      0.000000
    total drift:                               -0.000000     -0.000000     -0.000000

  FREE ENERGIE OF THE ION-ELECTRON SYSTEM (eV)
  free  energy   TOTEN  =       -36.90063776 eV

  energy  without entropy=      -36.90063330  energy(sigma->0) =      -36.90063553

 d Force = 0.5165509E-13[ 0.183E-13, 0.851E-13]  d Energy =-0.2030447E-09 0.203E-09
 d Force = 0.1198294E-06[ 0.120E-06, 0.120E-06]  d Ewald  = 0.1198296E-06 0.000E+00

 Quasi-Newton relaxation of ions (Broydens 2nd method)
  g(Force)  = 0.471E-13   g(Stress)= 0.000E+00

 retain information from N=  1 steps
 eigenvalues of (default step * inverse Hessian matrix)
  average eigenvalue of G=   0.1058
 eigenvalue spectrum of G is  0.1058

 reached required accuracy - stopping structural energy minimisation