 vasp.5.3.5 31Mar14 (build Mar 02 2015 18:14:16) complex

 executed on             LinuxIFC date 2018.08.10  14:45:14

 INCAR:
 POTCAR:   PAW_PBE C 08Apr2002
 POTCAR:   PAW_PBE C 08Apr2002
   VRHFIN =C: s2p2

   TITEL  = PAW_PBE C 08Apr2002
   POMASS =   12.011; ZVAL   =    4.000    mass and valenz
   ENMAX  =  400.000; ENMIN  =  300.000 eV
   QCUT   =   -5.516; QGAM   =   11.032    optimization parameters

   Description
     l     E      TYP  RCUT    TYP  RCUT
     0   .000     23  1.200
     0   .000     23  1.200
     1   .000     23  1.500
     1  2.500     23  1.500
     2   .000      7  1.500

 PAW_PBE C 08Apr2002                    :

 POSCAR: MD-kMC export data
  positions in direct lattice
  velocities in cartesian coordinates
 exchange correlation table for  LEXCH =        8
   RHO(1)=    0.500       N(1)  =     2000
   RHO(2)=  100.500       N(2)  =     4000

 ion  position               nearest neighbor table
   1  1.000  0.000  0.000-   4 1.42   2 1.43   2 1.43
   2  0.167  0.500  0.000-   3 1.42   1 1.43   1 1.43
   3  0.500  0.500  0.000-   2 1.42   4 1.43   4 1.43
   4  0.667  0.000  0.000-   1 1.42   3 1.43   3 1.43

  LATTYP: Found a simple orthorhombic cell.
 ALAT       =     2.4673975657
 B/A-ratio  =     1.7321472706
 C/A-ratio  =     8.1030118713

  Lattice vectors:

 A1 = (   0.0000000000,  -2.4673975657,   0.0000000000)
 A2 = (  -4.2738959588,   0.0000000000,   0.0000000000)
 A3 = (   0.0000000000,   0.0000000000, -19.9933517659)

Analysis of symmetry for initial positions (statically):
 Subroutine PRICEL returns following result:

  LATTYP: Found a base centered orthorhombic cell.
 ALAT       =     2.4673975657
 B/A-ratio  =     1.7321472706
 C/A-ratio  =     8.1030118713

[...]

   2 primitive cells build up your supercell.

 Routine SETGRP: Setting up the symmetry group for a
 simple orthorhombic supercell.

 Subroutine GETGRP returns: Found  8 space group operations
 (whereof  4 operations were pure point group operations)
 out of a pool of  8 trial point group operations.

The static configuration has the point symmetry C_2v.
 The point group associated with its full space group is D_2h.

Analysis of symmetry for dynamics (positions and initial velocities):
 Subroutine PRICEL returns following result:

  LATTYP: Found a base centered orthorhombic cell.
 ALAT       =     2.4673975657
 B/A-ratio  =     1.7321472706
 C/A-ratio  =     8.1030118713

  Lattice vectors:

 A1 = (   2.1369479794,  -1.2336987828,   0.0000000000)
 A2 = (  -2.1369479794,  -1.2336987828,   0.0000000000)
 A3 = (   0.0000000000,   0.0000000000, -19.9933517659)

   2 primitive cells build up your supercell.

 Routine SETGRP: Setting up the symmetry group for a
 simple orthorhombic supercell.

 Subroutine GETGRP returns: Found  8 space group operations
 (whereof  4 operations were pure point group operations)
 out of a pool of  8 trial point group operations.

The dynamic configuration has the point symmetry C_2v.
 The point group associated with its full space group is D_2h.

 KPOINTS: Automatic mesh

Automatic generation of k-mesh.
Space group operators:
 irot       det(A)        alpha          n_x          n_y          n_z        tau_x        tau_y        tau_z
    1     1.000000     0.000001     1.000000     0.000000     0.000000     0.000000     0.000000     0.000000
    2    -1.000000   180.000000     0.000000     0.000000     1.000000     0.000000     0.000000     0.000000
    3     1.000000   179.999999     1.000000     0.000000     0.000000     0.000000     0.000000     0.000000
    4    -1.000000   180.000000     0.000000     1.000000     0.000000     0.000000     0.000000     0.000000
    5    -1.000000     0.000001     1.000000     0.000000     0.000000     0.166667    -0.500000     0.000000
    6     1.000000   180.000000     0.000000     0.000000     1.000000     0.166667    -0.500000     0.000000
    7    -1.000000   179.999999     1.000000     0.000000     0.000000     0.166667    -0.500000     0.000000
    8     1.000000   180.000000     0.000000     1.000000     0.000000     0.166667    -0.500000     0.000000

 Subroutine IBZKPT returns following result:

 Found    247 irreducible k-points:

 Following reciprocal coordinates:
            Coordinates               Weight
  0.000000  0.000000  0.000000      1.000000
  0.041667  0.000000  0.000000      2.000000
  0.083333  0.000000  0.000000      2.000000
  0.125000  0.000000  0.000000      2.000000
  0.166667  0.000000  0.000000      2.000000
  0.208333  0.000000  0.000000      2.000000
  0.250000  0.000000  0.000000      2.000000
  0.291667  0.000000  0.000000      2.000000
  0.333333  0.000000  0.000000      2.000000
  0.375000  0.000000  0.000000      2.000000
  0.416667  0.000000  0.000000      2.000000
  0.458333  0.000000  0.000000      2.000000
  0.500000  0.000000  0.000000      1.000000
  0.000000  0.027778  0.000000      2.000000
  0.041667  0.027778  0.000000      4.000000
  0.083333  0.027778  0.000000      4.000000
  0.125000  0.027778  0.000000      4.000000
  0.166667  0.027778  0.000000      4.000000
  0.208333  0.027778  0.000000      4.000000
  0.250000  0.027778  0.000000      4.000000
  0.291667  0.027778  0.000000      4.000000
  0.333333  0.027778  0.000000      4.000000
  0.375000  0.027778  0.000000      4.000000
  0.416667  0.027778  0.000000      4.000000
  0.458333  0.027778  0.000000      4.000000
  0.500000  0.027778  0.000000      2.000000
  0.000000  0.055556  0.000000      2.000000
  0.041667  0.055556  0.000000      4.000000
  0.083333  0.055556  0.000000      4.000000
  0.125000  0.055556  0.000000      4.000000
  0.166667  0.055556  0.000000      4.000000
  0.208333  0.055556  0.000000      4.000000
  0.250000  0.055556  0.000000      4.000000
  0.291667  0.055556  0.000000      4.000000
  0.333333  0.055556  0.000000      4.000000
  0.375000  0.055556  0.000000      4.000000
  0.416667  0.055556  0.000000      4.000000
  0.458333  0.055556  0.000000      4.000000
  0.500000  0.055556  0.000000      2.000000
  0.000000  0.083333  0.000000      2.000000
  0.041667  0.083333  0.000000      4.000000
  0.083333  0.083333  0.000000      4.000000
  0.125000  0.083333  0.000000      4.000000
  0.166667  0.083333  0.000000      4.000000
  0.208333  0.083333  0.000000      4.000000
  0.250000  0.083333  0.000000      4.000000
  0.291667  0.083333  0.000000      4.000000
  0.333333  0.083333  0.000000      4.000000
  0.375000  0.083333  0.000000      4.000000
  0.416667  0.083333  0.000000      4.000000
  0.458333  0.083333  0.000000      4.000000
  0.500000  0.083333  0.000000      2.000000
  0.000000  0.111111  0.000000      2.000000
  0.041667  0.111111  0.000000      4.000000
  0.083333  0.111111  0.000000      4.000000
  0.125000  0.111111  0.000000      4.000000
  0.166667  0.111111  0.000000      4.000000
  0.208333  0.111111  0.000000      4.000000
  0.250000  0.111111  0.000000      4.000000
  0.291667  0.111111  0.000000      4.000000
[...]
  0.458333  0.472222  0.000000      4.000000
  0.500000  0.472222  0.000000      2.000000
  0.000000  0.500000  0.000000      1.000000
  0.041667  0.500000  0.000000      2.000000
  0.083333  0.500000  0.000000      2.000000
  0.125000  0.500000  0.000000      2.000000
  0.166667  0.500000  0.000000      2.000000
  0.208333  0.500000  0.000000      2.000000
  0.250000  0.500000  0.000000      2.000000
  0.291667  0.500000  0.000000      2.000000
  0.333333  0.500000  0.000000      2.000000
  0.375000  0.500000  0.000000      2.000000
  0.416667  0.500000  0.000000      2.000000
  0.458333  0.500000  0.000000      2.000000
  0.500000  0.500000  0.000000      1.000000

 Following cartesian coordinates:
            Coordinates               Weight
  0.000000  0.000000  0.000000      1.000000
  0.009749  0.000000  0.000000      2.000000
  0.019498  0.000000  0.000000      2.000000
  0.029247  0.000000  0.000000      2.000000
  0.038996  0.000000  0.000000      2.000000
  0.048746  0.000000  0.000000      2.000000
  0.058495  0.000000  0.000000      2.000000
  0.068244  0.000000  0.000000      2.000000
  0.077993  0.000000  0.000000      2.000000
  0.087742  0.000000  0.000000      2.000000
  0.097491  0.000000  0.000000      2.000000
  0.107240  0.000000  0.000000      2.000000
  0.116989  0.000000  0.000000      1.000000
  0.000000  0.011258  0.000000      2.000000
  0.009749  0.011258  0.000000      4.000000
  0.019498  0.011258  0.000000      4.000000
  0.029247  0.011258  0.000000      4.000000
  0.038996  0.011258  0.000000      4.000000
  0.048746  0.011258  0.000000      4.000000
  0.058495  0.011258  0.000000      4.000000
  0.068244  0.011258  0.000000      4.000000
  0.077993  0.011258  0.000000      4.000000
  0.087742  0.011258  0.000000      4.000000
  0.097491  0.011258  0.000000      4.000000
  0.107240  0.011258  0.000000      4.000000
  0.116989  0.011258  0.000000      2.000000
  0.000000  0.022516  0.000000      2.000000
  0.009749  0.022516  0.000000      4.000000
  0.019498  0.022516  0.000000      4.000000
  0.029247  0.022516  0.000000      4.000000
  0.038996  0.022516  0.000000      4.000000
  0.048746  0.022516  0.000000      4.000000
  0.058495  0.022516  0.000000      4.000000
  0.068244  0.022516  0.000000      4.000000
  0.077993  0.022516  0.000000      4.000000
  0.087742  0.022516  0.000000      4.000000
  0.097491  0.022516  0.000000      4.000000
  0.107240  0.022516  0.000000      4.000000
  0.116989  0.022516  0.000000      2.000000
  0.000000  0.033774  0.000000      2.000000
  0.009749  0.033774  0.000000      4.000000
  0.019498  0.033774  0.000000      4.000000
  0.029247  0.033774  0.000000      4.000000
  0.038996  0.033774  0.000000      4.000000
  0.048746  0.033774  0.000000      4.000000
  0.058495  0.033774  0.000000      4.000000
  0.068244  0.033774  0.000000      4.000000
  0.077993  0.033774  0.000000      4.000000
  0.087742  0.033774  0.000000      4.000000
  0.097491  0.033774  0.000000      4.000000
  0.107240  0.033774  0.000000      4.000000
  0.116989  0.033774  0.000000      2.000000
  0.000000  0.045032  0.000000      2.000000
  0.009749  0.045032  0.000000      4.000000
  0.019498  0.045032  0.000000      4.000000
  0.029247  0.045032  0.000000      4.000000
  0.038996  0.045032  0.000000      4.000000
  0.048746  0.045032  0.000000      4.000000
  0.058495  0.045032  0.000000      4.000000
  0.068244  0.045032  0.000000      4.000000
[...]
  0.107240  0.191385  0.000000      4.000000
  0.116989  0.191385  0.000000      2.000000
  0.000000  0.202643  0.000000      1.000000
  0.009749  0.202643  0.000000      2.000000
  0.019498  0.202643  0.000000      2.000000
  0.029247  0.202643  0.000000      2.000000
  0.038996  0.202643  0.000000      2.000000
  0.048746  0.202643  0.000000      2.000000
  0.058495  0.202643  0.000000      2.000000
  0.068244  0.202643  0.000000      2.000000
  0.077993  0.202643  0.000000      2.000000
  0.087742  0.202643  0.000000      2.000000
  0.097491  0.202643  0.000000      2.000000
  0.107240  0.202643  0.000000      2.000000
  0.116989  0.202643  0.000000      1.000000

 I would recommend the setting:
   dimension x,y,z NGX =    62 NGY =   36 NGZ =  292
[...]
 k-point ** :   0.4583 0.2222 0.0000  plane waves:   42809
 k-point ** :   0.5000 0.2222 0.0000  plane waves:   42788
 k-point ** :   0.0000 0.2500 0.0000  plane waves:   42878
 k-point ** :   0.0417 0.2500 0.0000  plane waves:   42887
 k-point ** :   0.0833 0.2500 0.0000  plane waves:   42867
 k-point ** :   0.1250 0.2500 0.0000  plane waves:   42881
 k-point ** :   0.1667 0.2500 0.0000  plane waves:   42861
 k-point ** :   0.2083 0.2500 0.0000  plane waves:   42835
 k-point ** :   0.2500 0.2500 0.0000  plane waves:   42815
 k-point ** :   0.2917 0.2500 0.0000  plane waves:   42813
 k-point ** :   0.3333 0.2500 0.0000  plane waves:   42818
 k-point ** :   0.3750 0.2500 0.0000  plane waves:   42812
 k-point ** :   0.4167 0.2500 0.0000  plane waves:   42820
 k-point ** :   0.4583 0.2500 0.0000  plane waves:   42804
 k-point ** :   0.5000 0.2500 0.0000  plane waves:   42818
 k-point ** :   0.0000 0.2778 0.0000  plane waves:   42892
 k-point ** :   0.0417 0.2778 0.0000  plane waves:   42886
 k-point ** :   0.0833 0.2778 0.0000  plane waves:   42871
 k-point ** :   0.1250 0.2778 0.0000  plane waves:   42870
 k-point ** :   0.1667 0.2778 0.0000  plane waves:   42869
 k-point ** :   0.2083 0.2778 0.0000  plane waves:   42867
 k-point ** :   0.2500 0.2778 0.0000  plane waves:   42841
 k-point ** :   0.2917 0.2778 0.0000  plane waves:   42843
 k-point ** :   0.3333 0.2778 0.0000  plane waves:   42818
 k-point ** :   0.3750 0.2778 0.0000  plane waves:   42819
 k-point ** :   0.4167 0.2778 0.0000  plane waves:   42808
 k-point ** :   0.4583 0.2778 0.0000  plane waves:   42824
 k-point ** :   0.5000 0.2778 0.0000  plane waves:   42830
 k-point ** :   0.0000 0.3056 0.0000  plane waves:   42886
 k-point ** :   0.0417 0.3056 0.0000  plane waves:   42896
 k-point ** :   0.0833 0.3056 0.0000  plane waves:   42883
 k-point ** :   0.1250 0.3056 0.0000  plane waves:   42867
 k-point ** :   0.1667 0.3056 0.0000  plane waves:   42892
 k-point ** :   0.2083 0.3056 0.0000  plane waves:   42858
 k-point ** :   0.2500 0.3056 0.0000  plane waves:   42847
 k-point ** :   0.2917 0.3056 0.0000  plane waves:   42839
 k-point ** :   0.3333 0.3056 0.0000  plane waves:   42838
 k-point ** :   0.3750 0.3056 0.0000  plane waves:   42830
 k-point ** :   0.4167 0.3056 0.0000  plane waves:   42822
 k-point ** :   0.4583 0.3056 0.0000  plane waves:   42816
 k-point ** :   0.5000 0.3056 0.0000  plane waves:   42852
 k-point ** :   0.0000 0.3333 0.0000  plane waves:   42904
 k-point ** :   0.0417 0.3333 0.0000  plane waves:   42899
 k-point ** :   0.0833 0.3333 0.0000  plane waves:   42877
[...]
 k-point ** :   0.4583 0.4722 0.0000  plane waves:   42811
 k-point ** :   0.5000 0.4722 0.0000  plane waves:   42830
 k-point ** :   0.0000 0.5000 0.0000  plane waves:   42862
 k-point ** :   0.0417 0.5000 0.0000  plane waves:   42948
 k-point ** :   0.0833 0.5000 0.0000  plane waves:   42920
 k-point ** :   0.1250 0.5000 0.0000  plane waves:   42922
 k-point ** :   0.1667 0.5000 0.0000  plane waves:   42910
 k-point ** :   0.2083 0.5000 0.0000  plane waves:   42950
 k-point ** :   0.2500 0.5000 0.0000  plane waves:   42932
 k-point ** :   0.2917 0.5000 0.0000  plane waves:   42884
 k-point ** :   0.3333 0.5000 0.0000  plane waves:   42844
 k-point ** :   0.3750 0.5000 0.0000  plane waves:   42818
 k-point ** :   0.4167 0.5000 0.0000  plane waves:   42792
 k-point ** :   0.4583 0.5000 0.0000  plane waves:   42822
 k-point ** :   0.5000 0.5000 0.0000  plane waves:   42800

 maximum and minimum number of plane-waves per node :     21502    21238

 maximum number of plane-waves:     42950
 maximum index in each direction:
   IXMAX=   15   IYMAX=    8   IZMAX=   72
   IXMIN=  -16   IYMIN=   -9   IZMIN=  -72

 NGX is ok and might be reduce to  64
 NGY is ok and might be reduce to  36
 NGZ is ok and might be reduce to 290

 parallel 3D FFT for wavefunctions:
    minimum data exchange during FFTs selected (reduces bandwidth)
 parallel 3D FFT for charge:
    minimum data exchange during FFTs selected (reduces bandwidth)

 Broyden mixing: mesh for mixing (old mesh)
   NGX = 31   NGY = 17   NGZ =145
  (NGX  =128   NGY  = 72   NGZ  =588)
  gives a total of  76415 points

 initial charge density was supplied:
 charge density of overlapping atoms calculated
 number of electron      16.0000000 magnetization
 keeping initial charge density in first step

 Maximum index for augmentation-charges         4659 (set IRDMAX)

 First call to EWALD:  gamma=   0.298
 Maximum number of real-space cells 4x 6x 1
 Maximum number of reciprocal cells 2x 1x 8

 FEWALD executed in parallel

----------------------------------------- Iteration    1(   1)  ---------------------------------------

 eigenvalue-minimisations  :  5928
 total energy-change (2. order) : 0.1899045E+03  (-0.1063328E+04)
 number of electron      16.0000000 magnetization
 augmentation part       16.0000000 magnetization

 Free energy of the ion-electron system (eV)
  alpha Z        PSCENC =         6.18334092
  Ewald energy   TEWEN  =      2584.60983785
  -Hartree energ DENC   =     -3010.05767190
  -exchange      EXHF   =         0.00000000
  -V(xc)+E(xc)   XCENC  =        55.09311882
  PAW double counting   =       151.32577238     -155.92769107
  entropy T*S    EENTRO =        -0.00194037
  eigenvalues    EBANDS =       -29.94384323
  atomic energy  EATOM  =       588.62352690
  free energy    TOTEN  =       189.90445032 eV

  energy without entropy =      189.90639069  energy(sigma->0) =      189.90542050

[...]

 eigenvalue-minimisations  : 10508
 total energy-change (2. order) :-0.1995559E+03  (-0.1781984E+03)
 number of electron      16.0000000 magnetization
 augmentation part       16.0000000 magnetization

[...]

 Broyden mixing:
  rms(total) = 0.73598E+00    rms(broyden)= 0.73598E+00
  rms(prec ) = 0.80008E+00
  weight for this iteration     100.00

[...]

 eigenvalues of (default mixing * dielectric matrix)
  average eigenvalue GAMMA=   2.3110
  2.3110

[...]

 average (electrostatic) potential at core
  the test charge radii are     0.6991
  (the norm of the test charge is              1.0000)
       1 -58.1911       2 -58.1911       3 -58.1911       4 -58.1911

 E-fermi :  -2.7546     XC(G=0):  -2.1428     alpha+bet : -1.9046

 k-point     1 :       0.0000    0.0000    0.0000
  band No.  band energies     occupation
      1     -22.2516      2.00000
      2     -17.0164      2.00000
      3     -15.9805      2.00000
      4     -10.3574      2.00000
      5      -9.1504      2.00000
      6      -5.8031      2.00000
      7      -5.7706      2.00000
      8      -5.1035      2.00000
      9      -1.0886      0.00000
     10       0.5241      0.00000
     11       1.3251      0.00000
     12       1.7079      0.00000

[...]

 soft charge-density along one line, spin component           1
         0         1         2         3         4         5         6         7         8         9
 total charge-density along one line

------------------------ aborting loop because EDIFF is reached ----------------------------------------

  FORCE on cell =-STRESS in cart. coord.  units (eV):
  Direction    XX          YY          ZZ          XY          YZ          ZX
  Alpha Z     6.18334     6.18334     6.18334
  Ewald    3122.50034  3121.57076 -3659.46153    -0.00000     0.00000     0.00000
  Hartree  3055.95759  3055.83107 -3033.22807    -0.00000    -0.00000    -0.00000
  E(xc)     -58.33322   -58.33681   -60.67388     0.00000    -0.00000    -0.00000
  Local   -6350.82719 -6349.94961  6486.54216    -0.00000    -0.00000     0.00000
  n-local   -13.93727   -13.94645   -12.76386     0.05581    -0.00000    -0.00000
  augment    -1.54179    -1.54027    -1.41387     0.00000    -0.00000    -0.00000
  Kinetic   239.98747   240.14486   274.81438    -4.59661     0.00000     0.00000
  Fock        0.00000     0.00000     0.00000     0.00000     0.00000     0.00000
  Total      -0.01073    -0.04310    -0.00132     0.00000     0.00000     0.00000
  in kB      -0.08155    -0.32754    -0.01005     0.00000     0.00000     0.00000

 VOLUME and BASIS-vectors are now :
  energy-cutoff  :     2000.00
  volume of cell :      210.84
      direct lattice vectors                 reciprocal lattice vectors
     4.273895959  0.000000000  0.000000000     0.233978555  0.000000000  0.000000000
     0.000000000  2.467397566  0.000000000     0.000000000  0.405285315  0.000000000
     0.000000000  0.000000000 19.993351766     0.000000000  0.000000000  0.050016626

[...]

 FORCES acting on ions
    electron-ion (+dipol)            ewald-force                    non-local-force                 convergence-correction
   -.144E+00 0.357E-15 -.317E-09   0.179E+00 -.398E-14 0.000E+00   0.200E-01 -.347E-17 0.000E+00   -.179E-07 -.735E-15 0.198E-12
   0.144E+00 0.133E-13 -.581E-08   -.179E+00 0.605E-14 -.310E-18   -.200E-01 0.694E-17 0.103E-24   0.179E-07 -.178E-14 0.198E-12
   -.144E+00 -.201E-12 -.351E-09   0.179E+00 -.680E-14 -.241E-34   0.200E-01 -.104E-16 0.000E+00   -.179E-07 -.824E-15 0.198E-12
   0.144E+00 0.376E-15 -.584E-08   -.179E+00 0.322E-14 0.310E-18   -.200E-01 0.694E-17 0.000E+00   0.179E-07 -.171E-14 0.198E-12
   -.502E-06 -.187E-12 -.123E-07   -.444E-15 -.151E-14 -.963E-34   0.000E+00 0.000E+00 0.103E-24   0.340E-13 -.505E-14 0.791E-12

 POSITION                                       TOTAL-FORCE (eV/Angst)
      4.27336      0.00000      0.00000         0.055697     -0.000000      0.000000
      0.71285      1.23370      0.00000        -0.055697      0.000000     -0.000000
      2.13641      1.23370      0.00000         0.055697     -0.000000      0.000000
      2.84980      0.00000      0.00000        -0.055697      0.000000     -0.000000
    total drift:                               -0.000001     -0.000000     -0.000000

  FREE ENERGIE OF THE ION-ELECTRON SYSTEM (eV)
  free  energy   TOTEN  =       -36.92542547 eV

  energy  without entropy=      -36.92529729  energy(sigma->0) =      -36.92536138

 Quasi-Newton relaxation of ions (Broydens 2nd method)
  g(Force)  = 0.599E-03   g(Stress)= 0.000E+00

 Reset! Starting new Quasi-Newton update for ions

[...]

WARNING in EDDRMM: call to ZHEGV failed, returncode =   6  3  1

[...]

 d Force =-0.8967180E-03[-0.239E-02, 0.599E-03]  d Energy =-0.8966819E-03-0.361E-07
 d Force =-0.3169749E-02[-0.827E-02, 0.193E-02]  d Ewald  =-0.3185277E-02 0.155E-04

[...]

 retain information from N=  1 steps
 eigenvalues of (default step * inverse Hessian matrix)
  average eigenvalue of G=   0.2002
 eigenvalue spectrum of G is  0.2002

[...]

 d Force = 0.9570083E-03[ 0.756E-06, 0.191E-02]  d Energy = 0.9564622E-03 0.546E-06
 d Force = 0.3357533E-02[ 0.102E-03, 0.661E-02]  d Ewald  = 0.3365477E-02-0.794E-05

[...]

 FEWALD executed in parallel

[...]

 eigenvalue-minimisations  :  2986
 total energy-change (2. order) :-0.1892886E-09  (-0.3276754E-12)
 number of electron      16.0000000 magnetization
 augmentation part        0.3817366 magnetization

[...]

 Broyden mixing:
  rms(total) = 0.67413E-07    rms(broyden)= 0.67413E-07
  rms(prec ) = 0.72830E-07
  weight for this iteration     100.00

 eigenvalues of (default mixing * dielectric matrix)
  average eigenvalue GAMMA=   1.4430
  2.5644  1.6256  1.6256  0.9985  0.4008

[...]

----------------------------------------- Iteration    4(   7)  ---------------------------------------

 eigenvalue-minimisations  :  2330
 total energy-change (2. order) : 0.9822543E-10  (-0.2637705E-12)
 number of electron      16.0000000 magnetization
 augmentation part        0.3817366 magnetization

 Free energy of the ion-electron system (eV)
  alpha Z        PSCENC =         6.18334092
  Ewald energy   TEWEN  =      2584.60965761
  -Hartree energ DENC   =     -3078.56045977
  -exchange      EXHF   =         0.00000000
  -V(xc)+E(xc)   XCENC  =        57.51647838
  PAW double counting   =       276.94534644     -282.09359887
  entropy T*S    EENTRO =        -0.00013059
  eigenvalues    EBANDS =      -190.14964627
  atomic energy  EATOM  =       588.62352690
  free energy    TOTEN  =       -36.92548525 eV

  energy without entropy =      -36.92535465  energy(sigma->0) =      -36.92541995

 average (electrostatic) potential at core
  the test charge radii are     0.6991
  (the norm of the test charge is              1.0000)
       1 -58.1911       2 -58.1911       3 -58.1911       4 -58.1911

 E-fermi :  -2.7546     XC(G=0):  -2.1426     alpha+bet : -1.9046

[...]

 k-point   247 :       0.5000    0.5000    0.0000
  band No.  band energies     occupation
      1     -17.0197      2.00000
      2     -17.0197      2.00000
      3     -15.9716      2.00000
      4     -15.9716      2.00000
      5      -9.1586      2.00000
      6      -9.1586      2.00000
      7      -5.1104      2.00000
      8      -5.1104      2.00000
      9      -1.0762      0.00000
     10      -1.0762      0.00000
     11       4.6030      0.00000
     12       4.6030      0.00000

 soft charge-density along one line, spin component           1
         0         1         2         3         4         5         6         7         8         9
 total charge-density along one line

------------------------ aborting loop because EDIFF is reached ----------------------------------------

  FORCE on cell =-STRESS in cart. coord.  units (eV):
  Direction    XX          YY          ZZ          XY          YZ          ZX
  Alpha Z     6.18334     6.18334     6.18334
  Ewald    3122.02964  3122.04128 -3659.46153     0.00000     0.00000     0.00000
  Hartree  3055.89273  3055.89578 -3033.22806    -0.00000    -0.00000    -0.00000
  E(xc)     -58.33499   -58.33502   -60.67387     0.00000    -0.00000    -0.00000
  Local   -6350.38185 -6350.39479  6486.54220    -0.00000    -0.00000    -0.00000
  n-local   -13.94106   -13.94268   -12.76385     0.05644    -0.00000    -0.00000
  augment    -1.54104    -1.54102    -1.41387    -0.00000     0.00000    -0.00000
  Kinetic   240.06156   240.07062   274.81431    -4.59900    -0.00000     0.00000
  Fock        0.00000     0.00000     0.00000     0.00000     0.00000     0.00000
  Total      -0.03167    -0.02248    -0.00132     0.00000     0.00000     0.00000
  in kB      -0.24065    -0.17079    -0.01001     0.00000     0.00000     0.00000

 VOLUME and BASIS-vectors are now :
  energy-cutoff  :     2000.00
  volume of cell :      210.84
      direct lattice vectors                 reciprocal lattice vectors
     4.273895959  0.000000000  0.000000000     0.233978555  0.000000000  0.000000000
     0.000000000  2.467397566  0.000000000     0.000000000  0.405285315  0.000000000
     0.000000000  0.000000000 19.993351766     0.000000000  0.000000000  0.050016626

  length of vectors
     4.273895959  2.467397566 19.993351766     0.233978555  0.405285315  0.050016626

 FORCES acting on ions
    electron-ion (+dipol)            ewald-force                    non-local-force                 convergence-correction
   0.115E-01 0.154E-14 0.137E-10   -.115E-01 -.669E-14 0.507E-18   -.199E-04 0.694E-17 0.129E-25   -.487E-06 -.566E-15 0.445E-11
   -.115E-01 0.450E-14 -.519E-08   0.115E-01 0.450E-14 -.137E-18   0.199E-04 -.694E-17 -.129E-25   0.487E-06 -.467E-15 0.444E-11
   0.115E-01 -.196E-12 0.360E-11   -.115E-01 -.525E-14 -.940E-18   -.199E-04 0.694E-17 0.129E-25   -.487E-06 -.684E-15 0.449E-11
   -.115E-01 -.774E-15 -.522E-08   0.115E-01 0.593E-14 0.571E-18   0.199E-04 -.694E-17 -.129E-25   0.487E-06 -.445E-15 0.450E-11
   -.479E-06 -.191E-12 -.104E-07   -.302E-15 -.151E-14 0.963E-34   0.000E+00 0.000E+00 0.000E+00   0.201E-12 -.216E-14 0.179E-10

 POSITION                                       TOTAL-FORCE (eV/Angst)
      4.27389     -0.00000      0.00000         0.000001     -0.000000      0.000000
      0.71232      1.23370     -0.00000        -0.000001      0.000000     -0.000000
      2.13695      1.23370      0.00000         0.000001     -0.000000      0.000000
      2.84927     -0.00000     -0.00000        -0.000001      0.000000     -0.000000
    total drift:                               -0.000000     -0.000000     -0.000000

  FREE ENERGIE OF THE ION-ELECTRON SYSTEM (eV)
  free  energy   TOTEN  =       -36.92548525 eV

  energy  without entropy=      -36.92535465  energy(sigma->0) =      -36.92541995

 d Force = 0.1482103E-09[-0.215E-11, 0.299E-09]  d Energy =-0.1194849E-09 0.268E-09
 d Force = 0.3967140E-07[ 0.392E-07, 0.402E-07]  d Ewald  = 0.3967170E-07-0.455E-12

 Quasi-Newton relaxation of ions (Broydens 2nd method)
  g(Force)  = 0.775E-13   g(Stress)= 0.000E+00

 retain information from N=  1 steps
 eigenvalues of (default step * inverse Hessian matrix)
  average eigenvalue of G=   0.1988
 eigenvalue spectrum of G is  0.1988

 reached required accuracy - stopping structural energy minimisation