 vasp.5.3.5 31Mar14 (build Mar 02 2015 18:14:16) complex

 executed on             LinuxIFC date 2018.08.09  18:43:48

 INCAR:
 POTCAR:   PAW_PBE C 08Apr2002
 POTCAR:   PAW_PBE C 08Apr2002
   VRHFIN =C: s2p2

   TITEL  = PAW_PBE C 08Apr2002
   POMASS =   12.011; ZVAL   =    4.000    mass and valenz
   ENMAX  =  400.000; ENMIN  =  300.000 eV
   QCUT   =   -5.516; QGAM   =   11.032    optimization parameters

   Description
     l     E      TYP  RCUT    TYP  RCUT
     0   .000     23  1.200
     0   .000     23  1.200
     1   .000     23  1.500
     1  2.500     23  1.500
     2   .000      7  1.500

 PAW_PBE C 08Apr2002                    :

 POSCAR: MD-kMC export data
  positions in direct lattice
  velocities in cartesian coordinates
 exchange correlation table for  LEXCH =        8
   RHO(1)=    0.500       N(1)  =     2000
   RHO(2)=  100.500       N(2)  =     4000

 ion  position               nearest neighbor table
   1  0.000  0.000  0.000-   4 1.42   2 1.43   2 1.43
   2  0.167  0.500  0.000-   3 1.42   1 1.43   1 1.43
   3  0.500  0.500  0.000-   2 1.42   4 1.43   4 1.43
   4  0.667  0.000  0.000-   1 1.42   3 1.43   3 1.43

  LATTYP: Found a simple orthorhombic cell.
 ALAT       =     2.4792662646
 B/A-ratio  =     1.7220876254
 C/A-ratio  =     8.0338538300

  Lattice vectors:

 A1 = (   0.0000000000,  -2.4792662646,   0.0000000000)
 A2 = (  -4.2695137543,   0.0000000000,   0.0000000000)
 A3 = (   0.0000000000,   0.0000000000, -19.9180627754)

Analysis of symmetry for initial positions (statically):
 Subroutine PRICEL returns following result:

  LATTYP: Found a base centered orthorhombic cell.
 ALAT       =     2.4792662646
 B/A-ratio  =     1.7220876254
 C/A-ratio  =     8.0338538300

[...]

   2 primitive cells build up your supercell.

 Routine SETGRP: Setting up the symmetry group for a
 simple orthorhombic supercell.

 Subroutine GETGRP returns: Found  8 space group operations
 (whereof  4 operations were pure point group operations)
 out of a pool of  8 trial point group operations.

The static configuration has the point symmetry C_2v.
 The point group associated with its full space group is D_2h.

Analysis of symmetry for dynamics (positions and initial velocities):
 Subroutine PRICEL returns following result:

  LATTYP: Found a base centered orthorhombic cell.
 ALAT       =     2.4792662646
 B/A-ratio  =     1.7220876254
 C/A-ratio  =     8.0338538300

  Lattice vectors:

 A1 = (   2.1347568772,  -1.2396331323,   0.0000000000)
 A2 = (  -2.1347568772,  -1.2396331323,   0.0000000000)
 A3 = (   0.0000000000,   0.0000000000, -19.9180627754)

   2 primitive cells build up your supercell.

 Routine SETGRP: Setting up the symmetry group for a
 simple orthorhombic supercell.

 Subroutine GETGRP returns: Found  8 space group operations
 (whereof  4 operations were pure point group operations)
 out of a pool of  8 trial point group operations.

The dynamic configuration has the point symmetry C_2v.
 The point group associated with its full space group is D_2h.

 KPOINTS: Automatic mesh

Automatic generation of k-mesh.
Space group operators:
 irot       det(A)        alpha          n_x          n_y          n_z        tau_x        tau_y        tau_z
    1     1.000000     0.000000     1.000000     0.000000     0.000000     0.000000     0.000000     0.000000
    2    -1.000000   180.000000     0.000000     0.000000     1.000000     0.000000     0.000000     0.000000
    3     1.000000   180.000000     1.000000     0.000000     0.000000     0.000000     0.000000     0.000000
    4    -1.000000   180.000000     0.000000     1.000000     0.000000     0.000000     0.000000     0.000000
    5    -1.000000     0.000000     1.000000     0.000000     0.000000     0.166667    -0.500000     0.000000
    6     1.000000   180.000000     0.000000     0.000000     1.000000     0.166667    -0.500000     0.000000
    7    -1.000000   180.000000     1.000000     0.000000     0.000000     0.166667    -0.500000     0.000000
    8     1.000000   180.000000     0.000000     1.000000     0.000000     0.166667    -0.500000     0.000000

 Subroutine IBZKPT returns following result:

 Found    247 irreducible k-points:

 Following reciprocal coordinates:
            Coordinates               Weight
  0.000000  0.000000  0.000000      1.000000
  0.041667  0.000000  0.000000      2.000000
  0.083333  0.000000  0.000000      2.000000
  0.125000  0.000000  0.000000      2.000000
  0.166667  0.000000  0.000000      2.000000
  0.208333  0.000000  0.000000      2.000000
  0.250000  0.000000  0.000000      2.000000
  0.291667  0.000000  0.000000      2.000000
  0.333333  0.000000  0.000000      2.000000
  0.375000  0.000000  0.000000      2.000000
  0.416667  0.000000  0.000000      2.000000
  0.458333  0.000000  0.000000      2.000000
  0.500000  0.000000  0.000000      1.000000
  0.000000  0.027778  0.000000      2.000000
  0.041667  0.027778  0.000000      4.000000
  0.083333  0.027778  0.000000      4.000000
  0.125000  0.027778  0.000000      4.000000
  0.166667  0.027778  0.000000      4.000000
  0.208333  0.027778  0.000000      4.000000
  0.250000  0.027778  0.000000      4.000000
  0.291667  0.027778  0.000000      4.000000
  0.333333  0.027778  0.000000      4.000000
  0.375000  0.027778  0.000000      4.000000
  0.416667  0.027778  0.000000      4.000000
  0.458333  0.027778  0.000000      4.000000
  0.500000  0.027778  0.000000      2.000000
  0.000000  0.055556  0.000000      2.000000
  0.041667  0.055556  0.000000      4.000000
  0.083333  0.055556  0.000000      4.000000
  0.125000  0.055556  0.000000      4.000000
  0.166667  0.055556  0.000000      4.000000
  0.208333  0.055556  0.000000      4.000000
  0.250000  0.055556  0.000000      4.000000
  0.291667  0.055556  0.000000      4.000000
  0.333333  0.055556  0.000000      4.000000
  0.375000  0.055556  0.000000      4.000000
  0.416667  0.055556  0.000000      4.000000
  0.458333  0.055556  0.000000      4.000000
  0.500000  0.055556  0.000000      2.000000
  0.000000  0.083333  0.000000      2.000000
  0.041667  0.083333  0.000000      4.000000
  0.083333  0.083333  0.000000      4.000000
  0.125000  0.083333  0.000000      4.000000
  0.166667  0.083333  0.000000      4.000000
  0.208333  0.083333  0.000000      4.000000
  0.250000  0.083333  0.000000      4.000000
  0.291667  0.083333  0.000000      4.000000
  0.333333  0.083333  0.000000      4.000000
  0.375000  0.083333  0.000000      4.000000
  0.416667  0.083333  0.000000      4.000000
  0.458333  0.083333  0.000000      4.000000
  0.500000  0.083333  0.000000      2.000000
  0.000000  0.111111  0.000000      2.000000
  0.041667  0.111111  0.000000      4.000000
  0.083333  0.111111  0.000000      4.000000
  0.125000  0.111111  0.000000      4.000000
  0.166667  0.111111  0.000000      4.000000
  0.208333  0.111111  0.000000      4.000000
  0.250000  0.111111  0.000000      4.000000
  0.291667  0.111111  0.000000      4.000000
[...]
  0.458333  0.472222  0.000000      4.000000
  0.500000  0.472222  0.000000      2.000000
  0.000000  0.500000  0.000000      1.000000
  0.041667  0.500000  0.000000      2.000000
  0.083333  0.500000  0.000000      2.000000
  0.125000  0.500000  0.000000      2.000000
  0.166667  0.500000  0.000000      2.000000
  0.208333  0.500000  0.000000      2.000000
  0.250000  0.500000  0.000000      2.000000
  0.291667  0.500000  0.000000      2.000000
  0.333333  0.500000  0.000000      2.000000
  0.375000  0.500000  0.000000      2.000000
  0.416667  0.500000  0.000000      2.000000
  0.458333  0.500000  0.000000      2.000000
  0.500000  0.500000  0.000000      1.000000

 Following cartesian coordinates:
            Coordinates               Weight
  0.000000  0.000000  0.000000      1.000000
  0.009759  0.000000  0.000000      2.000000
  0.019518  0.000000  0.000000      2.000000
  0.029277  0.000000  0.000000      2.000000
  0.039036  0.000000  0.000000      2.000000
  0.048796  0.000000  0.000000      2.000000
  0.058555  0.000000  0.000000      2.000000
  0.068314  0.000000  0.000000      2.000000
  0.078073  0.000000  0.000000      2.000000
  0.087832  0.000000  0.000000      2.000000
  0.097591  0.000000  0.000000      2.000000
  0.107350  0.000000  0.000000      2.000000
  0.117109  0.000000  0.000000      1.000000
  0.000000  0.011204  0.000000      2.000000
  0.009759  0.011204  0.000000      4.000000
  0.019518  0.011204  0.000000      4.000000
  0.029277  0.011204  0.000000      4.000000
  0.039036  0.011204  0.000000      4.000000
  0.048796  0.011204  0.000000      4.000000
  0.058555  0.011204  0.000000      4.000000
  0.068314  0.011204  0.000000      4.000000
  0.078073  0.011204  0.000000      4.000000
  0.087832  0.011204  0.000000      4.000000
  0.097591  0.011204  0.000000      4.000000
  0.107350  0.011204  0.000000      4.000000
  0.117109  0.011204  0.000000      2.000000
  0.000000  0.022408  0.000000      2.000000
  0.009759  0.022408  0.000000      4.000000
  0.019518  0.022408  0.000000      4.000000
  0.029277  0.022408  0.000000      4.000000
  0.039036  0.022408  0.000000      4.000000
  0.048796  0.022408  0.000000      4.000000
  0.058555  0.022408  0.000000      4.000000
  0.068314  0.022408  0.000000      4.000000
  0.078073  0.022408  0.000000      4.000000
  0.087832  0.022408  0.000000      4.000000
  0.097591  0.022408  0.000000      4.000000
  0.107350  0.022408  0.000000      4.000000
  0.117109  0.022408  0.000000      2.000000
  0.000000  0.033612  0.000000      2.000000
  0.009759  0.033612  0.000000      4.000000
  0.019518  0.033612  0.000000      4.000000
  0.029277  0.033612  0.000000      4.000000
  0.039036  0.033612  0.000000      4.000000
  0.048796  0.033612  0.000000      4.000000
  0.058555  0.033612  0.000000      4.000000
  0.068314  0.033612  0.000000      4.000000
  0.078073  0.033612  0.000000      4.000000
  0.087832  0.033612  0.000000      4.000000
  0.097591  0.033612  0.000000      4.000000
  0.107350  0.033612  0.000000      4.000000
  0.117109  0.033612  0.000000      2.000000
  0.000000  0.044816  0.000000      2.000000
  0.009759  0.044816  0.000000      4.000000
  0.019518  0.044816  0.000000      4.000000
  0.029277  0.044816  0.000000      4.000000
  0.039036  0.044816  0.000000      4.000000
  0.048796  0.044816  0.000000      4.000000
  0.058555  0.044816  0.000000      4.000000
  0.068314  0.044816  0.000000      4.000000
[...]
  0.107350  0.190469  0.000000      4.000000
  0.117109  0.190469  0.000000      2.000000
  0.000000  0.201673  0.000000      1.000000
  0.009759  0.201673  0.000000      2.000000
  0.019518  0.201673  0.000000      2.000000
  0.029277  0.201673  0.000000      2.000000
  0.039036  0.201673  0.000000      2.000000
  0.048796  0.201673  0.000000      2.000000
  0.058555  0.201673  0.000000      2.000000
  0.068314  0.201673  0.000000      2.000000
  0.078073  0.201673  0.000000      2.000000
  0.087832  0.201673  0.000000      2.000000
  0.097591  0.201673  0.000000      2.000000
  0.107350  0.201673  0.000000      2.000000
  0.117109  0.201673  0.000000      1.000000

 I would recommend the setting:
   dimension x,y,z NGX =    62 NGY =   36 NGZ =  291
[...]
 k-point ** :   0.4167 0.3056 0.0000  plane waves:   42814
 k-point ** :   0.4583 0.3056 0.0000  plane waves:   42819
 k-point ** :   0.5000 0.3056 0.0000  plane waves:   42808
 k-point ** :   0.0000 0.3333 0.0000  plane waves:   42934
 k-point ** :   0.0417 0.3333 0.0000  plane waves:   42934
 k-point ** :   0.0833 0.3333 0.0000  plane waves:   42908
[...]
 k-point ** :   0.4583 0.4722 0.0000  plane waves:   42788
 k-point ** :   0.5000 0.4722 0.0000  plane waves:   42806
 k-point ** :   0.0000 0.5000 0.0000  plane waves:   42918
 k-point ** :   0.0417 0.5000 0.0000  plane waves:   42904
 k-point ** :   0.0833 0.5000 0.0000  plane waves:   42932
 k-point ** :   0.1250 0.5000 0.0000  plane waves:   42912
 k-point ** :   0.1667 0.5000 0.0000  plane waves:   42948
 k-point ** :   0.2083 0.5000 0.0000  plane waves:   42954
 k-point ** :   0.2500 0.5000 0.0000  plane waves:   42926
 k-point ** :   0.2917 0.5000 0.0000  plane waves:   42898
 k-point ** :   0.3333 0.5000 0.0000  plane waves:   42854
 k-point ** :   0.3750 0.5000 0.0000  plane waves:   42820
 k-point ** :   0.4167 0.5000 0.0000  plane waves:   42816
 k-point ** :   0.4583 0.5000 0.0000  plane waves:   42758
 k-point ** :   0.5000 0.5000 0.0000  plane waves:   42764

 maximum and minimum number of plane-waves per node :     21507    21275

 maximum number of plane-waves:     42954
 maximum index in each direction:
   IXMAX=   15   IYMAX=    9   IZMAX=   72
   IXMIN=  -16   IYMIN=   -9   IZMIN=  -72

 NGX is ok and might be reduce to  64
 WARNING: aliasing errors must be expected set NGY to  38 to avoid them
 NGZ is ok and might be reduce to 290
 aliasing errors are usually negligible using standard VASP settings
 and one can safely disregard these warnings

 parallel 3D FFT for wavefunctions:
    minimum data exchange during FFTs selected (reduces bandwidth)
 parallel 3D FFT for charge:
    minimum data exchange during FFTs selected (reduces bandwidth)

 Broyden mixing: mesh for mixing (old mesh)
   NGX = 31   NGY = 19   NGZ =145
  (NGX  =128   NGY  = 72   NGZ  =588)
  gives a total of  85405 points

 initial charge density was supplied:
 charge density of overlapping atoms calculated
 number of electron      16.0000000 magnetization
 keeping initial charge density in first step

 Maximum index for augmentation-charges         4657 (set IRDMAX)

 First call to EWALD:  gamma=   0.298
 Maximum number of real-space cells 4x 6x 1
 Maximum number of reciprocal cells 2x 1x 8

 FEWALD executed in parallel

----------------------------------------- Iteration    1(   1)  ---------------------------------------

 eigenvalue-minimisations  :  5928
 total energy-change (2. order) : 0.1892678E+03  (-0.1063081E+04)
 number of electron      16.0000000 magnetization
 augmentation part       16.0000000 magnetization

 Free energy of the ion-electron system (eV)
  alpha Z        PSCENC =         6.18334092
  Ewald energy   TEWEN  =      2559.12599547
  -Hartree energ DENC   =     -2985.33568964
  -exchange      EXHF   =         0.00000000
  -V(xc)+E(xc)   XCENC  =        55.04172772
  PAW double counting   =       151.32577238     -155.92769107
  entropy T*S    EENTRO =        -0.00149654
  eigenvalues    EBANDS =       -29.76770888
  atomic energy  EATOM  =       588.62352690
  free energy    TOTEN  =       189.26777727 eV

  energy without entropy =      189.26927381  energy(sigma->0) =      189.26852554

[...]

 eigenvalue-minimisations  : 10364
 total energy-change (2. order) :-0.1983864E+03  (-0.1759958E+03)
 number of electron      16.0000000 magnetization
 augmentation part       16.0000000 magnetization

[...]

 Broyden mixing:
  rms(total) = 0.73110E+00    rms(broyden)= 0.73110E+00
  rms(prec ) = 0.79507E+00
  weight for this iteration     100.00

[...]

 eigenvalues of (default mixing * dielectric matrix)
  average eigenvalue GAMMA=   2.3126
  2.3126

[...]

WARNING in EDDRMM: call to ZHEGV failed, returncode =   6  3  1
WARNING in EDDRMM: call to ZHEGV failed, returncode =   6  3  1
WARNING in EDDRMM: call to ZHEGV failed, returncode =   6  3  1
WARNING in EDDRMM: call to ZHEGV failed, returncode =   6  3  1
WARNING in EDDRMM: call to ZHEGV failed, returncode =   6  3  1
WARNING in EDDRMM: call to ZHEGV failed, returncode =   6  3  1
WARNING in EDDRMM: call to ZHEGV failed, returncode =   6  3  1
WARNING in EDDRMM: call to ZHEGV failed, returncode =   6  3  1
WARNING in EDDRMM: call to ZHEGV failed, returncode =   6  3  1
WARNING in EDDRMM: call to ZHEGV failed, returncode =   6  3  1

[...]

 average (electrostatic) potential at core
  the test charge radii are     0.6991
  (the norm of the test charge is              1.0000)
       1 -58.2140       2 -58.2140       3 -58.2140       4 -58.2140

 E-fermi :  -2.7680     XC(G=0):  -2.1523     alpha+bet : -1.9046

 k-point     1 :       0.0000    0.0000    0.0000
  band No.  band energies     occupation
      1     -22.2198      2.00000
      2     -16.9580      2.00000
      3     -15.9507      2.00000
      4     -10.3328      2.00000
      5      -9.2251      2.00000
      6      -5.8310      2.00000
      7      -5.7738      2.00000
      8      -5.0698      2.00000
      9      -1.0861      0.00000
     10       0.5277      0.00000
     11       1.3276      0.00000
     12       2.2599      0.00000

[...]

 soft charge-density along one line, spin component           1
         0         1         2         3         4         5         6         7         8         9
 total charge-density along one line

------------------------ aborting loop because EDIFF is reached ----------------------------------------

  FORCE on cell =-STRESS in cart. coord.  units (eV):
  Direction    XX          YY          ZZ          XY          YZ          ZX
  Alpha Z     6.18334     6.18334     6.18334
  Ewald    3095.82547  3095.25282 -3631.95255     0.00000     0.00000    -0.00000
  Hartree  3030.49390  3030.28920 -3007.64290     0.00000    -0.00000    -0.00000
  E(xc)     -58.27049   -58.26456   -60.60309    -0.00000    -0.00000    -0.00000
  Local   -6298.88453 -6298.20676  6433.61622     0.00000    -0.00000    -0.00000
  n-local   -13.92658   -13.76053   -12.71123     0.06279    -0.00000    -0.00000
  augment    -1.52968    -1.52904    -1.40600    -0.00000    -0.00000     0.00000
  Kinetic   240.10660   238.96059   274.51485    -4.60976     0.00000     0.00000
  Fock        0.00000     0.00000     0.00000     0.00000     0.00000     0.00000
  Total      -0.00198    -1.07492    -0.00135     0.00000     0.00000     0.00000
  in kB      -0.01507    -8.16842    -0.01024     0.00000     0.00000     0.00000

 VOLUME and BASIS-vectors are now :
  energy-cutoff  :     2000.00
  volume of cell :      210.84
      direct lattice vectors                 reciprocal lattice vectors
     4.269513754  0.000000000  0.000000000     0.234218709  0.000000000  0.000000000
     0.000000000  2.479266265  0.000000000     0.000000000  0.403345141  0.000000000
     0.000000000  0.000000000 19.918062775     0.000000000  0.000000000  0.050205686

[...]

 FORCES acting on ions
    electron-ion (+dipol)            ewald-force                    non-local-force                 convergence-correction
   -.106E+01 0.211E-15 0.288E-09   0.106E+01 0.110E-13 0.403E-31   -.207E-02 0.104E-16 -.207E-24   0.514E-06 -.345E-14 0.192E-12
   0.106E+01 0.103E-13 -.456E-08   -.106E+01 -.855E-15 0.593E-19   0.207E-02 -.139E-16 -.207E-24   -.514E-06 0.777E-15 0.193E-12
   -.106E+01 0.590E-12 0.302E-09   0.106E+01 0.408E-14 -.403E-31   -.207E-02 0.347E-17 -.207E-24   0.514E-06 -.332E-14 0.192E-12
   0.106E+01 0.163E-16 -.457E-08   -.106E+01 -.780E-14 -.593E-19   0.207E-02 0.000E+00 -.207E-24   -.514E-06 0.624E-15 0.193E-12
   -.368E-06 0.601E-12 -.854E-08   -.466E-14 0.646E-14 0.120E-34   0.130E-17 0.000E+00 -.827E-24   0.257E-12 -.537E-14 0.770E-12

 POSITION                                       TOTAL-FORCE (eV/Angst)
      0.00056      0.00000      0.00000        -0.002342      0.000000      0.000000
      0.71102      1.23963      0.00000         0.002342      0.000000      0.000000
      2.13532      1.23963      0.00000        -0.002342     -0.000000      0.000000
      2.84578      0.00000      0.00000         0.002342      0.000000      0.000000
    total drift:                               -0.000000      0.000000     -0.000000

  FREE ENERGIE OF THE ION-ELECTRON SYSTEM (eV)
  free  energy   TOTEN  =       -36.92286472 eV

  energy  without entropy=      -36.92277330  energy(sigma->0) =      -36.92281901

 Quasi-Newton relaxation of ions (Broydens 2nd method)
  g(Force)  = 0.106E-05   g(Stress)= 0.000E+00

 Reset! Starting new Quasi-Newton update for ions

[...]

 d Force =-0.1599371E-05[-0.426E-05, 0.106E-05]  d Energy =-0.1594569E-05-0.480E-08
 d Force =-0.4886520E-03[-0.498E-03,-0.480E-03]  d Ewald  =-0.4886508E-03-0.115E-08

[...]

 retain information from N=  1 steps
 eigenvalues of (default step * inverse Hessian matrix)
  average eigenvalue of G=   0.1991
 eigenvalue spectrum of G is  0.1991

[...]

 d Force = 0.1706109E-05[ 0.277E-08, 0.341E-05]  d Energy = 0.1701149E-05 0.496E-08
 d Force = 0.3927988E-03[ 0.387E-03, 0.399E-03]  d Ewald  = 0.3927982E-03 0.590E-09

[...]

 eigenvalue-minimisations  :  4664
 total energy-change (2. order) : 0.3412879E-09  ( 0.5717403E-09)
 number of electron      16.0000000 magnetization
 augmentation part        0.3800261 magnetization

[...]

 eigenvalue-minimisations  :  2959
 total energy-change (2. order) :-0.2224851E-09  ( 0.8134234E-13)
 number of electron      16.0000000 magnetization
 augmentation part        0.3800261 magnetization

[...]

 d Force =-0.6421285E-12[-0.354E-11, 0.225E-11]  d Energy =-0.3308287E-10 0.324E-10
 d Force = 0.3148539E-06[ 0.315E-06, 0.315E-06]  d Ewald  = 0.3148539E-06 0.000E+00

[...]

 d Force = 0.1208535E-11[ 0.255E-12, 0.216E-11]  d Energy = 0.1460876E-09-0.145E-09
 d Force =-0.1923209E-06[-0.192E-06,-0.192E-06]  d Ewald  =-0.1923208E-06 0.000E+00

[...]

 eigenvalue-minimisations  :   720
 total energy-change (2. order) : 0.2169145E-09  (-0.3848773E-14)
 number of electron      16.0000000 magnetization
 augmentation part        0.3800261 magnetization

[...]

 eigenvalue-minimisations  :   493
 total energy-change (2. order) :-0.9197265E-10  (-0.1266477E-14)
 number of electron      16.0000000 magnetization
 augmentation part        0.3800261 magnetization

[...]

 d Force = 0.3756280E-13[ 0.409E-13, 0.342E-13]  d Energy = 0.1066383E-09-0.107E-09
 d Force =-0.2575488E-07[-0.258E-07,-0.258E-07]  d Ewald  =-0.2575507E-07 0.000E+00

[...]

 d Force =-0.6070438E-12[-0.966E-12,-0.248E-12]  d Energy = 0.3728928E-10-0.379E-10
 d Force = 0.1562522E-06[ 0.156E-06, 0.156E-06]  d Ewald  = 0.1562521E-06 0.000E+00

[...]

 FEWALD executed in parallel

[...]

 eigenvalue-minimisations  :   343
 total energy-change (2. order) :-0.5669563E-09  ( 0.0000000E+00)
 number of electron      16.0000000 magnetization
 augmentation part        0.3800261 magnetization

[...]

 Broyden mixing:
  rms(total) = 0.37437E-09    rms(broyden)= 0.37432E-09
  rms(prec ) = 0.40600E-09
  weight for this iteration     100.00

 eigenvalues of (default mixing * dielectric matrix)
  average eigenvalue GAMMA=   2.5990
  2.6692  2.5639  2.5639

[...]

----------------------------------------- Iteration    8(   5)  ---------------------------------------

 eigenvalue-minimisations  :   194
 total energy-change (2. order) : 0.8139978E-10  ( 0.0000000E+00)
 number of electron      16.0000000 magnetization
 augmentation part        0.3800261 magnetization

 Free energy of the ion-electron system (eV)
  alpha Z        PSCENC =         6.18334092
  Ewald energy   TEWEN  =      2559.12609128
  -Hartree energ DENC   =     -3053.14030295
  -exchange      EXHF   =         0.00000000
  -V(xc)+E(xc)   XCENC  =        57.44672734
  PAW double counting   =       275.41241862     -280.55369127
  entropy T*S    EENTRO =        -0.00009077
  eigenvalues    EBANDS =      -190.02088490
  atomic energy  EATOM  =       588.62352690
  free energy    TOTEN  =       -36.92286483 eV

  energy without entropy =      -36.92277406  energy(sigma->0) =      -36.92281944

 average (electrostatic) potential at core
  the test charge radii are     0.6991
  (the norm of the test charge is              1.0000)
       1 -58.2140       2 -58.2140       3 -58.2140       4 -58.2140

 E-fermi :  -2.7680     XC(G=0):  -2.1490     alpha+bet : -1.9046

[...]

 k-point   247 :       0.5000    0.5000    0.0000
  band No.  band energies     occupation
      1     -17.0416      2.00000
      2     -17.0416      2.00000
      3     -15.9480      2.00000
      4     -15.9480      2.00000
      5      -9.1212      2.00000
      6      -9.1212      2.00000
      7      -5.1345      2.00000
      8      -5.1345      2.00000
      9      -1.0952      0.00000
     10      -1.0952      0.00000
     11       4.6056      0.00000
     12       4.6056      0.00000

 soft charge-density along one line, spin component           1
         0         1         2         3         4         5         6         7         8         9
 total charge-density along one line

------------------------ aborting loop because EDIFF is reached ----------------------------------------

  FORCE on cell =-STRESS in cart. coord.  units (eV):
  Direction    XX          YY          ZZ          XY          YZ          ZX
  Alpha Z     6.18334     6.18334     6.18334
  Ewald    3095.84512  3095.23327 -3631.95255     0.00000     0.00000     0.00000
  Hartree  3030.49664  3030.28657 -3007.64291     0.00000    -0.00000    -0.00000
  E(xc)     -58.27042   -58.26464   -60.60309     0.00000    -0.00000    -0.00000
  Local   -6298.90314 -6298.18830  6433.61621    -0.00000    -0.00000     0.00000
  n-local   -13.92643   -13.76069   -12.71123     0.06277     0.00000    -0.00000
  augment    -1.52971    -1.52901    -1.40600     0.00000     0.00000     0.00000
  Kinetic   240.10358   238.96368   274.51490    -4.60966    -0.00000     0.00000
  Fock        0.00000     0.00000     0.00000     0.00000     0.00000     0.00000
  Total      -0.00102    -1.07578    -0.00132     0.00000     0.00000     0.00000
  in kB      -0.00773    -8.17498    -0.01006     0.00000     0.00000     0.00000

 VOLUME and BASIS-vectors are now :
  energy-cutoff  :     2000.00
  volume of cell :      210.84
      direct lattice vectors                 reciprocal lattice vectors
     4.269513754  0.000000000  0.000000000     0.234218709  0.000000000  0.000000000
     0.000000000  2.479266265  0.000000000     0.000000000  0.403345141  0.000000000
     0.000000000  0.000000000 19.918062775     0.000000000  0.000000000  0.050205686

  length of vectors
     4.269513754  2.479266265 19.918062775     0.234218709  0.403345141  0.050205686

 FORCES acting on ions
    electron-ion (+dipol)            ewald-force                    non-local-force                 convergence-correction
   -.107E+01 0.214E-15 0.278E-09   0.107E+01 0.679E-14 0.224E-17   -.123E-02 -.347E-17 0.000E+00   -.546E-10 -.624E-15 -.166E-11
   0.107E+01 0.182E-12 -.459E-08   -.107E+01 0.852E-15 -.106E-17   0.123E-02 0.139E-16 0.000E+00   0.546E-10 -.125E-14 -.166E-11
   -.107E+01 -.155E-12 0.270E-09   0.107E+01 0.238E-14 -.728E-19   -.123E-02 -.347E-17 0.000E+00   -.547E-10 -.105E-14 -.168E-11
   0.107E+01 0.155E-15 -.459E-08   -.107E+01 -.356E-14 -.111E-17   0.123E-02 0.139E-16 0.000E+00   0.547E-10 -.825E-15 -.168E-11
   -.369E-06 0.278E-13 -.863E-08   -.444E-14 0.646E-14 -.193E-33   0.000E+00 0.208E-16 0.000E+00   0.162E-14 -.375E-14 -.668E-11

 POSITION                                       TOTAL-FORCE (eV/Angst)
      0.00054     -0.00000     -0.00000        -0.000000      0.000000      0.000000
      0.71105      1.23963      0.00000         0.000000     -0.000000      0.000000
      2.13530      1.23963     -0.00000        -0.000000      0.000000      0.000000
      2.84580      0.00000      0.00000         0.000000     -0.000000      0.000000
    total drift:                               -0.000000      0.000000     -0.000000

  FREE ENERGIE OF THE ION-ELECTRON SYSTEM (eV)
  free  energy   TOTEN  =       -36.92286483 eV

  energy  without entropy=      -36.92277406  energy(sigma->0) =      -36.92281944

 d Force = 0.6563695E-12[ 0.127E-13, 0.130E-11]  d Energy =-0.2512479E-09 0.252E-09
 d Force =-0.2103483E-06[-0.210E-06,-0.210E-06]  d Ewald  =-0.2103484E-06 0.000E+00

 Quasi-Newton relaxation of ions (Broydens 2nd method)
  g(Force)  = 0.800E-15   g(Stress)= 0.000E+00

 retain information from N=  1 steps
 eigenvalues of (default step * inverse Hessian matrix)
  average eigenvalue of G=   0.1558
 eigenvalue spectrum of G is  0.1558

 reached required accuracy - stopping structural energy minimisation