 vasp.5.3.5 31Mar14 (build Mar 02 2015 18:14:16) complex

 executed on             LinuxIFC date 2018.08.10  14:52:16

 INCAR:
 POTCAR:   PAW_PBE C 08Apr2002
 POTCAR:   PAW_PBE C 08Apr2002
   VRHFIN =C: s2p2

   TITEL  = PAW_PBE C 08Apr2002
   POMASS =   12.011; ZVAL   =    4.000    mass and valenz
   ENMAX  =  400.000; ENMIN  =  300.000 eV
   QCUT   =   -5.516; QGAM   =   11.032    optimization parameters

   Description
     l     E      TYP  RCUT    TYP  RCUT
     0   .000     23  1.200
     0   .000     23  1.200
     1   .000     23  1.500
     1  2.500     23  1.500
     2   .000      7  1.500

 PAW_PBE C 08Apr2002                    :

 POSCAR: MD-kMC export data
  positions in direct lattice
  velocities in cartesian coordinates
 exchange correlation table for  LEXCH =        8
   RHO(1)=    0.500       N(1)  =     2000
   RHO(2)=  100.500       N(2)  =     4000

 ion  position               nearest neighbor table
   1  0.001  0.000  0.000-   4 1.42   2 1.45   2 1.45
   2  0.166  0.500  0.000-   3 1.42   1 1.45   1 1.45
   3  0.501  0.500  0.000-   2 1.42   4 1.45   4 1.45
   4  0.666  0.000  0.000-   1 1.42   3 1.45   3 1.45

  LATTYP: Found a simple orthorhombic cell.
 ALAT       =     2.5408284594
 B/A-ratio  =     1.6734737810
 C/A-ratio  =     7.6807518937

  Lattice vectors:

 A1 = (   0.0000000000,  -2.5408284594,   0.0000000000)
 A2 = (  -4.2520098088,   0.0000000000,   0.0000000000)
 A3 = (   0.0000000000,   0.0000000000, -19.5154730007)

Analysis of symmetry for initial positions (statically):
 Subroutine PRICEL returns following result:

  LATTYP: Found a base centered orthorhombic cell.
 ALAT       =     2.5408284594
 B/A-ratio  =     1.6734737810
 C/A-ratio  =     7.6807518937

[...]

   2 primitive cells build up your supercell.

 Routine SETGRP: Setting up the symmetry group for a
 simple orthorhombic supercell.

 Subroutine GETGRP returns: Found  8 space group operations
 (whereof  4 operations were pure point group operations)
 out of a pool of  8 trial point group operations.

The static configuration has the point symmetry C_2v.
 The point group associated with its full space group is D_2h.

Analysis of symmetry for dynamics (positions and initial velocities):
 Subroutine PRICEL returns following result:

  LATTYP: Found a base centered orthorhombic cell.
 ALAT       =     2.5408284594
 B/A-ratio  =     1.6734737810
 C/A-ratio  =     7.6807518937

  Lattice vectors:

 A1 = (   2.1260049044,  -1.2704142297,   0.0000000000)
 A2 = (  -2.1260049044,  -1.2704142297,   0.0000000000)
 A3 = (   0.0000000000,   0.0000000000, -19.5154730007)

   2 primitive cells build up your supercell.

 Routine SETGRP: Setting up the symmetry group for a
 simple orthorhombic supercell.

 Subroutine GETGRP returns: Found  8 space group operations
 (whereof  4 operations were pure point group operations)
 out of a pool of  8 trial point group operations.

The dynamic configuration has the point symmetry C_2v.
 The point group associated with its full space group is D_2h.

 KPOINTS: Automatic mesh

Automatic generation of k-mesh.
Space group operators:
 irot       det(A)        alpha          n_x          n_y          n_z        tau_x        tau_y        tau_z
    1     1.000000     0.000000     1.000000     0.000000     0.000000     0.000000     0.000000     0.000000
    2    -1.000000   180.000000     0.000000     0.000000     1.000000     0.000000     0.000000     0.000000
    3     1.000000   179.999999     1.000000     0.000000     0.000000     0.000000     0.000000     0.000000
    4    -1.000000   180.000000     0.000000     1.000000     0.000000     0.000000     0.000000     0.000000
    5    -1.000000     0.000000     1.000000     0.000000     0.000000     0.166667    -0.500000     0.000000
    6     1.000000   180.000000     0.000000     0.000000     1.000000     0.166667    -0.500000     0.000000
    7    -1.000000   179.999999     1.000000     0.000000     0.000000     0.166667    -0.500000     0.000000
    8     1.000000   180.000000     0.000000     1.000000     0.000000     0.166667    -0.500000     0.000000

 Subroutine IBZKPT returns following result:

 Found    247 irreducible k-points:

 Following reciprocal coordinates:
            Coordinates               Weight
  0.000000  0.000000  0.000000      1.000000
  0.041667  0.000000  0.000000      2.000000
  0.083333  0.000000  0.000000      2.000000
  0.125000  0.000000  0.000000      2.000000
  0.166667  0.000000  0.000000      2.000000
  0.208333  0.000000  0.000000      2.000000
  0.250000  0.000000  0.000000      2.000000
  0.291667  0.000000  0.000000      2.000000
  0.333333  0.000000  0.000000      2.000000
  0.375000  0.000000  0.000000      2.000000
  0.416667  0.000000  0.000000      2.000000
  0.458333  0.000000  0.000000      2.000000
  0.500000  0.000000  0.000000      1.000000
  0.000000  0.027778  0.000000      2.000000
  0.041667  0.027778  0.000000      4.000000
  0.083333  0.027778  0.000000      4.000000
  0.125000  0.027778  0.000000      4.000000
  0.166667  0.027778  0.000000      4.000000
  0.208333  0.027778  0.000000      4.000000
  0.250000  0.027778  0.000000      4.000000
  0.291667  0.027778  0.000000      4.000000
  0.333333  0.027778  0.000000      4.000000
  0.375000  0.027778  0.000000      4.000000
  0.416667  0.027778  0.000000      4.000000
  0.458333  0.027778  0.000000      4.000000
  0.500000  0.027778  0.000000      2.000000
  0.000000  0.055556  0.000000      2.000000
  0.041667  0.055556  0.000000      4.000000
  0.083333  0.055556  0.000000      4.000000
  0.125000  0.055556  0.000000      4.000000
  0.166667  0.055556  0.000000      4.000000
  0.208333  0.055556  0.000000      4.000000
  0.250000  0.055556  0.000000      4.000000
  0.291667  0.055556  0.000000      4.000000
  0.333333  0.055556  0.000000      4.000000
  0.375000  0.055556  0.000000      4.000000
  0.416667  0.055556  0.000000      4.000000
  0.458333  0.055556  0.000000      4.000000
  0.500000  0.055556  0.000000      2.000000
  0.000000  0.083333  0.000000      2.000000
  0.041667  0.083333  0.000000      4.000000
  0.083333  0.083333  0.000000      4.000000
  0.125000  0.083333  0.000000      4.000000
  0.166667  0.083333  0.000000      4.000000
  0.208333  0.083333  0.000000      4.000000
  0.250000  0.083333  0.000000      4.000000
  0.291667  0.083333  0.000000      4.000000
  0.333333  0.083333  0.000000      4.000000
  0.375000  0.083333  0.000000      4.000000
  0.416667  0.083333  0.000000      4.000000
  0.458333  0.083333  0.000000      4.000000
  0.500000  0.083333  0.000000      2.000000
  0.000000  0.111111  0.000000      2.000000
  0.041667  0.111111  0.000000      4.000000
  0.083333  0.111111  0.000000      4.000000
  0.125000  0.111111  0.000000      4.000000
  0.166667  0.111111  0.000000      4.000000
  0.208333  0.111111  0.000000      4.000000
  0.250000  0.111111  0.000000      4.000000
  0.291667  0.111111  0.000000      4.000000
[...]
  0.458333  0.472222  0.000000      4.000000
  0.500000  0.472222  0.000000      2.000000
  0.000000  0.500000  0.000000      1.000000
  0.041667  0.500000  0.000000      2.000000
  0.083333  0.500000  0.000000      2.000000
  0.125000  0.500000  0.000000      2.000000
  0.166667  0.500000  0.000000      2.000000
  0.208333  0.500000  0.000000      2.000000
  0.250000  0.500000  0.000000      2.000000
  0.291667  0.500000  0.000000      2.000000
  0.333333  0.500000  0.000000      2.000000
  0.375000  0.500000  0.000000      2.000000
  0.416667  0.500000  0.000000      2.000000
  0.458333  0.500000  0.000000      2.000000
  0.500000  0.500000  0.000000      1.000000

 Following cartesian coordinates:
            Coordinates               Weight
  0.000000  0.000000  0.000000      1.000000
  0.009799  0.000000  0.000000      2.000000
  0.019599  0.000000  0.000000      2.000000
  0.029398  0.000000  0.000000      2.000000
  0.039197  0.000000  0.000000      2.000000
  0.048996  0.000000  0.000000      2.000000
  0.058796  0.000000  0.000000      2.000000
  0.068595  0.000000  0.000000      2.000000
  0.078394  0.000000  0.000000      2.000000
  0.088194  0.000000  0.000000      2.000000
  0.097993  0.000000  0.000000      2.000000
  0.107792  0.000000  0.000000      2.000000
  0.117591  0.000000  0.000000      1.000000
  0.000000  0.010933  0.000000      2.000000
  0.009799  0.010933  0.000000      4.000000
  0.019599  0.010933  0.000000      4.000000
  0.029398  0.010933  0.000000      4.000000
  0.039197  0.010933  0.000000      4.000000
  0.048996  0.010933  0.000000      4.000000
  0.058796  0.010933  0.000000      4.000000
  0.068595  0.010933  0.000000      4.000000
  0.078394  0.010933  0.000000      4.000000
  0.088194  0.010933  0.000000      4.000000
  0.097993  0.010933  0.000000      4.000000
  0.107792  0.010933  0.000000      4.000000
  0.117591  0.010933  0.000000      2.000000
  0.000000  0.021865  0.000000      2.000000
  0.009799  0.021865  0.000000      4.000000
  0.019599  0.021865  0.000000      4.000000
  0.029398  0.021865  0.000000      4.000000
  0.039197  0.021865  0.000000      4.000000
  0.048996  0.021865  0.000000      4.000000
  0.058796  0.021865  0.000000      4.000000
  0.068595  0.021865  0.000000      4.000000
  0.078394  0.021865  0.000000      4.000000
  0.088194  0.021865  0.000000      4.000000
  0.097993  0.021865  0.000000      4.000000
  0.107792  0.021865  0.000000      4.000000
  0.117591  0.021865  0.000000      2.000000
  0.000000  0.032798  0.000000      2.000000
  0.009799  0.032798  0.000000      4.000000
  0.019599  0.032798  0.000000      4.000000
  0.029398  0.032798  0.000000      4.000000
  0.039197  0.032798  0.000000      4.000000
  0.048996  0.032798  0.000000      4.000000
  0.058796  0.032798  0.000000      4.000000
  0.068595  0.032798  0.000000      4.000000
  0.078394  0.032798  0.000000      4.000000
  0.088194  0.032798  0.000000      4.000000
  0.097993  0.032798  0.000000      4.000000
  0.107792  0.032798  0.000000      4.000000
  0.117591  0.032798  0.000000      2.000000
  0.000000  0.043730  0.000000      2.000000
  0.009799  0.043730  0.000000      4.000000
  0.019599  0.043730  0.000000      4.000000
  0.029398  0.043730  0.000000      4.000000
  0.039197  0.043730  0.000000      4.000000
  0.048996  0.043730  0.000000      4.000000
  0.058796  0.043730  0.000000      4.000000
  0.068595  0.043730  0.000000      4.000000
[...]
  0.107792  0.185854  0.000000      4.000000
  0.117591  0.185854  0.000000      2.000000
  0.000000  0.196786  0.000000      1.000000
  0.009799  0.196786  0.000000      2.000000
  0.019599  0.196786  0.000000      2.000000
  0.029398  0.196786  0.000000      2.000000
  0.039197  0.196786  0.000000      2.000000
  0.048996  0.196786  0.000000      2.000000
  0.058796  0.196786  0.000000      2.000000
  0.068595  0.196786  0.000000      2.000000
  0.078394  0.196786  0.000000      2.000000
  0.088194  0.196786  0.000000      2.000000
  0.097993  0.196786  0.000000      2.000000
  0.107792  0.196786  0.000000      2.000000
  0.117591  0.196786  0.000000      1.000000

 I would recommend the setting:
   dimension x,y,z NGX =    62 NGY =   37 NGZ =  285
[...]
 k-point ** :   0.1667 0.3056 0.0000  plane waves:   42805
 k-point ** :   0.2083 0.3056 0.0000  plane waves:   42799
 k-point ** :   0.2500 0.3056 0.0000  plane waves:   42788
 k-point ** :   0.2917 0.3056 0.0000  plane waves:   42815
 k-point ** :   0.3333 0.3056 0.0000  plane waves:   42787
 k-point ** :   0.3750 0.3056 0.0000  plane waves:   42770
 k-point ** :   0.4167 0.3056 0.0000  plane waves:   42784
 k-point ** :   0.4583 0.3056 0.0000  plane waves:   42746
 k-point ** :   0.5000 0.3056 0.0000  plane waves:   42754
 k-point ** :   0.0000 0.3333 0.0000  plane waves:   42848
 k-point ** :   0.0417 0.3333 0.0000  plane waves:   42859
 k-point ** :   0.0833 0.3333 0.0000  plane waves:   42845
[...]
 k-point ** :   0.4583 0.4722 0.0000  plane waves:   42768
 k-point ** :   0.5000 0.4722 0.0000  plane waves:   42750
 k-point ** :   0.0000 0.5000 0.0000  plane waves:   42838
 k-point ** :   0.0417 0.5000 0.0000  plane waves:   42850
 k-point ** :   0.0833 0.5000 0.0000  plane waves:   42866
 k-point ** :   0.1250 0.5000 0.0000  plane waves:   42864
 k-point ** :   0.1667 0.5000 0.0000  plane waves:   42880
 k-point ** :   0.2083 0.5000 0.0000  plane waves:   42866
 k-point ** :   0.2500 0.5000 0.0000  plane waves:   42842
 k-point ** :   0.2917 0.5000 0.0000  plane waves:   42862
 k-point ** :   0.3333 0.5000 0.0000  plane waves:   42804
 k-point ** :   0.3750 0.5000 0.0000  plane waves:   42770
 k-point ** :   0.4167 0.5000 0.0000  plane waves:   42778
 k-point ** :   0.4583 0.5000 0.0000  plane waves:   42792
 k-point ** :   0.5000 0.5000 0.0000  plane waves:   42756

 maximum and minimum number of plane-waves per node :     21492    21331

 maximum number of plane-waves:     42904
 maximum index in each direction:
   IXMAX=   15   IYMAX=    9   IZMAX=   71
   IXMIN=  -16   IYMIN=   -9   IZMIN=  -71

 NGX is ok and might be reduce to  64
 NGY is ok and might be reduce to  38
 NGZ is ok and might be reduce to 286

 parallel 3D FFT for wavefunctions:
    minimum data exchange during FFTs selected (reduces bandwidth)
 parallel 3D FFT for charge:
    minimum data exchange during FFTs selected (reduces bandwidth)

 Broyden mixing: mesh for mixing (old mesh)
   NGX = 31   NGY = 19   NGZ =143
  (NGX  =128   NGY  = 80   NGZ  =576)
  gives a total of  84227 points

 initial charge density was supplied:
 charge density of overlapping atoms calculated
 number of electron      16.0000000 magnetization
 keeping initial charge density in first step

 Maximum index for augmentation-charges         5069 (set IRDMAX)

 First call to EWALD:  gamma=   0.298
 Maximum number of real-space cells 4x 6x 1
 Maximum number of reciprocal cells 2x 1x 8

 FEWALD executed in parallel

----------------------------------------- Iteration    1(   1)  ---------------------------------------

 eigenvalue-minimisations  :  5928
 total energy-change (2. order) : 0.1856907E+03  (-0.1060708E+04)
 number of electron      16.0000000 magnetization
 augmentation part       16.0000000 magnetization

 Free energy of the ion-electron system (eV)
  alpha Z        PSCENC =         6.18334092
  Ewald energy   TEWEN  =      2424.68014171
  -Hartree energ DENC   =     -2854.92094293
  -exchange      EXHF   =         0.00000000
  -V(xc)+E(xc)   XCENC  =        54.76537556
  PAW double counting   =       151.32577238     -155.92769107
  entropy T*S    EENTRO =        -0.00180887
  eigenvalues    EBANDS =       -29.03701765
  atomic energy  EATOM  =       588.62352690
  free energy    TOTEN  =       185.69069695 eV

  energy without entropy =      185.69250583  energy(sigma->0) =      185.69160139

[...]

 eigenvalue-minimisations  : 10528
 total energy-change (2. order) :-0.1953530E+03  (-0.1747500E+03)
 number of electron      16.0000000 magnetization
 augmentation part       16.0000000 magnetization

[...]

 Broyden mixing:
  rms(total) = 0.70372E+00    rms(broyden)= 0.70372E+00
  rms(prec ) = 0.76726E+00
  weight for this iteration     100.00

[...]

 eigenvalues of (default mixing * dielectric matrix)
  average eigenvalue GAMMA=   2.3187
  2.3187

[...]

WARNING in EDDRMM: call to ZHEGV failed, returncode =   6  3  1

[...]

 average (electrostatic) potential at core
  the test charge radii are     0.6991
  (the norm of the test charge is              1.0000)
       1 -58.3380       2 -58.3380       3 -58.3380       4 -58.3380

 E-fermi :  -2.8314     XC(G=0):  -2.1840     alpha+bet : -1.9046

 k-point     1 :       0.0000    0.0000    0.0000
  band No.  band energies     occupation
      1     -22.0489      2.00000
      2     -16.6453      2.00000
      3     -15.8453      2.00000
      4     -10.2009      2.00000
      5      -9.5274      2.00000
      6      -6.0235      2.00000
      7      -5.7386      2.00000
      8      -4.8663      2.00000
      9      -1.1592      0.00000
     10       0.5488      0.00000
     11       1.3462      0.00000
     12       1.7414      0.00000

[...]

 soft charge-density along one line, spin component           1
         0         1         2         3         4         5         6         7         8         9
 total charge-density along one line

------------------------ aborting loop because EDIFF is reached ----------------------------------------

  FORCE on cell =-STRESS in cart. coord.  units (eV):
  Direction    XX          YY          ZZ          XY          YZ          ZX
  Alpha Z     6.18334     6.18334     6.18334
  Ewald    2957.60903  2953.68706 -3486.61615    -0.00000     0.00000     0.00000
  Hartree  2896.41200  2895.22241 -2872.60801    -0.00000    -0.00000    -0.00000
  E(xc)     -57.92167   -57.88641   -60.22229    -0.00000     0.00000    -0.00000
  Local   -6027.05917 -6022.69177  6154.13792     0.00000     0.00000    -0.00000
  n-local   -13.79046   -12.83833   -12.42645     0.09394    -0.00000     0.00000
  augment    -1.47010    -1.46604    -1.36373    -0.00000     0.00000    -0.00000
  Kinetic   240.03465   233.42397   272.91404    -4.64571     0.00000    -0.00000
  Fock        0.00000     0.00000     0.00000     0.00000     0.00000     0.00000
  Total      -0.00237    -6.36576    -0.00133     0.00000     0.00000     0.00000
  in kB      -0.01803   -48.37400    -0.01012     0.00000     0.00000     0.00000

 VOLUME and BASIS-vectors are now :
  energy-cutoff  :     2000.00
  volume of cell :      210.84
      direct lattice vectors                 reciprocal lattice vectors
     4.252009809  0.000000000  0.000000000     0.235182901  0.000000000  0.000000000
     0.000000000  2.540828459  0.000000000     0.000000000  0.393572418  0.000000000
     0.000000000  0.000000000 19.515473001     0.000000000  0.000000000  0.051241392

[...]

 FORCES acting on ions
    electron-ion (+dipol)            ewald-force                    non-local-force                 convergence-correction
   -.630E+01 -.396E-15 0.792E-09   0.628E+01 0.168E-14 0.963E-34   0.132E-01 -.347E-17 0.000E+00   0.971E-07 0.173E-15 -.795E-13
   0.630E+01 -.655E-14 -.182E-08   -.628E+01 -.561E-15 0.354E-34   -.132E-01 0.000E+00 0.000E+00   -.971E-07 -.201E-14 -.786E-13
   -.630E+01 0.592E-12 0.784E-09   0.628E+01 0.127E-14 -.963E-34   0.132E-01 -.347E-17 0.000E+00   0.971E-07 0.641E-15 -.794E-13
   0.630E+01 -.515E-15 -.181E-08   -.628E+01 -.970E-15 0.000E+00   -.132E-01 0.000E+00 0.103E-24   -.971E-07 -.252E-14 -.785E-13
   -.255E-06 0.584E-12 -.205E-08   0.000E+00 0.143E-14 0.354E-34   0.104E-16 -.694E-17 0.103E-24   -.903E-14 -.372E-14 -.316E-12

 POSITION                                       TOTAL-FORCE (eV/Angst)
      0.00318      0.00000      0.00000        -0.002407     -0.000000     -0.000000
      0.70549      1.27041      0.00000         0.002407     -0.000000      0.000000
      2.12918      1.27041      0.00000        -0.002407      0.000000     -0.000000
      2.83149      0.00000      0.00000         0.002407     -0.000000      0.000000
    total drift:                               -0.000000      0.000000     -0.000000

  FREE ENERGIE OF THE ION-ELECTRON SYSTEM (eV)
  free  energy   TOTEN  =       -36.83100760 eV

  energy  without entropy=      -36.83100760  energy(sigma->0) =      -36.83100760

 Quasi-Newton relaxation of ions (Broydens 2nd method)
  g(Force)  = 0.112E-05   g(Stress)= 0.000E+00

 Reset! Starting new Quasi-Newton update for ions

[...]

 d Force =-0.1653299E-05[-0.442E-05, 0.112E-05]  d Energy =-0.1621840E-05-0.315E-07
 d Force =-0.2926319E-02[-0.294E-02,-0.292E-02]  d Ewald  =-0.2926318E-02-0.123E-08

[...]

 retain information from N=  1 steps
 eigenvalues of (default step * inverse Hessian matrix)
  average eigenvalue of G=   0.2017
 eigenvalue spectrum of G is  0.2017

[...]

 d Force = 0.1767431E-05[ 0.276E-08, 0.353E-05]  d Energy = 0.1740157E-05 0.273E-07
 d Force = 0.2337561E-02[ 0.233E-02, 0.234E-02]  d Ewald  = 0.2337560E-02 0.623E-09

[...]

 eigenvalue-minimisations  :  4852
 total energy-change (2. order) : 0.2569323E-09  ( 0.5851366E-09)
 number of electron      16.0000000 magnetization
 augmentation part        0.3708562 magnetization

[...]

 eigenvalue-minimisations  :  3019
 total energy-change (2. order) :-0.5662741E-09  ( 0.9863920E-13)
 number of electron      16.0000000 magnetization
 augmentation part        0.3708562 magnetization

[...]

 d Force =-0.6867995E-12[-0.354E-11, 0.217E-11]  d Energy = 0.4313279E-09-0.432E-09
 d Force = 0.1826534E-05[ 0.183E-05, 0.183E-05]  d Ewald  = 0.1826534E-05 0.455E-12

[...]

 d Force = 0.1354316E-11[ 0.513E-12, 0.220E-11]  d Energy =-0.1814442E-09 0.183E-09
 d Force =-0.1133142E-05[-0.113E-05,-0.113E-05]  d Ewald  =-0.1133141E-05-0.136E-11

[...]

 eigenvalue-minimisations  :  1038
 total energy-change (2. order) : 0.4661160E-11  (-0.1695763E-13)
 number of electron      16.0000000 magnetization
 augmentation part        0.3708562 magnetization

[...]

 d Force = 0.1360344E-12[ 0.116E-12, 0.156E-12]  d Energy =-0.2637535E-10 0.265E-10
 d Force =-0.3452859E-06[-0.345E-06,-0.345E-06]  d Ewald  =-0.3452869E-06 0.909E-12

[...]

 eigenvalue-minimisations  :   671
 total energy-change (2. order) :-0.6480150E-11  (-0.7080756E-14)
 number of electron      16.0000000 magnetization
 augmentation part        0.3708562 magnetization

[...]

 d Force = 0.2383593E-13[-0.284E-12, 0.331E-12]  d Energy = 0.2410161E-10-0.241E-10
 d Force =-0.9881705E-06[-0.988E-06,-0.988E-06]  d Ewald  =-0.9881696E-06-0.909E-12

[...]

 d Force = 0.1706691E-13[-0.967E-13, 0.131E-12]  d Energy = 0.1296030E-10-0.129E-10
 d Force = 0.4557961E-06[ 0.456E-06, 0.456E-06]  d Ewald  = 0.4557951E-06 0.909E-12

[...]

 d Force = 0.4141219E-14[-0.328E-13, 0.411E-13]  d Energy =-0.1045919E-10 0.105E-10
 d Force =-0.1937224E-06[-0.194E-06,-0.194E-06]  d Ewald  =-0.1937215E-06-0.909E-12

[...]

 FEWALD executed in parallel

[...]

 eigenvalue-minimisations  :   232
 total energy-change (2. order) : 0.7503331E-11  ( 0.0000000E+00)
 number of electron      16.0000000 magnetization
 augmentation part        0.3708562 magnetization

[...]

 Broyden mixing:
  rms(total) = 0.37413E-10    rms(broyden)= 0.37410E-10
  rms(prec ) = 0.64394E-10
  weight for this iteration     100.00

 eigenvalues of (default mixing * dielectric matrix)
  average eigenvalue GAMMA=   3.0602
  3.9679  2.6570  2.5559

[...]

----------------------------------------- Iteration   10(   5)  ---------------------------------------

 eigenvalue-minimisations  :   124
 total energy-change (2. order) :-0.2160050E-11  ( 0.0000000E+00)
 number of electron      16.0000000 magnetization
 augmentation part        0.3708562 magnetization

 Free energy of the ion-electron system (eV)
  alpha Z        PSCENC =         6.18334092
  Ewald energy   TEWEN  =      2424.68073076
  -Hartree energ DENC   =     -2919.02690926
  -exchange      EXHF   =         0.00000000
  -V(xc)+E(xc)   XCENC  =        57.07138074
  PAW double counting   =       267.32891080     -272.43371913
  entropy T*S    EENTRO =        -0.00000000
  eigenvalues    EBANDS =      -189.25826945
  atomic energy  EATOM  =       588.62352690
  free energy    TOTEN  =       -36.83100772 eV

  energy without entropy =      -36.83100772  energy(sigma->0) =      -36.83100772

 average (electrostatic) potential at core
  the test charge radii are     0.6991
  (the norm of the test charge is              1.0000)
       1 -58.3380       2 -58.3380       3 -58.3380       4 -58.3380

 E-fermi :  -2.8314     XC(G=0):  -2.1838     alpha+bet : -1.9046

[...]

 k-point   247 :       0.5000    0.5000    0.0000
  band No.  band energies     occupation
      1     -17.1389      2.00000
      2     -17.1389      2.00000
      3     -15.8163      2.00000
      4     -15.8163      2.00000
      5      -8.9324      2.00000
      6      -8.9324      2.00000
      7      -5.2478      2.00000
      8      -5.2478      2.00000
      9      -1.1898      0.00000
     10      -1.1898      0.00000
     11       4.5864      0.00000
     12       4.5864      0.00000

 soft charge-density along one line, spin component           1
         0         1         2         3         4         5         6         7         8         9
 total charge-density along one line

------------------------ aborting loop because EDIFF is reached ----------------------------------------

  FORCE on cell =-STRESS in cart. coord.  units (eV):
  Direction    XX          YY          ZZ          XY          YZ          ZX
  Alpha Z     6.18334     6.18334     6.18334
  Ewald    2957.62920  2953.66748 -3486.61615    -0.00000     0.00000     0.00000
  Hartree  2896.41493  2895.21995 -2872.60797     0.00000    -0.00000    -0.00000
  E(xc)     -57.92163   -57.88651   -60.22232    -0.00000    -0.00000    -0.00000
  Local   -6027.07829 -6022.67337  6154.13774    -0.00000    -0.00000    -0.00000
  n-local   -13.79030   -12.83850   -12.42647     0.09391     0.00000     0.00000
  augment    -1.47013    -1.46601    -1.36373    -0.00000     0.00000     0.00000
  Kinetic   240.03181   233.42717   272.91423    -4.64559     0.00000    -0.00000
  Fock        0.00000     0.00000     0.00000     0.00000     0.00000     0.00000
  Total      -0.00107    -6.36645    -0.00133     0.00000     0.00000     0.00000
  in kB      -0.00814   -48.37927    -0.01011     0.00000     0.00000     0.00000

 VOLUME and BASIS-vectors are now :
  energy-cutoff  :     2000.00
  volume of cell :      210.84
      direct lattice vectors                 reciprocal lattice vectors
     4.252009809  0.000000000  0.000000000     0.235182901  0.000000000  0.000000000
     0.000000000  2.540828459  0.000000000     0.000000000  0.393572418  0.000000000
     0.000000000  0.000000000 19.515473001     0.000000000  0.000000000  0.051241392

  length of vectors
     4.252009809  2.540828459 19.515473001     0.235182901  0.393572418  0.051241392

 FORCES acting on ions
    electron-ion (+dipol)            ewald-force                    non-local-force                 convergence-correction
   -.630E+01 -.168E-15 0.794E-09   0.629E+01 0.517E-14 -.672E-18   0.141E-01 0.173E-16 0.000E+00   -.520E-10 -.123E-14 0.103E-11
   0.630E+01 0.280E-14 -.183E-08   -.629E+01 -.313E-14 0.165E-17   -.141E-01 0.208E-16 0.000E+00   0.520E-10 -.104E-14 0.103E-11
   -.630E+01 -.154E-12 0.804E-09   0.629E+01 0.384E-14 0.212E-19   0.141E-01 0.104E-16 -.353E-27   -.520E-10 -.136E-14 0.104E-11
   0.630E+01 -.106E-15 -.185E-08   -.629E+01 -.446E-14 -.996E-18   -.141E-01 -.139E-16 0.000E+00   0.520E-10 -.974E-15 0.104E-11
   -.254E-06 -.151E-12 -.208E-08   0.000E+00 0.143E-14 0.000E+00   -.173E-17 0.347E-16 -.353E-27   0.228E-14 -.461E-14 0.413E-11

 POSITION                                       TOTAL-FORCE (eV/Angst)
      0.00316     -0.00000     -0.00000        -0.000000     -0.000000      0.000000
      0.70551      1.27041      0.00000         0.000000     -0.000000     -0.000000
      2.12916      1.27041     -0.00000        -0.000000     -0.000000      0.000000
      2.83152     -0.00000      0.00000         0.000000      0.000000     -0.000000
    total drift:                               -0.000000     -0.000000     -0.000000

  FREE ENERGIE OF THE ION-ELECTRON SYSTEM (eV)
  free  energy   TOTEN  =       -36.83100772 eV

  energy  without entropy=      -36.83100772  energy(sigma->0) =      -36.83100772

 d Force = 0.5567220E-14[-0.344E-14, 0.146E-13]  d Energy =-0.4661160E-11 0.467E-11
 d Force = 0.8601313E-07[ 0.860E-07, 0.860E-07]  d Ewald  = 0.8601319E-07 0.000E+00

 Quasi-Newton relaxation of ions (Broydens 2nd method)
  g(Force)  = 0.122E-13   g(Stress)= 0.000E+00

 retain information from N=  1 steps
 eigenvalues of (default step * inverse Hessian matrix)
  average eigenvalue of G=   0.0538
 eigenvalue spectrum of G is  0.0538

 reached required accuracy - stopping structural energy minimisation