 vasp.5.3.5 31Mar14 (build Mar 02 2015 18:14:16) complex

 executed on             LinuxIFC date 2018.08.07  16:12:10

 INCAR:
 POTCAR:   PAW_PBE C 08Apr2002
 POTCAR:   PAW_PBE C 08Apr2002
   VRHFIN =C: s2p2

   TITEL  = PAW_PBE C 08Apr2002
   POMASS =   12.011; ZVAL   =    4.000    mass and valenz
   ENMAX  =  400.000; ENMIN  =  300.000 eV
   QCUT   =   -5.516; QGAM   =   11.032    optimization parameters

   Description
     l     E      TYP  RCUT    TYP  RCUT
     0   .000     23  1.200
     0   .000     23  1.200
     1   .000     23  1.500
     1  2.500     23  1.500
     2   .000      7  1.500

 PAW_PBE C 08Apr2002                    :

 POSCAR: MD-kMC export data
  positions in direct lattice
  velocities in cartesian coordinates
 exchange correlation table for  LEXCH =        8
   RHO(1)=    0.500       N(1)  =     2000
   RHO(2)=  100.500       N(2)  =     4000

 ion  position               nearest neighbor table
   1  1.000  0.000  0.000-   2 1.43   2 1.43   4 1.43
   2  0.167  0.500  0.000-   1 1.43   1 1.43   3 1.43
   3  0.500  0.500  0.000-   4 1.43   4 1.43   2 1.43
   4  0.667  0.000  0.000-   3 1.43   3 1.43   1 1.43

  LATTYP: Found a simple orthorhombic cell.
 ALAT       =     2.4649156112
 B/A-ratio  =     1.7424737247
 C/A-ratio  =     8.0793473658

  Lattice vectors:

 A1 = (   0.0000000000,  -2.4649156112,   0.0000000000)
 A2 = (  -4.2950506861,   0.0000000000,   0.0000000000)
 A3 = (   0.0000000000,   0.0000000000, -19.9149094501)

Analysis of symmetry for initial positions (statically):
 Subroutine PRICEL returns following result:

  LATTYP: Found a base centered orthorhombic cell.
 ALAT       =     2.4649156112
 B/A-ratio  =     1.7424737247
 C/A-ratio  =     8.0793473658

[...]

   2 primitive cells build up your supercell.

 Routine SETGRP: Setting up the symmetry group for a
 simple orthorhombic supercell.

 Subroutine GETGRP returns: Found  8 space group operations
 (whereof  4 operations were pure point group operations)
 out of a pool of  8 trial point group operations.

The static configuration has the point symmetry C_2v.
 The point group associated with its full space group is D_2h.

Analysis of symmetry for dynamics (positions and initial velocities):
 Subroutine PRICEL returns following result:

  LATTYP: Found a base centered orthorhombic cell.
 ALAT       =     2.4649156112
 B/A-ratio  =     1.7424737247
 C/A-ratio  =     8.0793473658

  Lattice vectors:

 A1 = (   2.1475253430,  -1.2324578056,   0.0000000000)
 A2 = (  -2.1475253430,  -1.2324578056,   0.0000000000)
 A3 = (   0.0000000000,   0.0000000000, -19.9149094501)

   2 primitive cells build up your supercell.

 Routine SETGRP: Setting up the symmetry group for a
 simple orthorhombic supercell.

 Subroutine GETGRP returns: Found  8 space group operations
 (whereof  4 operations were pure point group operations)
 out of a pool of  8 trial point group operations.

The dynamic configuration has the point symmetry C_2v.
 The point group associated with its full space group is D_2h.

 KPOINTS: Automatic mesh

Automatic generation of k-mesh.
Space group operators:
 irot       det(A)        alpha          n_x          n_y          n_z        tau_x        tau_y        tau_z
    1     1.000000     0.000000     1.000000     0.000000     0.000000     0.000000     0.000000     0.000000
    2    -1.000000   180.000000     0.000000     0.000000     1.000000     0.000000     0.000000     0.000000
    3     1.000000   180.000000     1.000000     0.000000     0.000000     0.000000     0.000000     0.000000
    4    -1.000000   180.000000     0.000000     1.000000     0.000000     0.000000     0.000000     0.000000
    5    -1.000000     0.000000     1.000000     0.000000     0.000000     0.166667    -0.500000     0.000000
    6     1.000000   180.000000     0.000000     0.000000     1.000000     0.166667    -0.500000     0.000000
    7    -1.000000   180.000000     1.000000     0.000000     0.000000     0.166667    -0.500000     0.000000
    8     1.000000   180.000000     0.000000     1.000000     0.000000     0.166667    -0.500000     0.000000

 Subroutine IBZKPT returns following result:

 Found    247 irreducible k-points:

 Following reciprocal coordinates:
            Coordinates               Weight
  0.000000  0.000000  0.000000      1.000000
  0.041667  0.000000  0.000000      2.000000
  0.083333  0.000000  0.000000      2.000000
  0.125000  0.000000  0.000000      2.000000
  0.166667  0.000000  0.000000      2.000000
  0.208333  0.000000  0.000000      2.000000
  0.250000  0.000000  0.000000      2.000000
  0.291667  0.000000  0.000000      2.000000
  0.333333  0.000000  0.000000      2.000000
  0.375000  0.000000  0.000000      2.000000
  0.416667  0.000000  0.000000      2.000000
  0.458333  0.000000  0.000000      2.000000
  0.500000  0.000000  0.000000      1.000000
  0.000000  0.027778  0.000000      2.000000
  0.041667  0.027778  0.000000      4.000000
  0.083333  0.027778  0.000000      4.000000
  0.125000  0.027778  0.000000      4.000000
  0.166667  0.027778  0.000000      4.000000
  0.208333  0.027778  0.000000      4.000000
  0.250000  0.027778  0.000000      4.000000
  0.291667  0.027778  0.000000      4.000000
  0.333333  0.027778  0.000000      4.000000
  0.375000  0.027778  0.000000      4.000000
  0.416667  0.027778  0.000000      4.000000
  0.458333  0.027778  0.000000      4.000000
  0.500000  0.027778  0.000000      2.000000
  0.000000  0.055556  0.000000      2.000000
  0.041667  0.055556  0.000000      4.000000
  0.083333  0.055556  0.000000      4.000000
  0.125000  0.055556  0.000000      4.000000
  0.166667  0.055556  0.000000      4.000000
  0.208333  0.055556  0.000000      4.000000
  0.250000  0.055556  0.000000      4.000000
  0.291667  0.055556  0.000000      4.000000
  0.333333  0.055556  0.000000      4.000000
  0.375000  0.055556  0.000000      4.000000
  0.416667  0.055556  0.000000      4.000000
  0.458333  0.055556  0.000000      4.000000
  0.500000  0.055556  0.000000      2.000000
  0.000000  0.083333  0.000000      2.000000
  0.041667  0.083333  0.000000      4.000000
  0.083333  0.083333  0.000000      4.000000
  0.125000  0.083333  0.000000      4.000000
  0.166667  0.083333  0.000000      4.000000
  0.208333  0.083333  0.000000      4.000000
  0.250000  0.083333  0.000000      4.000000
  0.291667  0.083333  0.000000      4.000000
  0.333333  0.083333  0.000000      4.000000
  0.375000  0.083333  0.000000      4.000000
  0.416667  0.083333  0.000000      4.000000
  0.458333  0.083333  0.000000      4.000000
  0.500000  0.083333  0.000000      2.000000
  0.000000  0.111111  0.000000      2.000000
  0.041667  0.111111  0.000000      4.000000
  0.083333  0.111111  0.000000      4.000000
  0.125000  0.111111  0.000000      4.000000
  0.166667  0.111111  0.000000      4.000000
  0.208333  0.111111  0.000000      4.000000
  0.250000  0.111111  0.000000      4.000000
  0.291667  0.111111  0.000000      4.000000
[...]
  0.458333  0.472222  0.000000      4.000000
  0.500000  0.472222  0.000000      2.000000
  0.000000  0.500000  0.000000      1.000000
  0.041667  0.500000  0.000000      2.000000
  0.083333  0.500000  0.000000      2.000000
  0.125000  0.500000  0.000000      2.000000
  0.166667  0.500000  0.000000      2.000000
  0.208333  0.500000  0.000000      2.000000
  0.250000  0.500000  0.000000      2.000000
  0.291667  0.500000  0.000000      2.000000
  0.333333  0.500000  0.000000      2.000000
  0.375000  0.500000  0.000000      2.000000
  0.416667  0.500000  0.000000      2.000000
  0.458333  0.500000  0.000000      2.000000
  0.500000  0.500000  0.000000      1.000000

 Following cartesian coordinates:
            Coordinates               Weight
  0.000000  0.000000  0.000000      1.000000
  0.009701  0.000000  0.000000      2.000000
  0.019402  0.000000  0.000000      2.000000
  0.029103  0.000000  0.000000      2.000000
  0.038804  0.000000  0.000000      2.000000
  0.048505  0.000000  0.000000      2.000000
  0.058207  0.000000  0.000000      2.000000
  0.067908  0.000000  0.000000      2.000000
  0.077609  0.000000  0.000000      2.000000
  0.087310  0.000000  0.000000      2.000000
  0.097011  0.000000  0.000000      2.000000
  0.106712  0.000000  0.000000      2.000000
  0.116413  0.000000  0.000000      1.000000
  0.000000  0.011269  0.000000      2.000000
  0.009701  0.011269  0.000000      4.000000
  0.019402  0.011269  0.000000      4.000000
  0.029103  0.011269  0.000000      4.000000
  0.038804  0.011269  0.000000      4.000000
  0.048505  0.011269  0.000000      4.000000
  0.058207  0.011269  0.000000      4.000000
  0.067908  0.011269  0.000000      4.000000
  0.077609  0.011269  0.000000      4.000000
  0.087310  0.011269  0.000000      4.000000
  0.097011  0.011269  0.000000      4.000000
  0.106712  0.011269  0.000000      4.000000
  0.116413  0.011269  0.000000      2.000000
  0.000000  0.022539  0.000000      2.000000
  0.009701  0.022539  0.000000      4.000000
  0.019402  0.022539  0.000000      4.000000
  0.029103  0.022539  0.000000      4.000000
  0.038804  0.022539  0.000000      4.000000
  0.048505  0.022539  0.000000      4.000000
  0.058207  0.022539  0.000000      4.000000
  0.067908  0.022539  0.000000      4.000000
  0.077609  0.022539  0.000000      4.000000
  0.087310  0.022539  0.000000      4.000000
  0.097011  0.022539  0.000000      4.000000
  0.106712  0.022539  0.000000      4.000000
  0.116413  0.022539  0.000000      2.000000
  0.000000  0.033808  0.000000      2.000000
  0.009701  0.033808  0.000000      4.000000
  0.019402  0.033808  0.000000      4.000000
  0.029103  0.033808  0.000000      4.000000
  0.038804  0.033808  0.000000      4.000000
  0.048505  0.033808  0.000000      4.000000
  0.058207  0.033808  0.000000      4.000000
  0.067908  0.033808  0.000000      4.000000
  0.077609  0.033808  0.000000      4.000000
  0.087310  0.033808  0.000000      4.000000
  0.097011  0.033808  0.000000      4.000000
  0.106712  0.033808  0.000000      4.000000
  0.116413  0.033808  0.000000      2.000000
  0.000000  0.045077  0.000000      2.000000
  0.009701  0.045077  0.000000      4.000000
  0.019402  0.045077  0.000000      4.000000
  0.029103  0.045077  0.000000      4.000000
  0.038804  0.045077  0.000000      4.000000
  0.048505  0.045077  0.000000      4.000000
  0.058207  0.045077  0.000000      4.000000
  0.067908  0.045077  0.000000      4.000000
[...]
  0.106712  0.191577  0.000000      4.000000
  0.116413  0.191577  0.000000      2.000000
  0.000000  0.202847  0.000000      1.000000
  0.009701  0.202847  0.000000      2.000000
  0.019402  0.202847  0.000000      2.000000
  0.029103  0.202847  0.000000      2.000000
  0.038804  0.202847  0.000000      2.000000
  0.048505  0.202847  0.000000      2.000000
  0.058207  0.202847  0.000000      2.000000
  0.067908  0.202847  0.000000      2.000000
  0.077609  0.202847  0.000000      2.000000
  0.087310  0.202847  0.000000      2.000000
  0.097011  0.202847  0.000000      2.000000
  0.106712  0.202847  0.000000      2.000000
  0.116413  0.202847  0.000000      1.000000

 I would recommend the setting:
   dimension x,y,z NGX =    63 NGY =   36 NGZ =  290
[...]
 k-point ** :   0.1667 0.2778 0.0000  plane waves:   42849
 k-point ** :   0.2083 0.2778 0.0000  plane waves:   42838
 k-point ** :   0.2500 0.2778 0.0000  plane waves:   42837
 k-point ** :   0.2917 0.2778 0.0000  plane waves:   42828
 k-point ** :   0.3333 0.2778 0.0000  plane waves:   42816
 k-point ** :   0.3750 0.2778 0.0000  plane waves:   42804
 k-point ** :   0.4167 0.2778 0.0000  plane waves:   42838
 k-point ** :   0.4583 0.2778 0.0000  plane waves:   42851
 k-point ** :   0.5000 0.2778 0.0000  plane waves:   42844
 k-point ** :   0.0000 0.3056 0.0000  plane waves:   42890
 k-point ** :   0.0417 0.3056 0.0000  plane waves:   42880
 k-point ** :   0.0833 0.3056 0.0000  plane waves:   42891
 k-point ** :   0.1250 0.3056 0.0000  plane waves:   42874
 k-point ** :   0.1667 0.3056 0.0000  plane waves:   42876
 k-point ** :   0.2083 0.3056 0.0000  plane waves:   42882
 k-point ** :   0.2500 0.3056 0.0000  plane waves:   42844
 k-point ** :   0.2917 0.3056 0.0000  plane waves:   42850
 k-point ** :   0.3333 0.3056 0.0000  plane waves:   42850
 k-point ** :   0.3750 0.3056 0.0000  plane waves:   42833
 k-point ** :   0.4167 0.3056 0.0000  plane waves:   42841
 k-point ** :   0.4583 0.3056 0.0000  plane waves:   42843
 k-point ** :   0.5000 0.3056 0.0000  plane waves:   42850
 k-point ** :   0.0000 0.3333 0.0000  plane waves:   42898
 k-point ** :   0.0417 0.3333 0.0000  plane waves:   42894
 k-point ** :   0.0833 0.3333 0.0000  plane waves:   42896
[...]
 k-point ** :   0.4583 0.4722 0.0000  plane waves:   42803
 k-point ** :   0.5000 0.4722 0.0000  plane waves:   42792
 k-point ** :   0.0000 0.5000 0.0000  plane waves:   42950
 k-point ** :   0.0417 0.5000 0.0000  plane waves:   42926
 k-point ** :   0.0833 0.5000 0.0000  plane waves:   42936
 k-point ** :   0.1250 0.5000 0.0000  plane waves:   42918
 k-point ** :   0.1667 0.5000 0.0000  plane waves:   42906
 k-point ** :   0.2083 0.5000 0.0000  plane waves:   42924
 k-point ** :   0.2500 0.5000 0.0000  plane waves:   42924
 k-point ** :   0.2917 0.5000 0.0000  plane waves:   42884
 k-point ** :   0.3333 0.5000 0.0000  plane waves:   42900
 k-point ** :   0.3750 0.5000 0.0000  plane waves:   42844
 k-point ** :   0.4167 0.5000 0.0000  plane waves:   42842
 k-point ** :   0.4583 0.5000 0.0000  plane waves:   42812
 k-point ** :   0.5000 0.5000 0.0000  plane waves:   42796

 maximum and minimum number of plane-waves per node :     21481    21276

 maximum number of plane-waves:     42950
 maximum index in each direction:
   IXMAX=   15   IYMAX=    8   IZMAX=   72
   IXMIN=  -16   IYMIN=   -9   IZMIN=  -72

 NGX is ok and might be reduce to  64
 NGY is ok and might be reduce to  36
 NGZ is ok and might be reduce to 290

 parallel 3D FFT for wavefunctions:
    minimum data exchange during FFTs selected (reduces bandwidth)
 parallel 3D FFT for charge:
    minimum data exchange during FFTs selected (reduces bandwidth)

 Broyden mixing: mesh for mixing (old mesh)
   NGX = 31   NGY = 17   NGZ =145
  (NGX  =128   NGY  = 72   NGZ  =588)
  gives a total of  76415 points

 initial charge density was supplied:
 charge density of overlapping atoms calculated
 number of electron      16.0000000 magnetization
 keeping initial charge density in first step

 Maximum index for augmentation-charges         4677 (set IRDMAX)

 First call to EWALD:  gamma=   0.298
 Maximum number of real-space cells 4x 6x 1
 Maximum number of reciprocal cells 2x 1x 8

 FEWALD executed in parallel

----------------------------------------- Iteration    1(   1)  ---------------------------------------

 eigenvalue-minimisations  :  5928
 total energy-change (2. order) : 0.1891836E+03  (-0.1063647E+04)
 number of electron      16.0000000 magnetization
 augmentation part       16.0000000 magnetization

 Free energy of the ion-electron system (eV)
  alpha Z        PSCENC =         6.18334092
  Ewald energy   TEWEN  =      2558.06117958
  -Hartree energ DENC   =     -2984.30261213
  -exchange      EXHF   =         0.00000000
  -V(xc)+E(xc)   XCENC  =        55.03957710
  PAW double counting   =       151.32577238     -155.92769107
  entropy T*S    EENTRO =        -0.00167512
  eigenvalues    EBANDS =       -29.81780870
  atomic energy  EATOM  =       588.62352690
  free energy    TOTEN  =       189.18360987 eV

  energy without entropy =      189.18528499  energy(sigma->0) =      189.18444743

[...]

 eigenvalue-minimisations  : 10440
 total energy-change (2. order) :-0.1986463E+03  (-0.1770635E+03)
 number of electron      16.0000000 magnetization
 augmentation part       16.0000000 magnetization

[...]

 Broyden mixing:
  rms(total) = 0.73128E+00    rms(broyden)= 0.73128E+00
  rms(prec ) = 0.79548E+00
  weight for this iteration     100.00

[...]

 eigenvalues of (default mixing * dielectric matrix)
  average eigenvalue GAMMA=   2.3169
  2.3169

[...]

WARNING in EDDRMM: call to ZHEGV failed, returncode =   6  3  1
WARNING in EDDRMM: call to ZHEGV failed, returncode =   6  3  1
WARNING in EDDRMM: call to ZHEGV failed, returncode =   6  3  1

[...]

 average (electrostatic) potential at core
  the test charge radii are     0.6991
  (the norm of the test charge is              1.0000)
       1 -58.2150       2 -58.2150       3 -58.2150       4 -58.2150

 E-fermi :  -2.7685     XC(G=0):  -2.1493     alpha+bet : -1.9046

 k-point     1 :       0.0000    0.0000    0.0000
  band No.  band energies     occupation
      1     -22.2185      2.00000
      2     -17.0715      2.00000
      3     -15.9458      2.00000
      4     -10.3318      2.00000
      5      -9.0840      2.00000
      6      -5.8327      2.00000
      7      -5.7735      2.00000
      8      -5.1582      2.00000
      9      -1.0990      0.00000
     10       0.5280      0.00000
     11       1.3285      0.00000
     12       1.7136      0.00000

[...]

 soft charge-density along one line, spin component           1
         0         1         2         3         4         5         6         7         8         9
 total charge-density along one line

------------------------ aborting loop because EDIFF is reached ----------------------------------------

  FORCE on cell =-STRESS in cart. coord.  units (eV):
  Direction    XX          YY          ZZ          XY          YZ          ZX
  Alpha Z     6.18334     6.18334     6.18334
  Ewald    3094.10350  3094.76009 -3630.80265     0.00000     0.00000    -0.00000
  Hartree  3029.21192  3029.43968 -3006.57359     0.00000    -0.00000    -0.00000
  E(xc)     -58.26176   -58.26765   -60.60013    -0.00000    -0.00000    -0.00000
  Local   -6295.99179 -6296.76621  6431.40403    -0.00000    -0.00000     0.00000
  n-local   -13.75314   -13.92576   -12.70902     0.05833     0.00000     0.00000
  augment    -1.52855    -1.52918    -1.40567     0.00000    -0.00000     0.00000
  Kinetic   238.91724   240.10556   274.50237    -4.56831     0.00000    -0.00000
  Fock        0.00000     0.00000     0.00000     0.00000     0.00000     0.00000
  Total      -1.11923    -0.00013    -0.00132     0.00000     0.00000     0.00000
  in kB      -8.50516    -0.00099    -0.01001     0.00000     0.00000     0.00000

 VOLUME and BASIS-vectors are now :
  energy-cutoff  :     2000.00
  volume of cell :      210.84
      direct lattice vectors                 reciprocal lattice vectors
     4.295050686  0.000000000  0.000000000     0.232826123  0.000000000  0.000000000
     0.000000000  2.464915611  0.000000000     0.000000000  0.405693402  0.000000000
     0.000000000  0.000000000 19.914909450     0.000000000  0.000000000  0.050213635

[...]

 FORCES acting on ions
    electron-ion (+dipol)            ewald-force                    non-local-force                 convergence-correction
   0.112E+01 -.400E-15 -.328E-09   -.112E+01 0.530E-15 0.181E-34   0.132E-02 -.139E-16 0.207E-24   -.397E-07 -.516E-14 0.191E-12
   -.112E+01 0.122E-13 -.600E-08   0.112E+01 -.292E-14 0.124E-18   -.132E-02 0.347E-17 -.207E-24   0.397E-07 0.363E-14 0.190E-12
   0.112E+01 -.203E-12 -.362E-09   -.112E+01 0.575E-14 -.241E-34   0.132E-02 -.139E-16 0.207E-24   -.397E-07 -.481E-14 0.191E-12
   -.112E+01 0.494E-15 -.602E-08   0.112E+01 0.230E-14 -.124E-18   -.132E-02 0.347E-17 -.207E-24   0.397E-07 0.333E-14 0.190E-12
   -.860E-06 -.190E-12 -.127E-07   0.444E-15 0.567E-14 0.000E+00   -.434E-18 -.208E-16 0.000E+00   -.306E-13 -.301E-14 0.763E-12

 POSITION                                       TOTAL-FORCE (eV/Angst)
      4.29451      0.00000      0.00000        -0.000011      0.000000     -0.000000
      0.71638      1.23246      0.00000         0.000011     -0.000000      0.000000
      2.14698      1.23246      0.00000        -0.000011     -0.000000     -0.000000
      2.86391      0.00000      0.00000         0.000011      0.000000      0.000000
    total drift:                               -0.000001     -0.000000     -0.000000

  FREE ENERGIE OF THE ION-ELECTRON SYSTEM (eV)
  free  energy   TOTEN  =       -36.92265482 eV

  energy  without entropy=      -36.92256677  energy(sigma->0) =      -36.92261079

 Quasi-Newton relaxation of ions (Broydens 2nd method)
  g(Force)  = 0.247E-10   g(Stress)= 0.000E+00

 Reset! Starting new Quasi-Newton update for ions

[...]

 eigenvalue-minimisations  :  6252
 total energy-change (2. order) : 0.3701643E-09  ( 0.2451739E-09)
 number of electron      16.0000000 magnetization
 augmentation part        0.3799545 magnetization

[...]

 d Force =-0.3464304E-10[-0.940E-10, 0.247E-10]  d Energy = 0.2410161E-10-0.587E-10
 d Force = 0.2439103E-05[ 0.244E-05, 0.244E-05]  d Ewald  = 0.2439103E-05 0.000E+00

[...]

 retain information from N=  1 steps
 eigenvalues of (default step * inverse Hessian matrix)
  average eigenvalue of G=   0.2080
 eigenvalue spectrum of G is  0.2080

[...]

 d Force = 0.3856551E-10[ 0.271E-11, 0.744E-10]  d Energy =-0.2182787E-10 0.604E-10
 d Force =-0.1931727E-05[-0.193E-05,-0.193E-05]  d Ewald  =-0.1931726E-05-0.455E-12

[...]

 eigenvalue-minimisations  :  1082
 total energy-change (2. order) : 0.1987246E-09  (-0.1705220E-13)
 number of electron      16.0000000 magnetization
 augmentation part        0.3799545 magnetization

[...]

 eigenvalue-minimisations  :   668
 total energy-change (2. order) :-0.3332161E-09  (-0.3626729E-14)
 number of electron      16.0000000 magnetization
 augmentation part        0.3799545 magnetization

[...]

 d Force =-0.3376339E-13[-0.170E-12, 0.103E-12]  d Energy =-0.4024514E-10 0.402E-10
 d Force =-0.7305962E-07[-0.731E-07,-0.731E-07]  d Ewald  =-0.7305971E-07 0.000E+00

[...]

 FEWALD executed in parallel

[...]

 eigenvalue-minimisations  :  3884
 total energy-change (2. order) : 0.4137064E-09  ( 0.5764217E-09)
 number of electron      16.0000000 magnetization
 augmentation part        0.3799545 magnetization

[...]

 eigenvalue-minimisations  :   610
 total energy-change (2. order) :-0.3441301E-09  ( 0.0000000E+00)
 number of electron      16.0000000 magnetization
 augmentation part        0.3799545 magnetization

[...]

 Broyden mixing:
  rms(total) = 0.89521E-10    rms(broyden)= 0.89508E-10
  rms(prec ) = 0.94933E-10
  weight for this iteration     100.00

 eigenvalues of (default mixing * dielectric matrix)
  average eigenvalue GAMMA=   2.0774
  1.0076  2.5490  2.6756

[...]

----------------------------------------- Iteration    5(   5)  ---------------------------------------

 eigenvalue-minimisations  :   341
 total energy-change (2. order) :-0.3285550E-10  ( 0.0000000E+00)
 number of electron      16.0000000 magnetization
 augmentation part        0.3799545 magnetization

 Free energy of the ion-electron system (eV)
  alpha Z        PSCENC =         6.18334092
  Ewald energy   TEWEN  =      2558.06117910
  -Hartree energ DENC   =     -3052.07801552
  -exchange      EXHF   =         0.00000000
  -V(xc)+E(xc)   XCENC  =        57.44380519
  PAW double counting   =       275.34841942     -280.48940115
  entropy T*S    EENTRO =        -0.00008805
  eigenvalues    EBANDS =      -190.01542163
  atomic energy  EATOM  =       588.62352690
  free energy    TOTEN  =       -36.92265482 eV

  energy without entropy =      -36.92256677  energy(sigma->0) =      -36.92261079

 average (electrostatic) potential at core
  the test charge radii are     0.6991
  (the norm of the test charge is              1.0000)
       1 -58.2150       2 -58.2150       3 -58.2150       4 -58.2150

 E-fermi :  -2.7685     XC(G=0):  -2.1493     alpha+bet : -1.9046

[...]

 k-point   247 :       0.5000    0.5000    0.0000
  band No.  band energies     occupation
      1     -16.9844      2.00000
      2     -16.9844      2.00000
      3     -15.9492      2.00000
      4     -15.9492      2.00000
      5      -9.1915      2.00000
      6      -9.1915      2.00000
      7      -5.0903      2.00000
      8      -5.0903      2.00000
      9      -1.0901      0.00000
     10      -1.0901      0.00000
     11       4.4588      0.00000
     12       4.4588      0.00000

 soft charge-density along one line, spin component           1
         0         1         2         3         4         5         6         7         8         9
 total charge-density along one line

------------------------ aborting loop because EDIFF is reached ----------------------------------------

  FORCE on cell =-STRESS in cart. coord.  units (eV):
  Direction    XX          YY          ZZ          XY          YZ          ZX
  Alpha Z     6.18334     6.18334     6.18334
  Ewald    3094.10359  3094.75999 -3630.80265     0.00000     0.00000     0.00000
  Hartree  3029.21193  3029.43967 -3006.57359    -0.00000    -0.00000    -0.00000
  E(xc)     -58.26176   -58.26765   -60.60013     0.00000    -0.00000    -0.00000
  Local   -6295.99188 -6296.76612  6431.40403    -0.00000     0.00000    -0.00000
  n-local   -13.75314   -13.92576   -12.70902     0.05833     0.00000     0.00000
  augment    -1.52855    -1.52918    -1.40567     0.00000    -0.00000     0.00000
  Kinetic   238.91723   240.10558   274.50237    -4.56831    -0.00000     0.00000
  Fock        0.00000     0.00000     0.00000     0.00000     0.00000     0.00000
  Total      -1.11923    -0.00013    -0.00132     0.00000     0.00000     0.00000
  in kB      -8.50512    -0.00102    -0.01002     0.00000     0.00000     0.00000

 VOLUME and BASIS-vectors are now :
  energy-cutoff  :     2000.00
  volume of cell :      210.84
      direct lattice vectors                 reciprocal lattice vectors
     4.295050686  0.000000000  0.000000000     0.232826123  0.000000000  0.000000000
     0.000000000  2.464915611  0.000000000     0.000000000  0.405693402  0.000000000
     0.000000000  0.000000000 19.914909450     0.000000000  0.000000000  0.050213635

  length of vectors
     4.295050686  2.464915611 19.914909450     0.232826123  0.405693402  0.050213635

 FORCES acting on ions
    electron-ion (+dipol)            ewald-force                    non-local-force                 convergence-correction
   0.112E+01 0.869E-16 -.313E-09   -.112E+01 -.997E-14 -.187E-17   0.132E-02 0.104E-16 0.000E+00   0.536E-10 0.248E-15 -.218E-11
   -.112E+01 0.204E-12 -.599E-08   0.112E+01 0.543E-14 0.261E-18   -.132E-02 -.104E-16 0.000E+00   -.536E-10 -.135E-14 -.216E-11
   0.112E+01 -.263E-12 -.347E-09   -.112E+01 -.259E-14 0.246E-18   0.132E-02 0.104E-16 -.646E-26   0.536E-10 0.406E-15 -.210E-11
   -.112E+01 0.609E-15 -.599E-08   0.112E+01 0.128E-13 0.137E-17   -.132E-02 0.104E-16 0.646E-26   -.536E-10 -.147E-14 -.211E-11
   -.860E-06 -.588E-13 -.126E-07   0.444E-15 0.567E-14 0.000E+00   -.108E-17 0.208E-16 0.000E+00   0.925E-15 -.217E-14 -.855E-11

 POSITION                                       TOTAL-FORCE (eV/Angst)
      4.29451      0.00000     -0.00000         0.000000      0.000000     -0.000000
      0.71638      1.23246      0.00000        -0.000000     -0.000000      0.000000
      2.14698      1.23246     -0.00000         0.000000     -0.000000     -0.000000
      2.86391      0.00000      0.00000        -0.000000     -0.000000      0.000000
    total drift:                               -0.000001     -0.000000     -0.000000

  FREE ENERGIE OF THE ION-ELECTRON SYSTEM (eV)
  free  energy   TOTEN  =       -36.92265482 eV

  energy  without entropy=      -36.92256677  energy(sigma->0) =      -36.92261079

 d Force = 0.4941787E-13[-0.727E-14, 0.106E-12]  d Energy = 0.1762146E-09-0.176E-09
 d Force = 0.4557744E-07[ 0.456E-07, 0.456E-07]  d Ewald  = 0.4557751E-07 0.000E+00

 Quasi-Newton relaxation of ions (Broydens 2nd method)
  g(Force)  = 0.613E-14   g(Stress)= 0.000E+00

 retain information from N=  1 steps
 eigenvalues of (default step * inverse Hessian matrix)
  average eigenvalue of G=   0.0760
 eigenvalue spectrum of G is  0.0760

 reached required accuracy - stopping structural energy minimisation