 vasp.5.3.5 31Mar14 (build Mar 02 2015 18:14:16) complex

 executed on             LinuxIFC date 2018.08.08  18:43:01

 INCAR:
 POTCAR:   PAW_PBE C 08Apr2002
 POTCAR:   PAW_PBE C 08Apr2002
   VRHFIN =C: s2p2

   TITEL  = PAW_PBE C 08Apr2002
   POMASS =   12.011; ZVAL   =    4.000    mass and valenz
   ENMAX  =  400.000; ENMIN  =  300.000 eV
   QCUT   =   -5.516; QGAM   =   11.032    optimization parameters

   Description
     l     E      TYP  RCUT    TYP  RCUT
     0   .000     23  1.200
     0   .000     23  1.200
     1   .000     23  1.500
     1  2.500     23  1.500
     2   .000      7  1.500

 PAW_PBE C 08Apr2002                    :

 POSCAR: MD-kMC export data
  positions in direct lattice
  velocities in cartesian coordinates
 exchange correlation table for  LEXCH =        8
   RHO(1)=    0.500       N(1)  =     2000
   RHO(2)=  100.500       N(2)  =     4000

 ion  position               nearest neighbor table
   1  1.000  0.000  0.000-   2 1.43   2 1.43   4 1.45
   2  0.167  0.500  0.000-   1 1.43   1 1.43   3 1.45
   3  0.500  0.500  0.000-   4 1.43   4 1.43   2 1.45
   4  0.667  0.000  0.000-   3 1.43   3 1.43   1 1.45

  LATTYP: Found a simple orthorhombic cell.
 ALAT       =     2.4590075079
 B/A-ratio  =     1.7724691177
 C/A-ratio  =     8.0000084092

  Lattice vectors:

 A1 = (   0.0000000000,  -2.4590075079,   0.0000000000)
 A2 = (  -4.3585148678,   0.0000000000,   0.0000000000)
 A3 = (   0.0000000000,   0.0000000000, -19.6720807414)

Analysis of symmetry for initial positions (statically):
 Subroutine PRICEL returns following result:

  LATTYP: Found a base centered orthorhombic cell.
 ALAT       =     2.4590075079
 B/A-ratio  =     1.7724691177
 C/A-ratio  =     8.0000084092

[...]

   2 primitive cells build up your supercell.

 Routine SETGRP: Setting up the symmetry group for a
 simple orthorhombic supercell.

 Subroutine GETGRP returns: Found  8 space group operations
 (whereof  4 operations were pure point group operations)
 out of a pool of  8 trial point group operations.

The static configuration has the point symmetry C_2v.
 The point group associated with its full space group is D_2h.

Analysis of symmetry for dynamics (positions and initial velocities):
 Subroutine PRICEL returns following result:

  LATTYP: Found a base centered orthorhombic cell.
 ALAT       =     2.4590075079
 B/A-ratio  =     1.7724691177
 C/A-ratio  =     8.0000084092

  Lattice vectors:

 A1 = (   2.1792574339,  -1.2295037539,   0.0000000000)
 A2 = (  -2.1792574339,  -1.2295037539,   0.0000000000)
 A3 = (   0.0000000000,   0.0000000000, -19.6720807414)

   2 primitive cells build up your supercell.

 Routine SETGRP: Setting up the symmetry group for a
 simple orthorhombic supercell.

 Subroutine GETGRP returns: Found  8 space group operations
 (whereof  4 operations were pure point group operations)
 out of a pool of  8 trial point group operations.

The dynamic configuration has the point symmetry C_2v.
 The point group associated with its full space group is D_2h.

 KPOINTS: Automatic mesh

Automatic generation of k-mesh.
Space group operators:
 irot       det(A)        alpha          n_x          n_y          n_z        tau_x        tau_y        tau_z
    1     1.000000     0.000000     1.000000     0.000000     0.000000     0.000000     0.000000     0.000000
    2    -1.000000   180.000000     0.000000     0.000000     1.000000     0.000000     0.000000     0.000000
    3     1.000000   180.000000     1.000000     0.000000     0.000000     0.000000     0.000000     0.000000
    4    -1.000000   180.000000     0.000000     1.000000     0.000000     0.000000     0.000000     0.000000
    5    -1.000000     0.000000     1.000000     0.000000     0.000000     0.166667    -0.500000     0.000000
    6     1.000000   180.000000     0.000000     0.000000     1.000000     0.166667    -0.500000     0.000000
    7    -1.000000   180.000000     1.000000     0.000000     0.000000     0.166667    -0.500000     0.000000
    8     1.000000   180.000000     0.000000     1.000000     0.000000     0.166667    -0.500000     0.000000

 Subroutine IBZKPT returns following result:

 Found    247 irreducible k-points:

 Following reciprocal coordinates:
            Coordinates               Weight
  0.000000  0.000000  0.000000      1.000000
  0.041667  0.000000  0.000000      2.000000
  0.083333  0.000000  0.000000      2.000000
  0.125000  0.000000  0.000000      2.000000
  0.166667  0.000000  0.000000      2.000000
  0.208333  0.000000  0.000000      2.000000
  0.250000  0.000000  0.000000      2.000000
  0.291667  0.000000  0.000000      2.000000
  0.333333  0.000000  0.000000      2.000000
  0.375000  0.000000  0.000000      2.000000
  0.416667  0.000000  0.000000      2.000000
  0.458333  0.000000  0.000000      2.000000
  0.500000  0.000000  0.000000      1.000000
  0.000000  0.027778  0.000000      2.000000
  0.041667  0.027778  0.000000      4.000000
  0.083333  0.027778  0.000000      4.000000
  0.125000  0.027778  0.000000      4.000000
  0.166667  0.027778  0.000000      4.000000
  0.208333  0.027778  0.000000      4.000000
  0.250000  0.027778  0.000000      4.000000
  0.291667  0.027778  0.000000      4.000000
  0.333333  0.027778  0.000000      4.000000
  0.375000  0.027778  0.000000      4.000000
  0.416667  0.027778  0.000000      4.000000
  0.458333  0.027778  0.000000      4.000000
  0.500000  0.027778  0.000000      2.000000
  0.000000  0.055556  0.000000      2.000000
  0.041667  0.055556  0.000000      4.000000
  0.083333  0.055556  0.000000      4.000000
  0.125000  0.055556  0.000000      4.000000
  0.166667  0.055556  0.000000      4.000000
  0.208333  0.055556  0.000000      4.000000
  0.250000  0.055556  0.000000      4.000000
  0.291667  0.055556  0.000000      4.000000
  0.333333  0.055556  0.000000      4.000000
  0.375000  0.055556  0.000000      4.000000
  0.416667  0.055556  0.000000      4.000000
  0.458333  0.055556  0.000000      4.000000
  0.500000  0.055556  0.000000      2.000000
  0.000000  0.083333  0.000000      2.000000
  0.041667  0.083333  0.000000      4.000000
  0.083333  0.083333  0.000000      4.000000
  0.125000  0.083333  0.000000      4.000000
  0.166667  0.083333  0.000000      4.000000
  0.208333  0.083333  0.000000      4.000000
  0.250000  0.083333  0.000000      4.000000
  0.291667  0.083333  0.000000      4.000000
  0.333333  0.083333  0.000000      4.000000
  0.375000  0.083333  0.000000      4.000000
  0.416667  0.083333  0.000000      4.000000
  0.458333  0.083333  0.000000      4.000000
  0.500000  0.083333  0.000000      2.000000
  0.000000  0.111111  0.000000      2.000000
  0.041667  0.111111  0.000000      4.000000
  0.083333  0.111111  0.000000      4.000000
  0.125000  0.111111  0.000000      4.000000
  0.166667  0.111111  0.000000      4.000000
  0.208333  0.111111  0.000000      4.000000
  0.250000  0.111111  0.000000      4.000000
  0.291667  0.111111  0.000000      4.000000
[...]
  0.458333  0.472222  0.000000      4.000000
  0.500000  0.472222  0.000000      2.000000
  0.000000  0.500000  0.000000      1.000000
  0.041667  0.500000  0.000000      2.000000
  0.083333  0.500000  0.000000      2.000000
  0.125000  0.500000  0.000000      2.000000
  0.166667  0.500000  0.000000      2.000000
  0.208333  0.500000  0.000000      2.000000
  0.250000  0.500000  0.000000      2.000000
  0.291667  0.500000  0.000000      2.000000
  0.333333  0.500000  0.000000      2.000000
  0.375000  0.500000  0.000000      2.000000
  0.416667  0.500000  0.000000      2.000000
  0.458333  0.500000  0.000000      2.000000
  0.500000  0.500000  0.000000      1.000000

 Following cartesian coordinates:
            Coordinates               Weight
  0.000000  0.000000  0.000000      1.000000
  0.009560  0.000000  0.000000      2.000000
  0.019120  0.000000  0.000000      2.000000
  0.028679  0.000000  0.000000      2.000000
  0.038239  0.000000  0.000000      2.000000
  0.047799  0.000000  0.000000      2.000000
  0.057359  0.000000  0.000000      2.000000
  0.066919  0.000000  0.000000      2.000000
  0.076479  0.000000  0.000000      2.000000
  0.086038  0.000000  0.000000      2.000000
  0.095598  0.000000  0.000000      2.000000
  0.105158  0.000000  0.000000      2.000000
  0.114718  0.000000  0.000000      1.000000
  0.000000  0.011296  0.000000      2.000000
  0.009560  0.011296  0.000000      4.000000
  0.019120  0.011296  0.000000      4.000000
  0.028679  0.011296  0.000000      4.000000
  0.038239  0.011296  0.000000      4.000000
  0.047799  0.011296  0.000000      4.000000
  0.057359  0.011296  0.000000      4.000000
  0.066919  0.011296  0.000000      4.000000
  0.076479  0.011296  0.000000      4.000000
  0.086038  0.011296  0.000000      4.000000
  0.095598  0.011296  0.000000      4.000000
  0.105158  0.011296  0.000000      4.000000
  0.114718  0.011296  0.000000      2.000000
  0.000000  0.022593  0.000000      2.000000
  0.009560  0.022593  0.000000      4.000000
  0.019120  0.022593  0.000000      4.000000
  0.028679  0.022593  0.000000      4.000000
  0.038239  0.022593  0.000000      4.000000
  0.047799  0.022593  0.000000      4.000000
  0.057359  0.022593  0.000000      4.000000
  0.066919  0.022593  0.000000      4.000000
  0.076479  0.022593  0.000000      4.000000
  0.086038  0.022593  0.000000      4.000000
  0.095598  0.022593  0.000000      4.000000
  0.105158  0.022593  0.000000      4.000000
  0.114718  0.022593  0.000000      2.000000
  0.000000  0.033889  0.000000      2.000000
  0.009560  0.033889  0.000000      4.000000
  0.019120  0.033889  0.000000      4.000000
  0.028679  0.033889  0.000000      4.000000
  0.038239  0.033889  0.000000      4.000000
  0.047799  0.033889  0.000000      4.000000
  0.057359  0.033889  0.000000      4.000000
  0.066919  0.033889  0.000000      4.000000
  0.076479  0.033889  0.000000      4.000000
  0.086038  0.033889  0.000000      4.000000
  0.095598  0.033889  0.000000      4.000000
  0.105158  0.033889  0.000000      4.000000
  0.114718  0.033889  0.000000      2.000000
  0.000000  0.045185  0.000000      2.000000
  0.009560  0.045185  0.000000      4.000000
  0.019120  0.045185  0.000000      4.000000
  0.028679  0.045185  0.000000      4.000000
  0.038239  0.045185  0.000000      4.000000
  0.047799  0.045185  0.000000      4.000000
  0.057359  0.045185  0.000000      4.000000
  0.066919  0.045185  0.000000      4.000000
[...]
  0.105158  0.192038  0.000000      4.000000
  0.114718  0.192038  0.000000      2.000000
  0.000000  0.203334  0.000000      1.000000
  0.009560  0.203334  0.000000      2.000000
  0.019120  0.203334  0.000000      2.000000
  0.028679  0.203334  0.000000      2.000000
  0.038239  0.203334  0.000000      2.000000
  0.047799  0.203334  0.000000      2.000000
  0.057359  0.203334  0.000000      2.000000
  0.066919  0.203334  0.000000      2.000000
  0.076479  0.203334  0.000000      2.000000
  0.086038  0.203334  0.000000      2.000000
  0.095598  0.203334  0.000000      2.000000
  0.105158  0.203334  0.000000      2.000000
  0.114718  0.203334  0.000000      1.000000

 I would recommend the setting:
   dimension x,y,z NGX =    64 NGY =   36 NGZ =  287
[...]
 k-point ** :   0.4583 0.2222 0.0000  plane waves:   42800
 k-point ** :   0.5000 0.2222 0.0000  plane waves:   42796
 k-point ** :   0.0000 0.2500 0.0000  plane waves:   42798
 k-point ** :   0.0417 0.2500 0.0000  plane waves:   42842
 k-point ** :   0.0833 0.2500 0.0000  plane waves:   42844
 k-point ** :   0.1250 0.2500 0.0000  plane waves:   42848
 k-point ** :   0.1667 0.2500 0.0000  plane waves:   42842
 k-point ** :   0.2083 0.2500 0.0000  plane waves:   42858
 k-point ** :   0.2500 0.2500 0.0000  plane waves:   42867
 k-point ** :   0.2917 0.2500 0.0000  plane waves:   42858
 k-point ** :   0.3333 0.2500 0.0000  plane waves:   42866
 k-point ** :   0.3750 0.2500 0.0000  plane waves:   42833
 k-point ** :   0.4167 0.2500 0.0000  plane waves:   42806
 k-point ** :   0.4583 0.2500 0.0000  plane waves:   42829
 k-point ** :   0.5000 0.2500 0.0000  plane waves:   42808
 k-point ** :   0.0000 0.2778 0.0000  plane waves:   42852
 k-point ** :   0.0417 0.2778 0.0000  plane waves:   42861
 k-point ** :   0.0833 0.2778 0.0000  plane waves:   42836
 k-point ** :   0.1250 0.2778 0.0000  plane waves:   42842
 k-point ** :   0.1667 0.2778 0.0000  plane waves:   42839
 k-point ** :   0.2083 0.2778 0.0000  plane waves:   42860
 k-point ** :   0.2500 0.2778 0.0000  plane waves:   42873
 k-point ** :   0.2917 0.2778 0.0000  plane waves:   42849
 k-point ** :   0.3333 0.2778 0.0000  plane waves:   42852
 k-point ** :   0.3750 0.2778 0.0000  plane waves:   42844
 k-point ** :   0.4167 0.2778 0.0000  plane waves:   42841
 k-point ** :   0.4583 0.2778 0.0000  plane waves:   42821
 k-point ** :   0.5000 0.2778 0.0000  plane waves:   42834
 k-point ** :   0.0000 0.3056 0.0000  plane waves:   42850
 k-point ** :   0.0417 0.3056 0.0000  plane waves:   42835
 k-point ** :   0.0833 0.3056 0.0000  plane waves:   42854
 k-point ** :   0.1250 0.3056 0.0000  plane waves:   42850
 k-point ** :   0.1667 0.3056 0.0000  plane waves:   42835
 k-point ** :   0.2083 0.3056 0.0000  plane waves:   42842
 k-point ** :   0.2500 0.3056 0.0000  plane waves:   42858
 k-point ** :   0.2917 0.3056 0.0000  plane waves:   42858
 k-point ** :   0.3333 0.3056 0.0000  plane waves:   42873
 k-point ** :   0.3750 0.3056 0.0000  plane waves:   42854
 k-point ** :   0.4167 0.3056 0.0000  plane waves:   42863
 k-point ** :   0.4583 0.3056 0.0000  plane waves:   42862
 k-point ** :   0.5000 0.3056 0.0000  plane waves:   42866
 k-point ** :   0.0000 0.3333 0.0000  plane waves:   42856
 k-point ** :   0.0417 0.3333 0.0000  plane waves:   42854
 k-point ** :   0.0833 0.3333 0.0000  plane waves:   42851
[...]
 k-point ** :   0.4583 0.4722 0.0000  plane waves:   42953
 k-point ** :   0.5000 0.4722 0.0000  plane waves:   42972
 k-point ** :   0.0000 0.5000 0.0000  plane waves:   42850
 k-point ** :   0.0417 0.5000 0.0000  plane waves:   42838
 k-point ** :   0.0833 0.5000 0.0000  plane waves:   42870
 k-point ** :   0.1250 0.5000 0.0000  plane waves:   42862
 k-point ** :   0.1667 0.5000 0.0000  plane waves:   42860
 k-point ** :   0.2083 0.5000 0.0000  plane waves:   42868
 k-point ** :   0.2500 0.5000 0.0000  plane waves:   42856
 k-point ** :   0.2917 0.5000 0.0000  plane waves:   42886
 k-point ** :   0.3333 0.5000 0.0000  plane waves:   42884
 k-point ** :   0.3750 0.5000 0.0000  plane waves:   42906
 k-point ** :   0.4167 0.5000 0.0000  plane waves:   42926
 k-point ** :   0.4583 0.5000 0.0000  plane waves:   42940
 k-point ** :   0.5000 0.5000 0.0000  plane waves:   42944

 maximum and minimum number of plane-waves per node :     21488    21302

 maximum number of plane-waves:     42972
 maximum index in each direction:
   IXMAX=   15   IYMAX=    8   IZMAX=   71
   IXMIN=  -16   IYMIN=   -9   IZMIN=  -71

 NGX is ok and might be reduce to  64
 NGY is ok and might be reduce to  36
 NGZ is ok and might be reduce to 286

 parallel 3D FFT for wavefunctions:
    minimum data exchange during FFTs selected (reduces bandwidth)
 parallel 3D FFT for charge:
    minimum data exchange during FFTs selected (reduces bandwidth)

 Broyden mixing: mesh for mixing (old mesh)
   NGX = 31   NGY = 17   NGZ =143
  (NGX  =128   NGY  = 72   NGZ  =576)
  gives a total of  75361 points

 initial charge density was supplied:
 charge density of overlapping atoms calculated
 number of electron      16.0000000 magnetization
 keeping initial charge density in first step

 Maximum index for augmentation-charges         4565 (set IRDMAX)

 First call to EWALD:  gamma=   0.298
 Maximum number of real-space cells 4x 6x 1
 Maximum number of reciprocal cells 2x 1x 8

 FEWALD executed in parallel

----------------------------------------- Iteration    1(   1)  ---------------------------------------

 eigenvalue-minimisations  :  5928
 total energy-change (2. order) : 0.1866750E+03  (-0.1060463E+04)
 number of electron      16.0000000 magnetization
 augmentation part       16.0000000 magnetization

 Free energy of the ion-electron system (eV)
  alpha Z        PSCENC =         6.18334092
  Ewald energy   TEWEN  =      2476.61674393
  -Hartree energ DENC   =     -2905.29711095
  -exchange      EXHF   =         0.00000000
  -V(xc)+E(xc)   XCENC  =        54.87324727
  PAW double counting   =       151.32577238     -155.92769107
  entropy T*S    EENTRO =        -0.00153843
  eigenvalues    EBANDS =       -29.72130253
  atomic energy  EATOM  =       588.62352690
  free energy    TOTEN  =       186.67498844 eV

  energy without entropy =      186.67652686  energy(sigma->0) =      186.67575765

[...]

 eigenvalue-minimisations  : 10472
 total energy-change (2. order) :-0.1959528E+03  (-0.1741756E+03)
 number of electron      16.0000000 magnetization
 augmentation part       16.0000000 magnetization

[...]

 Broyden mixing:
  rms(total) = 0.71433E+00    rms(broyden)= 0.71433E+00
  rms(prec ) = 0.77805E+00
  weight for this iteration     100.00

[...]

 eigenvalues of (default mixing * dielectric matrix)
  average eigenvalue GAMMA=   2.3145
  2.3145

[...]

WARNING in EDDRMM: call to ZHEGV failed, returncode =   6  3  1
WARNING in EDDRMM: call to ZHEGV failed, returncode =   6  3  1

[...]

 average (electrostatic) potential at core
  the test charge radii are     0.6991
  (the norm of the test charge is              1.0000)
       1 -58.2895       2 -58.2895       3 -58.2895       4 -58.2895

 E-fermi :  -2.8104     XC(G=0):  -2.1708     alpha+bet : -1.9046

 k-point     1 :       0.0000    0.0000    0.0000
  band No.  band energies     occupation
      1     -22.1156      2.00000
      2     -17.2119      2.00000
      3     -15.8629      2.00000
      4     -10.2523      2.00000
      5      -8.8733      2.00000
      6      -5.9652      2.00000
      7      -5.7373      2.00000
      8      -5.2911      2.00000
      9      -1.1659      0.00000
     10       0.5405      0.00000
     11       1.3392      0.00000
     12       1.7296      0.00000

[...]

 soft charge-density along one line, spin component           1
         0         1         2         3         4         5         6         7         8         9
 total charge-density along one line

------------------------ aborting loop because EDIFF is reached ----------------------------------------

  FORCE on cell =-STRESS in cart. coord.  units (eV):
  Direction    XX          YY          ZZ          XY          YZ          ZX
  Alpha Z     6.18334     6.18334     6.18334
  Ewald    3008.40085  3011.01514 -3542.79948    -0.00000     0.00000     0.00000
  Hartree  2947.35213  2948.26418 -2924.78105    -0.00000    -0.00000    -0.00000
  E(xc)     -58.03460   -58.05746   -60.37095     0.00000    -0.00000    -0.00000
  Local   -6129.07113 -6132.17979  6262.14853     0.00000    -0.00000    -0.00000
  n-local   -13.19561   -13.84778   -12.53845     0.06516     0.00000     0.00000
  augment    -1.49071    -1.49264    -1.38023    -0.00000     0.00000    -0.00000
  Kinetic   235.51060   240.11370   273.53694    -4.48075    -0.00000    -0.00000
  Fock        0.00000     0.00000     0.00000     0.00000     0.00000     0.00000
  Total      -4.34513    -0.00131    -0.00135     0.00000     0.00000     0.00000
  in kB     -33.01907    -0.00997    -0.01028     0.00000     0.00000     0.00000

 VOLUME and BASIS-vectors are now :
  energy-cutoff  :     2000.00
  volume of cell :      210.84
      direct lattice vectors                 reciprocal lattice vectors
     4.358514868  0.000000000  0.000000000     0.229435950  0.000000000  0.000000000
     0.000000000  2.459007508  0.000000000     0.000000000  0.406668136  0.000000000
     0.000000000  0.000000000 19.672080741     0.000000000  0.000000000  0.050833464

[...]

 FORCES acting on ions
    electron-ion (+dipol)            ewald-force                    non-local-force                 convergence-correction
   0.428E+01 0.188E-15 -.184E-08   -.427E+01 -.556E-14 0.149E-17   -.865E-03 0.694E-17 0.000E+00   -.461E-07 0.130E-14 -.815E-13
   -.428E+01 -.185E-12 -.965E-08   0.427E+01 0.214E-14 -.598E-33   0.865E-03 -.347E-17 0.103E-24   0.461E-07 -.331E-14 -.812E-13
   0.428E+01 -.210E-12 -.185E-08   -.427E+01 -.203E-14 -.149E-17   -.865E-03 0.694E-17 0.517E-25   -.461E-07 0.118E-14 -.815E-13
   -.428E+01 0.621E-15 -.964E-08   0.427E+01 0.567E-14 0.578E-33   0.865E-03 -.347E-17 0.000E+00   0.461E-07 -.319E-14 -.812E-13
   -.117E-05 -.395E-12 -.230E-07   -.178E-14 0.225E-15 0.000E+00   0.000E+00 0.694E-17 0.155E-24   -.935E-13 -.402E-14 -.325E-12

 POSITION                                       TOTAL-FORCE (eV/Angst)
      4.35652      0.00000      0.00000         0.001228     -0.000000      0.000000
      0.72841      1.22950      0.00000        -0.001228     -0.000000     -0.000000
      2.17727      1.22950      0.00000         0.001228     -0.000000      0.000000
      2.90767      0.00000      0.00000        -0.001228      0.000000     -0.000000
    total drift:                               -0.000001     -0.000000     -0.000000

  FREE ENERGIE OF THE ION-ELECTRON SYSTEM (eV)
  free  energy   TOTEN  =       -36.88251163 eV

  energy  without entropy=      -36.88251119  energy(sigma->0) =      -36.88251141

 Quasi-Newton relaxation of ions (Broydens 2nd method)
  g(Force)  = 0.291E-06   g(Stress)= 0.000E+00

 Reset! Starting new Quasi-Newton update for ions

[...]

WARNING in EDDRMM: call to ZHEGV failed, returncode =   6  3  1
WARNING in EDDRMM: call to ZHEGV failed, returncode =   6  3  1

[...]

 d Force =-0.4071569E-06[-0.111E-05, 0.291E-06]  d Energy =-0.3963645E-06-0.108E-07
 d Force =-0.1015335E-02[-0.102E-02,-0.101E-02]  d Ewald  =-0.1015335E-02 0.158E-09

[...]

 retain information from N=  1 steps
 eigenvalues of (default step * inverse Hessian matrix)
  average eigenvalue of G=   0.2084
 eigenvalue spectrum of G is  0.2084

 FEWALD executed in parallel

[...]

 eigenvalue-minimisations  :  2810
 total energy-change (2. order) : 0.1748504E-09  (-0.5479814E-12)
 number of electron      16.0000000 magnetization
 augmentation part        0.3744348 magnetization

 Broyden mixing:
  rms(total) = 0.73986E-07    rms(broyden)= 0.73986E-07
  rms(prec ) = 0.81893E-07
  weight for this iteration     100.00

 eigenvalues of (default mixing * dielectric matrix)
  average eigenvalue GAMMA=   2.0097
  5.0862  2.5580  2.5580  1.6423  1.4325  1.0054  0.9704  0.8248

[...]

----------------------------------------- Iteration    3(  10)  ---------------------------------------

 eigenvalue-minimisations  :  2533
 total energy-change (2. order) :-0.6912160E-10  (-0.2377481E-12)
 number of electron      16.0000000 magnetization
 augmentation part        0.3744348 magnetization

 Free energy of the ion-electron system (eV)
  alpha Z        PSCENC =         6.18334092
  Ewald energy   TEWEN  =      2476.61695512
  -Hartree energ DENC   =     -2970.83543658
  -exchange      EXHF   =         0.00000000
  -V(xc)+E(xc)   XCENC  =        57.21792355
  PAW double counting   =       270.45032054     -275.56914475
  entropy T*S    EENTRO =        -0.00000044
  eigenvalues    EBANDS =      -189.56999694
  atomic energy  EATOM  =       588.62352690
  free energy    TOTEN  =       -36.88251166 eV

  energy without entropy =      -36.88251123  energy(sigma->0) =      -36.88251145

 average (electrostatic) potential at core
  the test charge radii are     0.6991
  (the norm of the test charge is              1.0000)
       1 -58.2895       2 -58.2895       3 -58.2895       4 -58.2895

 E-fermi :  -2.8104     XC(G=0):  -2.1704     alpha+bet : -1.9046

[...]

 k-point   247 :       0.5000    0.5000    0.0000
  band No.  band energies     occupation
      1     -16.8804      2.00000
      2     -16.8804      2.00000
      3     -15.8803      2.00000
      4     -15.8803      2.00000
      5      -9.2773      2.00000
      6      -9.2773      2.00000
      7      -5.0320      2.00000
      8      -5.0320      2.00000
      9      -1.1353      0.00000
     10      -1.1353      0.00000
     11       4.0353      0.00000
     12       4.0353      0.00000

 soft charge-density along one line, spin component           1
         0         1         2         3         4         5         6         7         8         9
 total charge-density along one line

------------------------ aborting loop because EDIFF is reached ----------------------------------------

  FORCE on cell =-STRESS in cart. coord.  units (eV):
  Direction    XX          YY          ZZ          XY          YZ          ZX
  Alpha Z     6.18334     6.18334     6.18334
  Ewald    3008.39026  3011.02594 -3542.79948    -0.00000     0.00000     0.00000
  Hartree  2947.35069  2948.26578 -2924.78104    -0.00000    -0.00000    -0.00000
  E(xc)     -58.03465   -58.05743   -60.37096    -0.00000    -0.00000    -0.00000
  Local   -6129.06101 -6132.19016  6262.14846     0.00000     0.00000    -0.00000
  n-local   -13.19570   -13.84769   -12.53846     0.06517     0.00000     0.00000
  augment    -1.49070    -1.49266    -1.38024     0.00000     0.00000    -0.00000
  Kinetic   235.51232   240.11211   273.53701    -4.48080    -0.00000    -0.00000
  Fock        0.00000     0.00000     0.00000     0.00000     0.00000     0.00000
  Total      -4.34545    -0.00077    -0.00136     0.00000     0.00000     0.00000
  in kB     -33.02150    -0.00587    -0.01030     0.00000     0.00000     0.00000

 VOLUME and BASIS-vectors are now :
  energy-cutoff  :     2000.00
  volume of cell :      210.84
      direct lattice vectors                 reciprocal lattice vectors
     4.358514868  0.000000000  0.000000000     0.229435950  0.000000000  0.000000000
     0.000000000  2.459007508  0.000000000     0.000000000  0.406668136  0.000000000
     0.000000000  0.000000000 19.672080741     0.000000000  0.000000000  0.050833464

  length of vectors
     4.358514868  2.459007508 19.672080741     0.229435950  0.406668136  0.050833464

 FORCES acting on ions
    electron-ion (+dipol)            ewald-force                    non-local-force                 convergence-correction
   0.428E+01 0.400E-16 -.185E-08   -.428E+01 -.862E-16 -.881E-19   -.130E-02 -.104E-16 0.000E+00   0.103E-05 -.501E-15 -.174E-12
   -.428E+01 -.893E-14 -.964E-08   0.428E+01 -.138E-14 -.679E-18   0.130E-02 -.694E-17 0.000E+00   -.103E-05 -.117E-14 -.179E-12
   0.428E+01 0.594E-12 -.186E-08   -.428E+01 0.149E-14 0.106E-17   -.130E-02 -.104E-16 0.000E+00   0.103E-05 -.508E-15 -.180E-12
   -.428E+01 0.428E-15 -.960E-08   0.428E+01 0.199E-15 -.295E-18   0.130E-02 -.694E-17 0.808E-26   -.103E-05 -.133E-14 -.175E-12
   -.117E-05 0.586E-12 -.229E-07   -.178E-14 0.225E-15 0.000E+00   -.651E-18 -.347E-16 0.808E-26   0.454E-12 -.351E-14 -.708E-12

 POSITION                                       TOTAL-FORCE (eV/Angst)
      4.35654     -0.00000      0.00000         0.000000     -0.000000      0.000000
      0.72840      1.22950     -0.00000        -0.000000      0.000000     -0.000000
      2.17728      1.22950      0.00000         0.000000      0.000000      0.000000
      2.90766      0.00000     -0.00000        -0.000000     -0.000000     -0.000000
    total drift:                               -0.000001      0.000000     -0.000000

  FREE ENERGIE OF THE ION-ELECTRON SYSTEM (eV)
  free  energy   TOTEN  =       -36.88251166 eV

  energy  without entropy=      -36.88251123  energy(sigma->0) =      -36.88251145

 d Force = 0.4374710E-06[-0.119E-10, 0.875E-06]  d Energy = 0.4287288E-06 0.874E-08
 d Force = 0.8041411E-03[ 0.803E-03, 0.806E-03]  d Ewald  = 0.8041412E-03-0.791E-10

 Quasi-Newton relaxation of ions (Broydens 2nd method)
  g(Force)  = 0.783E-15   g(Stress)= 0.000E+00

 retain information from N=  1 steps
 eigenvalues of (default step * inverse Hessian matrix)
  average eigenvalue of G=   0.2084
 eigenvalue spectrum of G is  0.2084

 reached required accuracy - stopping structural energy minimisation