 vasp.5.3.5 31Mar14 (build Mar 02 2015 18:14:16) complex

 executed on             LinuxIFC date 2018.08.09  19:25:14

 INCAR:
 POTCAR:   PAW_PBE C 08Apr2002
 POTCAR:   PAW_PBE C 08Apr2002
   VRHFIN =C: s2p2

   TITEL  = PAW_PBE C 08Apr2002
   POMASS =   12.011; ZVAL   =    4.000    mass and valenz
   ENMAX  =  400.000; ENMIN  =  300.000 eV
   QCUT   =   -5.516; QGAM   =   11.032    optimization parameters

   Description
     l     E      TYP  RCUT    TYP  RCUT
     0   .000     23  1.200
     0   .000     23  1.200
     1   .000     23  1.500
     1  2.500     23  1.500
     2   .000      7  1.500

 PAW_PBE C 08Apr2002                    :

 POSCAR: MD-kMC export data
  positions in direct lattice
  velocities in cartesian coordinates
 exchange correlation table for  LEXCH =        8
   RHO(1)=    0.500       N(1)  =     2000
   RHO(2)=  100.500       N(2)  =     4000

 ion  position               nearest neighbor table
   1  0.000  0.000  0.000-   4 1.42   2 1.43   2 1.43
   2  0.166  0.500  0.000-   3 1.42   1 1.43   1 1.43
   3  0.500  0.500  0.000-   2 1.42   4 1.43   4 1.43
   4  0.666  0.000  0.000-   1 1.42   3 1.43   3 1.43

  LATTYP: Found a simple orthorhombic cell.
 ALAT       =     2.4920968623
 B/A-ratio  =     1.7116481779
 C/A-ratio  =     7.9586503939

  Lattice vectors:

 A1 = (   0.0000000000,  -2.4920968623,   0.0000000000)
 A2 = (  -4.2655930535,   0.0000000000,   0.0000000000)
 A3 = (   0.0000000000,   0.0000000000, -19.8337276749)

Analysis of symmetry for initial positions (statically):
 Subroutine PRICEL returns following result:

  LATTYP: Found a base centered orthorhombic cell.
 ALAT       =     2.4920968623
 B/A-ratio  =     1.7116481779
 C/A-ratio  =     7.9586503939

[...]

   2 primitive cells build up your supercell.

 Routine SETGRP: Setting up the symmetry group for a
 simple orthorhombic supercell.

 Subroutine GETGRP returns: Found  8 space group operations
 (whereof  4 operations were pure point group operations)
 out of a pool of  8 trial point group operations.

The static configuration has the point symmetry C_2v.
 The point group associated with its full space group is D_2h.

Analysis of symmetry for dynamics (positions and initial velocities):
 Subroutine PRICEL returns following result:

  LATTYP: Found a base centered orthorhombic cell.
 ALAT       =     2.4920968623
 B/A-ratio  =     1.7116481779
 C/A-ratio  =     7.9586503939

  Lattice vectors:

 A1 = (   2.1327965268,  -1.2460484311,   0.0000000000)
 A2 = (  -2.1327965268,  -1.2460484311,   0.0000000000)
 A3 = (   0.0000000000,   0.0000000000, -19.8337276749)

   2 primitive cells build up your supercell.

 Routine SETGRP: Setting up the symmetry group for a
 simple orthorhombic supercell.

 Subroutine GETGRP returns: Found  8 space group operations
 (whereof  4 operations were pure point group operations)
 out of a pool of  8 trial point group operations.

The dynamic configuration has the point symmetry C_2v.
 The point group associated with its full space group is D_2h.

 KPOINTS: Automatic mesh

Automatic generation of k-mesh.
Space group operators:
 irot       det(A)        alpha          n_x          n_y          n_z        tau_x        tau_y        tau_z
    1     1.000000     0.000000     1.000000     0.000000     0.000000     0.000000     0.000000     0.000000
    2    -1.000000   180.000000     0.000000     0.000000     1.000000     0.000000     0.000000     0.000000
    3     1.000000   180.000000     1.000000     0.000000     0.000000     0.000000     0.000000     0.000000
    4    -1.000000   180.000000     0.000000     1.000000     0.000000     0.000000     0.000000     0.000000
    5    -1.000000     0.000000     1.000000     0.000000     0.000000     0.166667    -0.500000     0.000000
    6     1.000000   180.000000     0.000000     0.000000     1.000000     0.166667    -0.500000     0.000000
    7    -1.000000   180.000000     1.000000     0.000000     0.000000     0.166667    -0.500000     0.000000
    8     1.000000   180.000000     0.000000     1.000000     0.000000     0.166667    -0.500000     0.000000

 Subroutine IBZKPT returns following result:

 Found    247 irreducible k-points:

 Following reciprocal coordinates:
            Coordinates               Weight
  0.000000  0.000000  0.000000      1.000000
  0.041667  0.000000  0.000000      2.000000
  0.083333  0.000000  0.000000      2.000000
  0.125000  0.000000  0.000000      2.000000
  0.166667  0.000000  0.000000      2.000000
  0.208333  0.000000  0.000000      2.000000
  0.250000  0.000000  0.000000      2.000000
  0.291667  0.000000  0.000000      2.000000
  0.333333  0.000000  0.000000      2.000000
  0.375000  0.000000  0.000000      2.000000
  0.416667  0.000000  0.000000      2.000000
  0.458333  0.000000  0.000000      2.000000
  0.500000  0.000000  0.000000      1.000000
  0.000000  0.027778  0.000000      2.000000
  0.041667  0.027778  0.000000      4.000000
  0.083333  0.027778  0.000000      4.000000
  0.125000  0.027778  0.000000      4.000000
  0.166667  0.027778  0.000000      4.000000
  0.208333  0.027778  0.000000      4.000000
  0.250000  0.027778  0.000000      4.000000
  0.291667  0.027778  0.000000      4.000000
  0.333333  0.027778  0.000000      4.000000
  0.375000  0.027778  0.000000      4.000000
  0.416667  0.027778  0.000000      4.000000
  0.458333  0.027778  0.000000      4.000000
  0.500000  0.027778  0.000000      2.000000
  0.000000  0.055556  0.000000      2.000000
  0.041667  0.055556  0.000000      4.000000
  0.083333  0.055556  0.000000      4.000000
  0.125000  0.055556  0.000000      4.000000
  0.166667  0.055556  0.000000      4.000000
  0.208333  0.055556  0.000000      4.000000
  0.250000  0.055556  0.000000      4.000000
  0.291667  0.055556  0.000000      4.000000
  0.333333  0.055556  0.000000      4.000000
  0.375000  0.055556  0.000000      4.000000
  0.416667  0.055556  0.000000      4.000000
  0.458333  0.055556  0.000000      4.000000
  0.500000  0.055556  0.000000      2.000000
  0.000000  0.083333  0.000000      2.000000
  0.041667  0.083333  0.000000      4.000000
  0.083333  0.083333  0.000000      4.000000
  0.125000  0.083333  0.000000      4.000000
  0.166667  0.083333  0.000000      4.000000
  0.208333  0.083333  0.000000      4.000000
  0.250000  0.083333  0.000000      4.000000
  0.291667  0.083333  0.000000      4.000000
  0.333333  0.083333  0.000000      4.000000
  0.375000  0.083333  0.000000      4.000000
  0.416667  0.083333  0.000000      4.000000
  0.458333  0.083333  0.000000      4.000000
  0.500000  0.083333  0.000000      2.000000
  0.000000  0.111111  0.000000      2.000000
  0.041667  0.111111  0.000000      4.000000
  0.083333  0.111111  0.000000      4.000000
  0.125000  0.111111  0.000000      4.000000
  0.166667  0.111111  0.000000      4.000000
  0.208333  0.111111  0.000000      4.000000
  0.250000  0.111111  0.000000      4.000000
  0.291667  0.111111  0.000000      4.000000
[...]
  0.458333  0.472222  0.000000      4.000000
  0.500000  0.472222  0.000000      2.000000
  0.000000  0.500000  0.000000      1.000000
  0.041667  0.500000  0.000000      2.000000
  0.083333  0.500000  0.000000      2.000000
  0.125000  0.500000  0.000000      2.000000
  0.166667  0.500000  0.000000      2.000000
  0.208333  0.500000  0.000000      2.000000
  0.250000  0.500000  0.000000      2.000000
  0.291667  0.500000  0.000000      2.000000
  0.333333  0.500000  0.000000      2.000000
  0.375000  0.500000  0.000000      2.000000
  0.416667  0.500000  0.000000      2.000000
  0.458333  0.500000  0.000000      2.000000
  0.500000  0.500000  0.000000      1.000000

 Following cartesian coordinates:
            Coordinates               Weight
  0.000000  0.000000  0.000000      1.000000
  0.009768  0.000000  0.000000      2.000000
  0.019536  0.000000  0.000000      2.000000
  0.029304  0.000000  0.000000      2.000000
  0.039072  0.000000  0.000000      2.000000
  0.048840  0.000000  0.000000      2.000000
  0.058608  0.000000  0.000000      2.000000
  0.068377  0.000000  0.000000      2.000000
  0.078145  0.000000  0.000000      2.000000
  0.087913  0.000000  0.000000      2.000000
  0.097681  0.000000  0.000000      2.000000
  0.107449  0.000000  0.000000      2.000000
  0.117217  0.000000  0.000000      1.000000
  0.000000  0.011146  0.000000      2.000000
  0.009768  0.011146  0.000000      4.000000
  0.019536  0.011146  0.000000      4.000000
  0.029304  0.011146  0.000000      4.000000
  0.039072  0.011146  0.000000      4.000000
  0.048840  0.011146  0.000000      4.000000
  0.058608  0.011146  0.000000      4.000000
  0.068377  0.011146  0.000000      4.000000
  0.078145  0.011146  0.000000      4.000000
  0.087913  0.011146  0.000000      4.000000
  0.097681  0.011146  0.000000      4.000000
  0.107449  0.011146  0.000000      4.000000
  0.117217  0.011146  0.000000      2.000000
  0.000000  0.022293  0.000000      2.000000
  0.009768  0.022293  0.000000      4.000000
  0.019536  0.022293  0.000000      4.000000
  0.029304  0.022293  0.000000      4.000000
  0.039072  0.022293  0.000000      4.000000
  0.048840  0.022293  0.000000      4.000000
  0.058608  0.022293  0.000000      4.000000
  0.068377  0.022293  0.000000      4.000000
  0.078145  0.022293  0.000000      4.000000
  0.087913  0.022293  0.000000      4.000000
  0.097681  0.022293  0.000000      4.000000
  0.107449  0.022293  0.000000      4.000000
  0.117217  0.022293  0.000000      2.000000
  0.000000  0.033439  0.000000      2.000000
  0.009768  0.033439  0.000000      4.000000
  0.019536  0.033439  0.000000      4.000000
  0.029304  0.033439  0.000000      4.000000
  0.039072  0.033439  0.000000      4.000000
  0.048840  0.033439  0.000000      4.000000
  0.058608  0.033439  0.000000      4.000000
  0.068377  0.033439  0.000000      4.000000
  0.078145  0.033439  0.000000      4.000000
  0.087913  0.033439  0.000000      4.000000
  0.097681  0.033439  0.000000      4.000000
  0.107449  0.033439  0.000000      4.000000
  0.117217  0.033439  0.000000      2.000000
  0.000000  0.044585  0.000000      2.000000
  0.009768  0.044585  0.000000      4.000000
  0.019536  0.044585  0.000000      4.000000
  0.029304  0.044585  0.000000      4.000000
  0.039072  0.044585  0.000000      4.000000
  0.048840  0.044585  0.000000      4.000000
  0.058608  0.044585  0.000000      4.000000
  0.068377  0.044585  0.000000      4.000000
[...]
  0.107449  0.189488  0.000000      4.000000
  0.117217  0.189488  0.000000      2.000000
  0.000000  0.200634  0.000000      1.000000
  0.009768  0.200634  0.000000      2.000000
  0.019536  0.200634  0.000000      2.000000
  0.029304  0.200634  0.000000      2.000000
  0.039072  0.200634  0.000000      2.000000
  0.048840  0.200634  0.000000      2.000000
  0.058608  0.200634  0.000000      2.000000
  0.068377  0.200634  0.000000      2.000000
  0.078145  0.200634  0.000000      2.000000
  0.087913  0.200634  0.000000      2.000000
  0.097681  0.200634  0.000000      2.000000
  0.107449  0.200634  0.000000      2.000000
  0.117217  0.200634  0.000000      1.000000

 I would recommend the setting:
   dimension x,y,z NGX =    62 NGY =   36 NGZ =  289
[...]
 k-point ** :   0.4583 0.2500 0.0000  plane waves:   42769
 k-point ** :   0.5000 0.2500 0.0000  plane waves:   42772
 k-point ** :   0.0000 0.2778 0.0000  plane waves:   42910
 k-point ** :   0.0417 0.2778 0.0000  plane waves:   42914
 k-point ** :   0.0833 0.2778 0.0000  plane waves:   42902
 k-point ** :   0.1250 0.2778 0.0000  plane waves:   42896
 k-point ** :   0.1667 0.2778 0.0000  plane waves:   42869
 k-point ** :   0.2083 0.2778 0.0000  plane waves:   42845
 k-point ** :   0.2500 0.2778 0.0000  plane waves:   42822
 k-point ** :   0.2917 0.2778 0.0000  plane waves:   42809
 k-point ** :   0.3333 0.2778 0.0000  plane waves:   42794
 k-point ** :   0.3750 0.2778 0.0000  plane waves:   42794
 k-point ** :   0.4167 0.2778 0.0000  plane waves:   42779
 k-point ** :   0.4583 0.2778 0.0000  plane waves:   42771
 k-point ** :   0.5000 0.2778 0.0000  plane waves:   42774
 k-point ** :   0.0000 0.3056 0.0000  plane waves:   42896
 k-point ** :   0.0417 0.3056 0.0000  plane waves:   42918
 k-point ** :   0.0833 0.3056 0.0000  plane waves:   42915
 k-point ** :   0.1250 0.3056 0.0000  plane waves:   42910
 k-point ** :   0.1667 0.3056 0.0000  plane waves:   42887
 k-point ** :   0.2083 0.3056 0.0000  plane waves:   42862
 k-point ** :   0.2500 0.3056 0.0000  plane waves:   42863
 k-point ** :   0.2917 0.3056 0.0000  plane waves:   42818
 k-point ** :   0.3333 0.3056 0.0000  plane waves:   42791
 k-point ** :   0.3750 0.3056 0.0000  plane waves:   42798
 k-point ** :   0.4167 0.3056 0.0000  plane waves:   42807
 k-point ** :   0.4583 0.3056 0.0000  plane waves:   42796
 k-point ** :   0.5000 0.3056 0.0000  plane waves:   42796
 k-point ** :   0.0000 0.3333 0.0000  plane waves:   42934
 k-point ** :   0.0417 0.3333 0.0000  plane waves:   42901
 k-point ** :   0.0833 0.3333 0.0000  plane waves:   42911
[...]
 k-point ** :   0.4583 0.4722 0.0000  plane waves:   42822
 k-point ** :   0.5000 0.4722 0.0000  plane waves:   42820
 k-point ** :   0.0000 0.5000 0.0000  plane waves:   42842
 k-point ** :   0.0417 0.5000 0.0000  plane waves:   42878
 k-point ** :   0.0833 0.5000 0.0000  plane waves:   42912
 k-point ** :   0.1250 0.5000 0.0000  plane waves:   42924
 k-point ** :   0.1667 0.5000 0.0000  plane waves:   42914
 k-point ** :   0.2083 0.5000 0.0000  plane waves:   42914
 k-point ** :   0.2500 0.5000 0.0000  plane waves:   42912
 k-point ** :   0.2917 0.5000 0.0000  plane waves:   42920
 k-point ** :   0.3333 0.5000 0.0000  plane waves:   42856
 k-point ** :   0.3750 0.5000 0.0000  plane waves:   42848
 k-point ** :   0.4167 0.5000 0.0000  plane waves:   42838
 k-point ** :   0.4583 0.5000 0.0000  plane waves:   42814
 k-point ** :   0.5000 0.5000 0.0000  plane waves:   42816

 maximum and minimum number of plane-waves per node :     21519    21334

 maximum number of plane-waves:     42936
 maximum index in each direction:
   IXMAX=   15   IYMAX=    9   IZMAX=   72
   IXMIN=  -16   IYMIN=   -9   IZMIN=  -72

 NGX is ok and might be reduce to  64
 WARNING: aliasing errors must be expected set NGY to  38 to avoid them
 NGZ is ok and might be reduce to 290
 aliasing errors are usually negligible using standard VASP settings
 and one can safely disregard these warnings

 parallel 3D FFT for wavefunctions:
    minimum data exchange during FFTs selected (reduces bandwidth)
 parallel 3D FFT for charge:
    minimum data exchange during FFTs selected (reduces bandwidth)

 Broyden mixing: mesh for mixing (old mesh)
   NGX = 31   NGY = 19   NGZ =145
  (NGX  =128   NGY  = 72   NGZ  =588)
  gives a total of  85405 points

 initial charge density was supplied:
 charge density of overlapping atoms calculated
 number of electron      16.0000000 magnetization
 keeping initial charge density in first step

 Maximum index for augmentation-charges         4665 (set IRDMAX)

 First call to EWALD:  gamma=   0.298
 Maximum number of real-space cells 4x 6x 1
 Maximum number of reciprocal cells 2x 1x 8

 FEWALD executed in parallel

----------------------------------------- Iteration    1(   1)  ---------------------------------------

 eigenvalue-minimisations  :  5928
 total energy-change (2. order) : 0.1896952E+03  (-0.1062193E+04)
 number of electron      16.0000000 magnetization
 augmentation part       16.0000000 magnetization

 Free energy of the ion-electron system (eV)
  alpha Z        PSCENC =         6.18334092
  Ewald energy   TEWEN  =      2530.70775746
  -Hartree energ DENC   =     -2957.76788263
  -exchange      EXHF   =         0.00000000
  -V(xc)+E(xc)   XCENC  =        54.98405271
  PAW double counting   =       151.32577238     -155.92769107
  entropy T*S    EENTRO =        -0.00120995
  eigenvalues    EBANDS =       -28.43241710
  atomic energy  EATOM  =       588.62352690
  free energy    TOTEN  =       189.69524963 eV

  energy without entropy =      189.69645958  energy(sigma->0) =      189.69585461

[...]

 eigenvalue-minimisations  : 10508
 total energy-change (2. order) :-0.1989595E+03  (-0.1773750E+03)
 number of electron      16.0000000 magnetization
 augmentation part       16.0000000 magnetization

[...]

 Broyden mixing:
  rms(total) = 0.72547E+00    rms(broyden)= 0.72547E+00
  rms(prec ) = 0.78949E+00
  weight for this iteration     100.00

[...]

 eigenvalues of (default mixing * dielectric matrix)
  average eigenvalue GAMMA=   2.3112
  2.3112

[...]

WARNING in EDDRMM: call to ZHEGV failed, returncode =   6  3  1
WARNING in EDDRMM: call to ZHEGV failed, returncode =   6  3  1
WARNING in EDDRMM: call to ZHEGV failed, returncode =   6  3  1

[...]

 average (electrostatic) potential at core
  the test charge radii are     0.6991
  (the norm of the test charge is              1.0000)
       1 -58.2398       2 -58.2398       3 -58.2398       4 -58.2398

 E-fermi :  -2.7827     XC(G=0):  -2.1594     alpha+bet : -1.9046

 k-point     1 :       0.0000    0.0000    0.0000
  band No.  band energies     occupation
      1     -22.1841      2.00000
      2     -16.8918      2.00000
      3     -15.9281      2.00000
      4     -10.3052      2.00000
      5      -9.2931      2.00000
      6      -5.8756      2.00000
      7      -5.7635      2.00000
      8      -5.0265      2.00000
      9      -1.0994      0.00000
     10       0.5320      0.00000
     11       1.3313      0.00000
     12       1.7127      0.00000

[...]

 soft charge-density along one line, spin component           1
         0         1         2         3         4         5         6         7         8         9
 total charge-density along one line

------------------------ aborting loop because EDIFF is reached ----------------------------------------

  FORCE on cell =-STRESS in cart. coord.  units (eV):
  Direction    XX          YY          ZZ          XY          YZ          ZX
  Alpha Z     6.18334     6.18334     6.18334
  Ewald    3066.60848  3065.36059 -3601.26155    -0.00000     0.00000    -0.00000
  Hartree  3002.16111  3001.73927 -2979.10780    -0.00000    -0.00000    -0.00000
  E(xc)     -58.19779   -58.18569   -60.52363     0.00000    -0.00000    -0.00000
  Local   -6241.44472 -6239.99933  6374.57818    -0.00000    -0.00000    -0.00000
  n-local   -13.90217   -13.56440   -12.65210     0.06959    -0.00000     0.00000
  augment    -1.51706    -1.51569    -1.39717    -0.00000     0.00000     0.00000
  Kinetic   240.10878   237.77155   274.17940    -4.61923     0.00000    -0.00000
  Fock        0.00000     0.00000     0.00000     0.00000     0.00000     0.00000
  Total      -0.00003    -2.21036    -0.00134     0.00000     0.00000     0.00000
  in kB      -0.00024   -16.79677    -0.01019     0.00000     0.00000     0.00000

 VOLUME and BASIS-vectors are now :
  energy-cutoff  :     2000.00
  volume of cell :      210.84
      direct lattice vectors                 reciprocal lattice vectors
     4.265593054  0.000000000  0.000000000     0.234433990  0.000000000  0.000000000
     0.000000000  2.492096862  0.000000000     0.000000000  0.401268512  0.000000000
     0.000000000  0.000000000 19.833727675     0.000000000  0.000000000  0.050419166

[...]

 FORCES acting on ions
    electron-ion (+dipol)            ewald-force                    non-local-force                 convergence-correction
   -.218E+01 0.115E-15 0.520E-09   0.218E+01 0.736E-14 -.557E-18   -.115E-02 0.139E-16 -.414E-24   0.799E-06 0.179E-14 0.195E-12
   0.218E+01 0.181E-12 -.398E-08   -.218E+01 -.753E-14 -.880E-34   0.115E-02 -.173E-16 0.827E-24   -.799E-06 -.871E-15 0.196E-12
   -.218E+01 -.156E-12 0.520E-09   0.218E+01 0.729E-14 0.557E-18   -.115E-02 0.694E-17 -.414E-24   0.799E-06 0.151E-14 0.196E-12
   0.218E+01 0.188E-15 -.399E-08   -.218E+01 -.760E-14 0.963E-34   0.115E-02 -.347E-17 0.827E-24   -.799E-06 -.571E-15 0.196E-12
   -.245E-06 0.255E-13 -.693E-08   0.888E-15 -.478E-15 0.000E+00   0.000E+00 0.000E+00 0.827E-24   -.799E-12 0.186E-14 0.782E-12

 POSITION                                       TOTAL-FORCE (eV/Angst)
      0.00112      0.00000      0.00000         0.000008     -0.000000      0.000000
      0.70981      1.24605      0.00000        -0.000008      0.000000     -0.000000
      2.13392      1.24605      0.00000         0.000008      0.000000      0.000000
      2.84261      0.00000      0.00000        -0.000008     -0.000000     -0.000000
    total drift:                               -0.000000      0.000000     -0.000000

  FREE ENERGIE OF THE ION-ELECTRON SYSTEM (eV)
  free  energy   TOTEN  =       -36.91438224 eV

  energy  without entropy=      -36.91435378  energy(sigma->0) =      -36.91436801

 Quasi-Newton relaxation of ions (Broydens 2nd method)
  g(Force)  = 0.133E-10   g(Stress)= 0.000E+00

 Reset! Starting new Quasi-Newton update for ions

[...]

 eigenvalue-minimisations  :  6632
 total energy-change (2. order) :-0.4479261E-10  ( 0.3872591E-09)
 number of electron      16.0000000 magnetization
 augmentation part        0.3781086 magnetization

[...]

 d Force =-0.1938967E-10[-0.521E-10, 0.133E-10]  d Energy = 0.6790515E-09-0.698E-09
 d Force = 0.3494566E-05[ 0.349E-05, 0.349E-05]  d Ewald  = 0.3494567E-05-0.455E-12

[...]

 retain information from N=  1 steps
 eigenvalues of (default step * inverse Hessian matrix)
  average eigenvalue of G=   0.2032
 eigenvalue spectrum of G is  0.2032

 FEWALD executed in parallel

[...]

 eigenvalue-minimisations  :  6268
 total energy-change (2. order) : 0.6307346E-09  ( 0.4570949E-09)
 number of electron      16.0000000 magnetization
 augmentation part        0.3781086 magnetization

[...]

 eigenvalue-minimisations  :  3268
 total energy-change (2. order) :-0.6813252E-09  ( 0.1695395E-13)
 number of electron      16.0000000 magnetization
 augmentation part        0.3781086 magnetization

[...]

 eigenvalue-minimisations  :  1328
 total energy-change (2. order) : 0.1936087E-09  (-0.9634885E-13)
 number of electron      16.0000000 magnetization
 augmentation part        0.3781086 magnetization

 Broyden mixing:
  rms(total) = 0.50657E-07    rms(broyden)= 0.50657E-07
  rms(prec ) = 0.54596E-07
  weight for this iteration     100.00

 eigenvalues of (default mixing * dielectric matrix)
  average eigenvalue GAMMA=   1.0517
  2.5775  2.0987  1.9062  0.8712  0.8068  0.8068  0.4018  0.4018  0.3746  0.2718

[...]

----------------------------------------- Iteration    3(  12)  ---------------------------------------

 eigenvalue-minimisations  :  1248
 total energy-change (2. order) :-0.7958079E-12  (-0.8551390E-13)
 number of electron      16.0000000 magnetization
 augmentation part        0.3781086 magnetization

 Free energy of the ion-electron system (eV)
  alpha Z        PSCENC =         6.18334092
  Ewald energy   TEWEN  =      2530.70775675
  -Hartree energ DENC   =     -3024.79258453
  -exchange      EXHF   =         0.00000000
  -V(xc)+E(xc)   XCENC  =        57.36841336
  PAW double counting   =       273.70233184     -278.83584381
  entropy T*S    EENTRO =        -0.00002846
  eigenvalues    EBANDS =      -189.87129523
  atomic energy  EATOM  =       588.62352690
  free energy    TOTEN  =       -36.91438224 eV

  energy without entropy =      -36.91435378  energy(sigma->0) =      -36.91436801

 average (electrostatic) potential at core
  the test charge radii are     0.6991
  (the norm of the test charge is              1.0000)
       1 -58.2398       2 -58.2398       3 -58.2398       4 -58.2398

 E-fermi :  -2.7827     XC(G=0):  -2.1562     alpha+bet : -1.9046

[...]

 k-point   247 :       0.5000    0.5000    0.0000
  band No.  band energies     occupation
      1     -17.0634      2.00000
      2     -17.0634      2.00000
      3     -15.9214      2.00000
      4     -15.9214      2.00000
      5      -9.0816      2.00000
      6      -9.0816      2.00000
      7      -5.1593      2.00000
      8      -5.1593      2.00000
      9      -1.1161      0.00000
     10      -1.1161      0.00000
     11       4.6030      0.00000
     12       4.6030      0.00000

 soft charge-density along one line, spin component           1
         0         1         2         3         4         5         6         7         8         9
 total charge-density along one line

------------------------ aborting loop because EDIFF is reached ----------------------------------------

  FORCE on cell =-STRESS in cart. coord.  units (eV):
  Direction    XX          YY          ZZ          XY          YZ          ZX
  Alpha Z     6.18334     6.18334     6.18334
  Ewald    3066.60840  3065.36066 -3601.26155    -0.00000     0.00000    -0.00000
  Hartree  3002.16111  3001.73928 -2979.10781    -0.00000    -0.00000    -0.00000
  E(xc)     -58.19779   -58.18569   -60.52363     0.00000    -0.00000     0.00000
  Local   -6241.44466 -6239.99941  6374.57819     0.00000    -0.00000    -0.00000
  n-local   -13.90217   -13.56440   -12.65210     0.06959    -0.00000    -0.00000
  augment    -1.51706    -1.51570    -1.39718     0.00000     0.00000     0.00000
  Kinetic   240.10879   237.77154   274.17941    -4.61923     0.00000     0.00000
  Fock        0.00000     0.00000     0.00000     0.00000     0.00000     0.00000
  Total      -0.00003    -2.21036    -0.00133     0.00000     0.00000     0.00000
  in kB      -0.00024   -16.79674    -0.01013     0.00000     0.00000     0.00000

 VOLUME and BASIS-vectors are now :
  energy-cutoff  :     2000.00
  volume of cell :      210.84
      direct lattice vectors                 reciprocal lattice vectors
     4.265593054  0.000000000  0.000000000     0.234433990  0.000000000  0.000000000
     0.000000000  2.492096862  0.000000000     0.000000000  0.401268512  0.000000000
     0.000000000  0.000000000 19.833727675     0.000000000  0.000000000  0.050419166

  length of vectors
     4.265593054  2.492096862 19.833727675     0.234433990  0.401268512  0.050419166

 FORCES acting on ions
    electron-ion (+dipol)            ewald-force                    non-local-force                 convergence-correction
   -.218E+01 0.105E-15 0.520E-09   0.218E+01 -.135E-14 -.109E-18   -.115E-02 -.347E-17 0.775E-25   -.740E-06 0.747E-15 -.124E-11
   0.218E+01 -.188E-12 -.399E-08   -.218E+01 0.695E-15 0.500E-19   0.115E-02 0.000E+00 -.775E-25   0.740E-06 -.710E-15 -.124E-11
   -.218E+01 0.697E-12 0.514E-09   0.218E+01 -.934E-15 0.123E-18   -.115E-02 -.347E-17 0.517E-25   -.740E-06 0.480E-15 -.125E-11
   0.218E+01 0.341E-15 -.398E-08   -.218E+01 0.112E-14 -.635E-19   0.115E-02 0.000E+00 -.517E-25   0.740E-06 -.418E-15 -.126E-11
   -.245E-06 0.509E-12 -.693E-08   0.888E-15 -.478E-15 0.000E+00   0.434E-18 -.694E-17 0.000E+00   0.658E-12 0.984E-16 -.498E-11

 POSITION                                       TOTAL-FORCE (eV/Angst)
      0.00112     -0.00000      0.00000        -0.000000      0.000000     -0.000000
      0.70981      1.24605     -0.00000         0.000000      0.000000      0.000000
      2.13392      1.24605      0.00000        -0.000000      0.000000     -0.000000
      2.84261     -0.00000     -0.00000         0.000000     -0.000000      0.000000
    total drift:                               -0.000000      0.000000     -0.000000

  FREE ENERGIE OF THE ION-ELECTRON SYSTEM (eV)
  free  energy   TOTEN  =       -36.91438224 eV

  energy  without entropy=      -36.91435378  energy(sigma->0) =      -36.91436801

 d Force = 0.2096729E-10[ 0.459E-12, 0.415E-10]  d Energy =-0.1507487E-09 0.172E-09
 d Force =-0.2784567E-05[-0.278E-05,-0.278E-05]  d Ewald  =-0.2784567E-05 0.455E-12

 Quasi-Newton relaxation of ions (Broydens 2nd method)
  g(Force)  = 0.250E-13   g(Stress)= 0.000E+00

 retain information from N=  1 steps
 eigenvalues of (default step * inverse Hessian matrix)
  average eigenvalue of G=   0.2054
 eigenvalue spectrum of G is  0.2054

 reached required accuracy - stopping structural energy minimisation