 vasp.5.3.5 31Mar14 (build Mar 02 2015 18:14:16) complex

 executed on             LinuxIFC date 2018.08.10  15:18:31

 INCAR:
 POTCAR:   PAW_PBE C 08Apr2002
 POTCAR:   PAW_PBE C 08Apr2002
   VRHFIN =C: s2p2

   TITEL  = PAW_PBE C 08Apr2002
   POMASS =   12.011; ZVAL   =    4.000    mass and valenz
   ENMAX  =  400.000; ENMIN  =  300.000 eV
   QCUT   =   -5.516; QGAM   =   11.032    optimization parameters

   Description
     l     E      TYP  RCUT    TYP  RCUT
     0   .000     23  1.200
     0   .000     23  1.200
     1   .000     23  1.500
     1  2.500     23  1.500
     2   .000      7  1.500

 PAW_PBE C 08Apr2002                    :

 POSCAR: MD-kMC export data
  positions in direct lattice
  velocities in cartesian coordinates
 exchange correlation table for  LEXCH =        8
   RHO(1)=    0.500       N(1)  =     2000
   RHO(2)=  100.500       N(2)  =     4000

 ion  position               nearest neighbor table
   1  0.000  0.000  0.000-   2 1.42   2 1.42   4 1.43
   2  0.167  0.500  0.000-   1 1.42   1 1.42   3 1.43
   3  0.500  0.500  0.000-   4 1.42   4 1.42   2 1.43
   4  0.667  0.000  0.000-   3 1.42   3 1.42   1 1.43

  LATTYP: Found a simple orthorhombic cell.
 ALAT       =     2.4679161205
 B/A-ratio  =     1.7316263510
 C/A-ratio  =     8.1003412334

  Lattice vectors:

 A1 = (   0.0000000000,  -2.4679161205,   0.0000000000)
 A2 = (  -4.2735085863,   0.0000000000,   0.0000000000)
 A3 = (   0.0000000000,   0.0000000000, -19.9909627112)

Analysis of symmetry for initial positions (statically):
 Subroutine PRICEL returns following result:

  LATTYP: Found a base centered orthorhombic cell.
 ALAT       =     2.4679161205
 B/A-ratio  =     1.7316263510
 C/A-ratio  =     8.1003412334

[...]

   2 primitive cells build up your supercell.

 Routine SETGRP: Setting up the symmetry group for a
 simple orthorhombic supercell.

 Subroutine GETGRP returns: Found  8 space group operations
 (whereof  4 operations were pure point group operations)
 out of a pool of  8 trial point group operations.

The static configuration has the point symmetry C_2v.
 The point group associated with its full space group is D_2h.

Analysis of symmetry for dynamics (positions and initial velocities):
 Subroutine PRICEL returns following result:

  LATTYP: Found a base centered orthorhombic cell.
 ALAT       =     2.4679161205
 B/A-ratio  =     1.7316263510
 C/A-ratio  =     8.1003412334

  Lattice vectors:

 A1 = (   2.1367542932,  -1.2339580602,   0.0000000000)
 A2 = (  -2.1367542932,  -1.2339580602,   0.0000000000)
 A3 = (   0.0000000000,   0.0000000000, -19.9909627112)

   2 primitive cells build up your supercell.

 Routine SETGRP: Setting up the symmetry group for a
 simple orthorhombic supercell.

 Subroutine GETGRP returns: Found  8 space group operations
 (whereof  4 operations were pure point group operations)
 out of a pool of  8 trial point group operations.

The dynamic configuration has the point symmetry C_2v.
 The point group associated with its full space group is D_2h.

 KPOINTS: Automatic mesh

Automatic generation of k-mesh.
Space group operators:
 irot       det(A)        alpha          n_x          n_y          n_z        tau_x        tau_y        tau_z
    1     1.000000     0.000000     1.000000     0.000000     0.000000     0.000000     0.000000     0.000000
    2    -1.000000   180.000000     0.000000     0.000000     1.000000     0.000000     0.000000     0.000000
    3     1.000000   179.999999     1.000000     0.000000     0.000000     0.000000     0.000000     0.000000
    4    -1.000000   180.000000     0.000000     1.000000     0.000000     0.000000     0.000000     0.000000
    5    -1.000000     0.000000     1.000000     0.000000     0.000000     0.166667    -0.500000     0.000000
    6     1.000000   180.000000     0.000000     0.000000     1.000000     0.166667    -0.500000     0.000000
    7    -1.000000   179.999999     1.000000     0.000000     0.000000     0.166667    -0.500000     0.000000
    8     1.000000   180.000000     0.000000     1.000000     0.000000     0.166667    -0.500000     0.000000

 Subroutine IBZKPT returns following result:

 Found    247 irreducible k-points:

 Following reciprocal coordinates:
            Coordinates               Weight
  0.000000  0.000000  0.000000      1.000000
  0.041667  0.000000  0.000000      2.000000
  0.083333  0.000000  0.000000      2.000000
  0.125000  0.000000  0.000000      2.000000
  0.166667  0.000000  0.000000      2.000000
  0.208333  0.000000  0.000000      2.000000
  0.250000  0.000000  0.000000      2.000000
  0.291667  0.000000  0.000000      2.000000
  0.333333  0.000000  0.000000      2.000000
  0.375000  0.000000  0.000000      2.000000
  0.416667  0.000000  0.000000      2.000000
  0.458333  0.000000  0.000000      2.000000
  0.500000  0.000000  0.000000      1.000000
  0.000000  0.027778  0.000000      2.000000
  0.041667  0.027778  0.000000      4.000000
  0.083333  0.027778  0.000000      4.000000
  0.125000  0.027778  0.000000      4.000000
  0.166667  0.027778  0.000000      4.000000
  0.208333  0.027778  0.000000      4.000000
  0.250000  0.027778  0.000000      4.000000
  0.291667  0.027778  0.000000      4.000000
  0.333333  0.027778  0.000000      4.000000
  0.375000  0.027778  0.000000      4.000000
  0.416667  0.027778  0.000000      4.000000
  0.458333  0.027778  0.000000      4.000000
  0.500000  0.027778  0.000000      2.000000
  0.000000  0.055556  0.000000      2.000000
  0.041667  0.055556  0.000000      4.000000
  0.083333  0.055556  0.000000      4.000000
  0.125000  0.055556  0.000000      4.000000
  0.166667  0.055556  0.000000      4.000000
  0.208333  0.055556  0.000000      4.000000
  0.250000  0.055556  0.000000      4.000000
  0.291667  0.055556  0.000000      4.000000
  0.333333  0.055556  0.000000      4.000000
  0.375000  0.055556  0.000000      4.000000
  0.416667  0.055556  0.000000      4.000000
  0.458333  0.055556  0.000000      4.000000
  0.500000  0.055556  0.000000      2.000000
  0.000000  0.083333  0.000000      2.000000
  0.041667  0.083333  0.000000      4.000000
  0.083333  0.083333  0.000000      4.000000
  0.125000  0.083333  0.000000      4.000000
  0.166667  0.083333  0.000000      4.000000
  0.208333  0.083333  0.000000      4.000000
  0.250000  0.083333  0.000000      4.000000
  0.291667  0.083333  0.000000      4.000000
  0.333333  0.083333  0.000000      4.000000
  0.375000  0.083333  0.000000      4.000000
  0.416667  0.083333  0.000000      4.000000
  0.458333  0.083333  0.000000      4.000000
  0.500000  0.083333  0.000000      2.000000
  0.000000  0.111111  0.000000      2.000000
  0.041667  0.111111  0.000000      4.000000
  0.083333  0.111111  0.000000      4.000000
  0.125000  0.111111  0.000000      4.000000
  0.166667  0.111111  0.000000      4.000000
  0.208333  0.111111  0.000000      4.000000
  0.250000  0.111111  0.000000      4.000000
  0.291667  0.111111  0.000000      4.000000
[...]
  0.458333  0.472222  0.000000      4.000000
  0.500000  0.472222  0.000000      2.000000
  0.000000  0.500000  0.000000      1.000000
  0.041667  0.500000  0.000000      2.000000
  0.083333  0.500000  0.000000      2.000000
  0.125000  0.500000  0.000000      2.000000
  0.166667  0.500000  0.000000      2.000000
  0.208333  0.500000  0.000000      2.000000
  0.250000  0.500000  0.000000      2.000000
  0.291667  0.500000  0.000000      2.000000
  0.333333  0.500000  0.000000      2.000000
  0.375000  0.500000  0.000000      2.000000
  0.416667  0.500000  0.000000      2.000000
  0.458333  0.500000  0.000000      2.000000
  0.500000  0.500000  0.000000      1.000000

 Following cartesian coordinates:
            Coordinates               Weight
  0.000000  0.000000  0.000000      1.000000
  0.009750  0.000000  0.000000      2.000000
  0.019500  0.000000  0.000000      2.000000
  0.029250  0.000000  0.000000      2.000000
  0.039000  0.000000  0.000000      2.000000
  0.048750  0.000000  0.000000      2.000000
  0.058500  0.000000  0.000000      2.000000
  0.068250  0.000000  0.000000      2.000000
  0.078000  0.000000  0.000000      2.000000
  0.087750  0.000000  0.000000      2.000000
  0.097500  0.000000  0.000000      2.000000
  0.107250  0.000000  0.000000      2.000000
  0.117000  0.000000  0.000000      1.000000
  0.000000  0.011256  0.000000      2.000000
  0.009750  0.011256  0.000000      4.000000
  0.019500  0.011256  0.000000      4.000000
  0.029250  0.011256  0.000000      4.000000
  0.039000  0.011256  0.000000      4.000000
  0.048750  0.011256  0.000000      4.000000
  0.058500  0.011256  0.000000      4.000000
  0.068250  0.011256  0.000000      4.000000
  0.078000  0.011256  0.000000      4.000000
  0.087750  0.011256  0.000000      4.000000
  0.097500  0.011256  0.000000      4.000000
  0.107250  0.011256  0.000000      4.000000
  0.117000  0.011256  0.000000      2.000000
  0.000000  0.022511  0.000000      2.000000
  0.009750  0.022511  0.000000      4.000000
  0.019500  0.022511  0.000000      4.000000
  0.029250  0.022511  0.000000      4.000000
  0.039000  0.022511  0.000000      4.000000
  0.048750  0.022511  0.000000      4.000000
  0.058500  0.022511  0.000000      4.000000
  0.068250  0.022511  0.000000      4.000000
  0.078000  0.022511  0.000000      4.000000
  0.087750  0.022511  0.000000      4.000000
  0.097500  0.022511  0.000000      4.000000
  0.107250  0.022511  0.000000      4.000000
  0.117000  0.022511  0.000000      2.000000
  0.000000  0.033767  0.000000      2.000000
  0.009750  0.033767  0.000000      4.000000
  0.019500  0.033767  0.000000      4.000000
  0.029250  0.033767  0.000000      4.000000
  0.039000  0.033767  0.000000      4.000000
  0.048750  0.033767  0.000000      4.000000
  0.058500  0.033767  0.000000      4.000000
  0.068250  0.033767  0.000000      4.000000
  0.078000  0.033767  0.000000      4.000000
  0.087750  0.033767  0.000000      4.000000
  0.097500  0.033767  0.000000      4.000000
  0.107250  0.033767  0.000000      4.000000
  0.117000  0.033767  0.000000      2.000000
  0.000000  0.045022  0.000000      2.000000
  0.009750  0.045022  0.000000      4.000000
  0.019500  0.045022  0.000000      4.000000
  0.029250  0.045022  0.000000      4.000000
  0.039000  0.045022  0.000000      4.000000
  0.048750  0.045022  0.000000      4.000000
  0.058500  0.045022  0.000000      4.000000
  0.068250  0.045022  0.000000      4.000000
[...]
  0.107250  0.191345  0.000000      4.000000
  0.117000  0.191345  0.000000      2.000000
  0.000000  0.202600  0.000000      1.000000
  0.009750  0.202600  0.000000      2.000000
  0.019500  0.202600  0.000000      2.000000
  0.029250  0.202600  0.000000      2.000000
  0.039000  0.202600  0.000000      2.000000
  0.048750  0.202600  0.000000      2.000000
  0.058500  0.202600  0.000000      2.000000
  0.068250  0.202600  0.000000      2.000000
  0.078000  0.202600  0.000000      2.000000
  0.087750  0.202600  0.000000      2.000000
  0.097500  0.202600  0.000000      2.000000
  0.107250  0.202600  0.000000      2.000000
  0.117000  0.202600  0.000000      1.000000

 I would recommend the setting:
   dimension x,y,z NGX =    62 NGY =   36 NGZ =  292
[...]
 k-point ** :   0.0417 0.3056 0.0000  plane waves:   42900
 k-point ** :   0.0833 0.3056 0.0000  plane waves:   42881
 k-point ** :   0.1250 0.3056 0.0000  plane waves:   42847
 k-point ** :   0.1667 0.3056 0.0000  plane waves:   42884
 k-point ** :   0.2083 0.3056 0.0000  plane waves:   42858
 k-point ** :   0.2500 0.3056 0.0000  plane waves:   42845
 k-point ** :   0.2917 0.3056 0.0000  plane waves:   42837
 k-point ** :   0.3333 0.3056 0.0000  plane waves:   42838
 k-point ** :   0.3750 0.3056 0.0000  plane waves:   42836
 k-point ** :   0.4167 0.3056 0.0000  plane waves:   42820
 k-point ** :   0.4583 0.3056 0.0000  plane waves:   42812
 k-point ** :   0.5000 0.3056 0.0000  plane waves:   42844
 k-point ** :   0.0000 0.3333 0.0000  plane waves:   42912
 k-point ** :   0.0417 0.3333 0.0000  plane waves:   42899
 k-point ** :   0.0833 0.3333 0.0000  plane waves:   42881
[...]
 k-point ** :   0.4583 0.4722 0.0000  plane waves:   42805
 k-point ** :   0.5000 0.4722 0.0000  plane waves:   42834
 k-point ** :   0.0000 0.5000 0.0000  plane waves:   42878
 k-point ** :   0.0417 0.5000 0.0000  plane waves:   42944
 k-point ** :   0.0833 0.5000 0.0000  plane waves:   42924
 k-point ** :   0.1250 0.5000 0.0000  plane waves:   42922
 k-point ** :   0.1667 0.5000 0.0000  plane waves:   42910
 k-point ** :   0.2083 0.5000 0.0000  plane waves:   42946
 k-point ** :   0.2500 0.5000 0.0000  plane waves:   42936
 k-point ** :   0.2917 0.5000 0.0000  plane waves:   42888
 k-point ** :   0.3333 0.5000 0.0000  plane waves:   42844
 k-point ** :   0.3750 0.5000 0.0000  plane waves:   42822
 k-point ** :   0.4167 0.5000 0.0000  plane waves:   42792
 k-point ** :   0.4583 0.5000 0.0000  plane waves:   42818
 k-point ** :   0.5000 0.5000 0.0000  plane waves:   42808

 maximum and minimum number of plane-waves per node :     21546    21220

 maximum number of plane-waves:     42948
 maximum index in each direction:
   IXMAX=   15   IYMAX=    8   IZMAX=   72
   IXMIN=  -16   IYMIN=   -9   IZMIN=  -72

 NGX is ok and might be reduce to  64
 NGY is ok and might be reduce to  36
 NGZ is ok and might be reduce to 290

 parallel 3D FFT for wavefunctions:
    minimum data exchange during FFTs selected (reduces bandwidth)
 parallel 3D FFT for charge:
    minimum data exchange during FFTs selected (reduces bandwidth)

 Broyden mixing: mesh for mixing (old mesh)
   NGX = 31   NGY = 17   NGZ =145
  (NGX  =128   NGY  = 72   NGZ  =588)
  gives a total of  76415 points

 initial charge density was supplied:
 charge density of overlapping atoms calculated
 number of electron      16.0000000 magnetization
 keeping initial charge density in first step

 Maximum index for augmentation-charges         4659 (set IRDMAX)

 First call to EWALD:  gamma=   0.298
 Maximum number of real-space cells 4x 6x 1
 Maximum number of reciprocal cells 2x 1x 8

 FEWALD executed in parallel

----------------------------------------- Iteration    1(   1)  ---------------------------------------

 eigenvalue-minimisations  :  5928
 total energy-change (2. order) : 0.1905623E+03  (-0.1059311E+04)
 number of electron      16.0000000 magnetization
 augmentation part       16.0000000 magnetization

 Free energy of the ion-electron system (eV)
  alpha Z        PSCENC =         6.18334092
  Ewald energy   TEWEN  =      2583.79948141
  -Hartree energ DENC   =     -3009.27156785
  -exchange      EXHF   =         0.00000000
  -V(xc)+E(xc)   XCENC  =        55.09148831
  PAW double counting   =       151.32577238     -155.92769107
  entropy T*S    EENTRO =        -0.00079380
  eigenvalues    EBANDS =       -29.26123346
  atomic energy  EATOM  =       588.62352690
  free energy    TOTEN  =       190.56232375 eV

  energy without entropy =      190.56311755  energy(sigma->0) =      190.56272065

[...]

 eigenvalue-minimisations  : 10452
 total energy-change (2. order) :-0.1998441E+03  (-0.1773764E+03)
 number of electron      16.0000000 magnetization
 augmentation part       16.0000000 magnetization

[...]

 Broyden mixing:
  rms(total) = 0.73557E+00    rms(broyden)= 0.73557E+00
  rms(prec ) = 0.79968E+00
  weight for this iteration     100.00

[...]

 eigenvalues of (default mixing * dielectric matrix)
  average eigenvalue GAMMA=   2.3169
  2.3169

[...]

WARNING in EDDRMM: call to ZHEGV failed, returncode =   6  3  1
WARNING in EDDRMM: call to ZHEGV failed, returncode =   6  3  1
WARNING in EDDRMM: call to ZHEGV failed, returncode =   6  3  1
WARNING in EDDRMM: call to ZHEGV failed, returncode =   6  3  1
WARNING in EDDRMM: call to ZHEGV failed, returncode =   6  3  1

[...]

 average (electrostatic) potential at core
  the test charge radii are     0.6991
  (the norm of the test charge is              1.0000)
       1 -58.1918       2 -58.1918       3 -58.1918       4 -58.1918

 E-fermi :  -2.7550     XC(G=0):  -2.1435     alpha+bet : -1.9046

 k-point     1 :       0.0000    0.0000    0.0000
  band No.  band energies     occupation
      1     -22.2506      2.00000
      2     -17.0215      2.00000
      3     -15.9620      2.00000
      4     -10.3566      2.00000
      5      -9.1684      2.00000
      6      -5.8047      2.00000
      7      -5.7700      2.00000
      8      -5.1164      2.00000
      9      -0.9366      0.00000
     10       0.4243      0.00000
     11       1.3249      0.00000
     12       1.7152      0.00000

[...]

 soft charge-density along one line, spin component           1
         0         1         2         3         4         5         6         7         8         9
 total charge-density along one line

------------------------ aborting loop because EDIFF is reached ----------------------------------------

  FORCE on cell =-STRESS in cart. coord.  units (eV):
  Direction    XX          YY          ZZ          XY          YZ          ZX
  Alpha Z     6.18334     6.18334     6.18334
  Ewald    3120.73325  3121.65299 -3658.58702     0.00000     0.00000    -0.00000
  Hartree  3055.02278  3055.14411 -3032.41462     0.00000    -0.00000    -0.00000
  E(xc)     -58.33479   -58.33095   -60.67163    -0.00000    -0.00000    -0.00000
  Local   -6348.30766 -6349.17253  6484.85956     0.00000     0.00000    -0.00000
  n-local   -13.94608   -13.93141   -12.76219     0.05731     0.00000    -0.00000
  augment    -1.53995    -1.54137    -1.41362    -0.00000     0.00000     0.00000
  Kinetic   240.14859   239.94983   274.80486    -4.60210    -0.00000     0.00000
  Fock        0.00000     0.00000     0.00000     0.00000     0.00000     0.00000
  Total      -0.04052    -0.04600    -0.00131     0.00000     0.00000     0.00000
  in kB      -0.30792    -0.34955    -0.00998     0.00000     0.00000     0.00000

 VOLUME and BASIS-vectors are now :
  energy-cutoff  :     2000.00
  volume of cell :      210.84
      direct lattice vectors                 reciprocal lattice vectors
     4.273508586  0.000000000  0.000000000     0.233999764  0.000000000  0.000000000
     0.000000000  2.467916120  0.000000000     0.000000000  0.405200157  0.000000000
     0.000000000  0.000000000 19.990962711     0.000000000  0.000000000  0.050022603

[...]

 FORCES acting on ions
    electron-ion (+dipol)            ewald-force                    non-local-force                 convergence-correction
   0.110E+00 0.382E-15 0.286E-09   -.146E+00 0.492E-14 0.414E-32   -.201E-01 0.000E+00 0.000E+00   -.158E-08 -.939E-15 0.194E-12
   -.110E+00 0.121E-13 -.454E-08   0.146E+00 -.228E-14 -.130E-18   0.201E-01 0.000E+00 0.207E-24   0.158E-08 -.110E-15 0.194E-12
   0.110E+00 0.588E-12 0.300E-09   -.146E+00 0.103E-14 -.414E-32   -.201E-01 0.000E+00 -.414E-24   -.158E-08 -.106E-14 0.194E-12
   -.110E+00 0.650E-16 -.454E-08   0.146E+00 -.617E-14 0.130E-18   0.201E-01 0.000E+00 0.310E-24   0.158E-08 0.263E-16 0.194E-12
   -.448E-06 0.601E-12 -.849E-08   0.527E-15 -.249E-14 0.241E-34   0.104E-16 0.000E+00 0.103E-24   -.336E-12 -.208E-14 0.775E-12

 POSITION                                       TOTAL-FORCE (eV/Angst)
      0.00056      0.00000      0.00000        -0.055462      0.000000      0.000000
      0.71169      1.23396      0.00000         0.055462     -0.000000      0.000000
      2.13732      1.23396      0.00000        -0.055462      0.000000      0.000000
      2.84844      0.00000      0.00000         0.055462     -0.000000      0.000000
    total drift:                               -0.000000      0.000000     -0.000000

  FREE ENERGIE OF THE ION-ELECTRON SYSTEM (eV)
  free  energy   TOTEN  =       -36.92541868 eV

  energy  without entropy=      -36.92528990  energy(sigma->0) =      -36.92535429

 Quasi-Newton relaxation of ions (Broydens 2nd method)
  g(Force)  = 0.594E-03   g(Stress)= 0.000E+00

 Reset! Starting new Quasi-Newton update for ions

[...]

 d Force =-0.9008886E-03[-0.240E-02, 0.594E-03]  d Energy =-0.8942216E-03-0.667E-05
 d Force =-0.3552308E-02[-0.866E-02, 0.156E-02]  d Ewald  =-0.3536943E-02-0.154E-04

[...]

 retain information from N=  1 steps
 eigenvalues of (default step * inverse Hessian matrix)
  average eigenvalue of G=   0.1986
 eigenvalue spectrum of G is  0.1986

[...]

 d Force = 0.9576442E-03[-0.437E-05, 0.192E-02]  d Energy = 0.9537113E-03 0.393E-05
 d Force = 0.3654280E-02[ 0.366E-03, 0.694E-02]  d Ewald  = 0.3646368E-02 0.791E-05

[...]

WARNING in EDDRMM: call to ZHEGV failed, returncode =   6  3  1
WARNING in EDDRMM: call to ZHEGV failed, returncode =   6  3  1

[...]

 d Force = 0.4932946E-08[-0.492E-10, 0.992E-08]  d Energy = 0.4791218E-08 0.142E-09
 d Force =-0.8484270E-06[-0.865E-06,-0.832E-06]  d Ewald  =-0.8484262E-06-0.909E-12

[...]

 eigenvalue-minimisations  :  4976
 total energy-change (2. order) : 0.7919425E-09  ( 0.5793569E-09)
 number of electron      16.0000000 magnetization
 augmentation part        0.3816823 magnetization

[...]

 eigenvalue-minimisations  :  1478
 total energy-change (2. order) :-0.9962378E-09  ( 0.4790818E-13)
 number of electron      16.0000000 magnetization
 augmentation part        0.3816823 magnetization

[...]

 d Force = 0.2873727E-13[-0.185E-12, 0.242E-12]  d Energy = 0.1338094E-09-0.134E-09
 d Force = 0.4268065E-08[ 0.427E-08, 0.427E-08]  d Ewald  = 0.4267804E-08 0.455E-12

[...]

 eigenvalue-minimisations  :  1123
 total energy-change (2. order) :-0.2137313E-10  (-0.7265793E-14)
 number of electron      16.0000000 magnetization
 augmentation part        0.3816823 magnetization

[...]

 d Force =-0.5989510E-14[-0.921E-13, 0.801E-13]  d Energy = 0.3979039E-10-0.398E-10
 d Force =-0.1847038E-08[-0.185E-08,-0.185E-08]  d Ewald  =-0.1846729E-08-0.455E-12

[...]

 FEWALD executed in parallel

[...]

 eigenvalue-minimisations  :  4636
 total energy-change (2. order) : 0.7364633E-09  ( 0.5801644E-09)
 number of electron      16.0000000 magnetization
 augmentation part        0.3816823 magnetization

[...]

 eigenvalue-minimisations  :   394
 total energy-change (2. order) :-0.3033165E-09  ( 0.1644775E-14)
 number of electron      16.0000000 magnetization
 augmentation part        0.3816823 magnetization

[...]

 Broyden mixing:
  rms(total) = 0.16098E-10    rms(broyden)= 0.15740E-10
  rms(prec ) = 0.35324E-10
  weight for this iteration     100.00

 eigenvalues of (default mixing * dielectric matrix)
  average eigenvalue GAMMA=   1.8447
  2.8188  2.5439  1.4305  0.5858

[...]

----------------------------------------- Iteration    7(   6)  ---------------------------------------

 eigenvalue-minimisations  :   427
 total energy-change (2. order) : 0.8640200E-10  (-0.1266477E-14)
 number of electron      16.0000000 magnetization
 augmentation part        0.3816823 magnetization

 Free energy of the ion-electron system (eV)
  alpha Z        PSCENC =         6.18334092
  Ewald energy   TEWEN  =      2583.79937283
  -Hartree energ DENC   =     -3077.75219151
  -exchange      EXHF   =         0.00000000
  -V(xc)+E(xc)   XCENC  =        57.51426743
  PAW double counting   =       276.89661307     -282.04464323
  entropy T*S    EENTRO =        -0.00013052
  eigenvalues    EBANDS =      -190.14563407
  atomic energy  EATOM  =       588.62352690
  free energy    TOTEN  =       -36.92547818 eV

  energy without entropy =      -36.92534766  energy(sigma->0) =      -36.92541292

 average (electrostatic) potential at core
  the test charge radii are     0.6991
  (the norm of the test charge is              1.0000)
       1 -58.1918       2 -58.1918       3 -58.1918       4 -58.1918

 E-fermi :  -2.7550     XC(G=0):  -2.1428     alpha+bet : -1.9046

[...]

 k-point   247 :       0.5000    0.5000    0.0000
  band No.  band energies     occupation
      1     -17.0209      2.00000
      2     -17.0209      2.00000
      3     -15.9709      2.00000
      4     -15.9709      2.00000
      5      -9.1567      2.00000
      6      -9.1567      2.00000
      7      -5.1116      2.00000
      8      -5.1116      2.00000
      9      -1.0769      0.00000
     10      -1.0769      0.00000
     11       4.6045      0.00000
     12       4.6045      0.00000

 soft charge-density along one line, spin component           1
         0         1         2         3         4         5         6         7         8         9
 total charge-density along one line

------------------------ aborting loop because EDIFF is reached ----------------------------------------

  FORCE on cell =-STRESS in cart. coord.  units (eV):
  Direction    XX          YY          ZZ          XY          YZ          ZX
  Alpha Z     6.18334     6.18334     6.18334
  Ewald    3121.20313  3121.18301 -3658.58702    -0.00000     0.00000     0.00000
  Hartree  3055.08742  3055.07936 -3032.41459    -0.00000    -0.00000    -0.00000
  E(xc)     -58.33300   -58.33273   -60.67162    -0.00000    -0.00000    -0.00000
  Local   -6348.75230 -6348.72781  6484.85957    -0.00000     0.00000     0.00000
  n-local   -13.94229   -13.93521   -12.76218     0.05669     0.00000    -0.00000
  augment    -1.54069    -1.54063    -1.41362    -0.00000    -0.00000     0.00000
  Kinetic   240.07444   240.02386   274.80481    -4.59976    -0.00000     0.00000
  Fock        0.00000     0.00000     0.00000     0.00000     0.00000     0.00000
  Total      -0.01995    -0.06680    -0.00131     0.00000     0.00000     0.00000
  in kB      -0.15160    -0.50764    -0.00999     0.00000     0.00000     0.00000

 VOLUME and BASIS-vectors are now :
  energy-cutoff  :     2000.00
  volume of cell :      210.84
      direct lattice vectors                 reciprocal lattice vectors
     4.273508586  0.000000000  0.000000000     0.233999764  0.000000000  0.000000000
     0.000000000  2.467916120  0.000000000     0.000000000  0.405200157  0.000000000
     0.000000000  0.000000000 19.990962711     0.000000000  0.000000000  0.050022603

  length of vectors
     4.273508586  2.467916120 19.990962711     0.233999764  0.405200157  0.050022603

 FORCES acting on ions
    electron-ion (+dipol)            ewald-force                    non-local-force                 convergence-correction
   -.443E-01 0.142E-15 0.146E-10   0.444E-01 -.309E-14 -.334E-18   -.119E-03 0.000E+00 -.162E-26   0.674E-10 -.500E-15 0.163E-11
   0.443E-01 0.146E-14 -.516E-08   -.444E-01 0.482E-14 -.305E-18   0.119E-03 0.000E+00 0.000E+00   -.674E-10 -.886E-15 0.163E-11
   -.443E-01 -.303E-12 0.120E-10   0.444E-01 -.607E-14 0.131E-17   -.119E-03 0.000E+00 -.162E-26   0.674E-10 -.362E-15 0.163E-11
   0.443E-01 0.137E-15 -.514E-08   -.444E-01 0.184E-14 -.671E-18   0.119E-03 0.000E+00 0.000E+00   -.674E-10 -.103E-14 0.163E-11
   -.471E-06 -.301E-12 -.103E-07   0.298E-15 -.249E-14 0.000E+00   -.813E-19 0.000E+00 -.323E-26   0.347E-14 -.278E-14 0.651E-11

 POSITION                                       TOTAL-FORCE (eV/Angst)
      0.00003     -0.00000      0.00000         0.000001     -0.000000     -0.000000
      0.71223      1.23396     -0.00000        -0.000001      0.000000      0.000000
      2.13678      1.23396      0.00000         0.000001     -0.000000     -0.000000
      2.84898      0.00000     -0.00000        -0.000001      0.000000      0.000000
    total drift:                               -0.000000     -0.000000     -0.000000

  FREE ENERGIE OF THE ION-ELECTRON SYSTEM (eV)
  free  energy   TOTEN  =       -36.92547818 eV

  energy  without entropy=      -36.92534766  energy(sigma->0) =      -36.92541292

 d Force = 0.3333856E-13[ 0.174E-13, 0.492E-13]  d Energy =-0.2549996E-09 0.255E-09
 d Force = 0.9878097E-09[ 0.988E-09, 0.988E-09]  d Ewald  = 0.9877112E-09 0.000E+00

 Quasi-Newton relaxation of ions (Broydens 2nd method)
  g(Force)  = 0.119E-12   g(Stress)= 0.000E+00

 retain information from N=  1 steps
 eigenvalues of (default step * inverse Hessian matrix)
  average eigenvalue of G=   0.0806
 eigenvalue spectrum of G is  0.0806

 reached required accuracy - stopping structural energy minimisation