 vasp.5.3.5 31Mar14 (build Mar 02 2015 18:14:16) complex

 executed on             LinuxIFC date 2018.08.08  18:44:24

 INCAR:
 POTCAR:   PAW_PBE C 08Apr2002
 POTCAR:   PAW_PBE C 08Apr2002
   VRHFIN =C: s2p2

   TITEL  = PAW_PBE C 08Apr2002
   POMASS =   12.011; ZVAL   =    4.000    mass and valenz
   ENMAX  =  400.000; ENMIN  =  300.000 eV
   QCUT   =   -5.516; QGAM   =   11.032    optimization parameters

   Description
     l     E      TYP  RCUT    TYP  RCUT
     0   .000     23  1.200
     0   .000     23  1.200
     1   .000     23  1.500
     1  2.500     23  1.500
     2   .000      7  1.500

 PAW_PBE C 08Apr2002                    :

 POSCAR: MD-kMC export data
  positions in direct lattice
  velocities in cartesian coordinates
 exchange correlation table for  LEXCH =        8
   RHO(1)=    0.500       N(1)  =     2000
   RHO(2)=  100.500       N(2)  =     4000

 ion  position               nearest neighbor table
   1  1.000  0.000  0.000-   2 1.43   2 1.43   4 1.45
   2  0.167  0.500  0.000-   1 1.43   1 1.43   3 1.45
   3  0.500  0.500  0.000-   4 1.43   4 1.43   2 1.45
   4  0.667  0.000  0.000-   3 1.43   3 1.43   1 1.45

  LATTYP: Found a simple orthorhombic cell.
 ALAT       =     2.4589439175
 B/A-ratio  =     1.7727756575
 C/A-ratio  =     7.9992456560

  Lattice vectors:

 A1 = (   0.0000000000,  -2.4589439175,   0.0000000000)
 A2 = (  -4.3591559202,   0.0000000000,   0.0000000000)
 A3 = (   0.0000000000,   0.0000000000, -19.6696964504)

Analysis of symmetry for initial positions (statically):
 Subroutine PRICEL returns following result:

  LATTYP: Found a base centered orthorhombic cell.
 ALAT       =     2.4589439175
 B/A-ratio  =     1.7727756575
 C/A-ratio  =     7.9992456560

[...]

   2 primitive cells build up your supercell.

 Routine SETGRP: Setting up the symmetry group for a
 simple orthorhombic supercell.

 Subroutine GETGRP returns: Found  8 space group operations
 (whereof  4 operations were pure point group operations)
 out of a pool of  8 trial point group operations.

The static configuration has the point symmetry C_2v.
 The point group associated with its full space group is D_2h.

Analysis of symmetry for dynamics (positions and initial velocities):
 Subroutine PRICEL returns following result:

  LATTYP: Found a base centered orthorhombic cell.
 ALAT       =     2.4589439175
 B/A-ratio  =     1.7727756575
 C/A-ratio  =     7.9992456560

  Lattice vectors:

 A1 = (   2.1795779601,  -1.2294719588,   0.0000000000)
 A2 = (  -2.1795779601,  -1.2294719588,   0.0000000000)
 A3 = (   0.0000000000,   0.0000000000, -19.6696964504)

   2 primitive cells build up your supercell.

 Routine SETGRP: Setting up the symmetry group for a
 simple orthorhombic supercell.

 Subroutine GETGRP returns: Found  8 space group operations
 (whereof  4 operations were pure point group operations)
 out of a pool of  8 trial point group operations.

The dynamic configuration has the point symmetry C_2v.
 The point group associated with its full space group is D_2h.

 KPOINTS: Automatic mesh

Automatic generation of k-mesh.
Space group operators:
 irot       det(A)        alpha          n_x          n_y          n_z        tau_x        tau_y        tau_z
    1     1.000000     0.000000     1.000000     0.000000     0.000000     0.000000     0.000000     0.000000
    2    -1.000000   180.000000     0.000000     0.000000     1.000000     0.000000     0.000000     0.000000
    3     1.000000   180.000000     1.000000     0.000000     0.000000     0.000000     0.000000     0.000000
    4    -1.000000   179.999999     0.000000     1.000000     0.000000     0.000000     0.000000     0.000000
    5    -1.000000     0.000000     1.000000     0.000000     0.000000     0.166667    -0.500000     0.000000
    6     1.000000   180.000000     0.000000     0.000000     1.000000     0.166667    -0.500000     0.000000
    7    -1.000000   180.000000     1.000000     0.000000     0.000000     0.166667    -0.500000     0.000000
    8     1.000000   179.999999     0.000000     1.000000     0.000000     0.166667    -0.500000     0.000000

 Subroutine IBZKPT returns following result:

 Found    247 irreducible k-points:

 Following reciprocal coordinates:
            Coordinates               Weight
  0.000000  0.000000  0.000000      1.000000
  0.041667  0.000000  0.000000      2.000000
  0.083333  0.000000  0.000000      2.000000
  0.125000  0.000000  0.000000      2.000000
  0.166667  0.000000  0.000000      2.000000
  0.208333  0.000000  0.000000      2.000000
  0.250000  0.000000  0.000000      2.000000
  0.291667  0.000000  0.000000      2.000000
  0.333333  0.000000  0.000000      2.000000
  0.375000  0.000000  0.000000      2.000000
  0.416667  0.000000  0.000000      2.000000
  0.458333  0.000000  0.000000      2.000000
  0.500000  0.000000  0.000000      1.000000
  0.000000  0.027778  0.000000      2.000000
  0.041667  0.027778  0.000000      4.000000
  0.083333  0.027778  0.000000      4.000000
  0.125000  0.027778  0.000000      4.000000
  0.166667  0.027778  0.000000      4.000000
  0.208333  0.027778  0.000000      4.000000
  0.250000  0.027778  0.000000      4.000000
  0.291667  0.027778  0.000000      4.000000
  0.333333  0.027778  0.000000      4.000000
  0.375000  0.027778  0.000000      4.000000
  0.416667  0.027778  0.000000      4.000000
  0.458333  0.027778  0.000000      4.000000
  0.500000  0.027778  0.000000      2.000000
  0.000000  0.055556  0.000000      2.000000
  0.041667  0.055556  0.000000      4.000000
  0.083333  0.055556  0.000000      4.000000
  0.125000  0.055556  0.000000      4.000000
  0.166667  0.055556  0.000000      4.000000
  0.208333  0.055556  0.000000      4.000000
  0.250000  0.055556  0.000000      4.000000
  0.291667  0.055556  0.000000      4.000000
  0.333333  0.055556  0.000000      4.000000
  0.375000  0.055556  0.000000      4.000000
  0.416667  0.055556  0.000000      4.000000
  0.458333  0.055556  0.000000      4.000000
  0.500000  0.055556  0.000000      2.000000
  0.000000  0.083333  0.000000      2.000000
  0.041667  0.083333  0.000000      4.000000
  0.083333  0.083333  0.000000      4.000000
  0.125000  0.083333  0.000000      4.000000
  0.166667  0.083333  0.000000      4.000000
  0.208333  0.083333  0.000000      4.000000
  0.250000  0.083333  0.000000      4.000000
  0.291667  0.083333  0.000000      4.000000
  0.333333  0.083333  0.000000      4.000000
  0.375000  0.083333  0.000000      4.000000
  0.416667  0.083333  0.000000      4.000000
  0.458333  0.083333  0.000000      4.000000
  0.500000  0.083333  0.000000      2.000000
  0.000000  0.111111  0.000000      2.000000
  0.041667  0.111111  0.000000      4.000000
  0.083333  0.111111  0.000000      4.000000
  0.125000  0.111111  0.000000      4.000000
  0.166667  0.111111  0.000000      4.000000
  0.208333  0.111111  0.000000      4.000000
  0.250000  0.111111  0.000000      4.000000
  0.291667  0.111111  0.000000      4.000000
[...]
  0.458333  0.472222  0.000000      4.000000
  0.500000  0.472222  0.000000      2.000000
  0.000000  0.500000  0.000000      1.000000
  0.041667  0.500000  0.000000      2.000000
  0.083333  0.500000  0.000000      2.000000
  0.125000  0.500000  0.000000      2.000000
  0.166667  0.500000  0.000000      2.000000
  0.208333  0.500000  0.000000      2.000000
  0.250000  0.500000  0.000000      2.000000
  0.291667  0.500000  0.000000      2.000000
  0.333333  0.500000  0.000000      2.000000
  0.375000  0.500000  0.000000      2.000000
  0.416667  0.500000  0.000000      2.000000
  0.458333  0.500000  0.000000      2.000000
  0.500000  0.500000  0.000000      1.000000

 Following cartesian coordinates:
            Coordinates               Weight
  0.000000  0.000000  0.000000      1.000000
  0.009558  0.000000  0.000000      2.000000
  0.019117  0.000000  0.000000      2.000000
  0.028675  0.000000  0.000000      2.000000
  0.038234  0.000000  0.000000      2.000000
  0.047792  0.000000  0.000000      2.000000
  0.057351  0.000000  0.000000      2.000000
  0.066909  0.000000  0.000000      2.000000
  0.076467  0.000000  0.000000      2.000000
  0.086026  0.000000  0.000000      2.000000
  0.095584  0.000000  0.000000      2.000000
  0.105143  0.000000  0.000000      2.000000
  0.114701  0.000000  0.000000      1.000000
  0.000000  0.011297  0.000000      2.000000
  0.009558  0.011297  0.000000      4.000000
  0.019117  0.011297  0.000000      4.000000
  0.028675  0.011297  0.000000      4.000000
  0.038234  0.011297  0.000000      4.000000
  0.047792  0.011297  0.000000      4.000000
  0.057351  0.011297  0.000000      4.000000
  0.066909  0.011297  0.000000      4.000000
  0.076467  0.011297  0.000000      4.000000
  0.086026  0.011297  0.000000      4.000000
  0.095584  0.011297  0.000000      4.000000
  0.105143  0.011297  0.000000      4.000000
  0.114701  0.011297  0.000000      2.000000
  0.000000  0.022593  0.000000      2.000000
  0.009558  0.022593  0.000000      4.000000
  0.019117  0.022593  0.000000      4.000000
  0.028675  0.022593  0.000000      4.000000
  0.038234  0.022593  0.000000      4.000000
  0.047792  0.022593  0.000000      4.000000
  0.057351  0.022593  0.000000      4.000000
  0.066909  0.022593  0.000000      4.000000
  0.076467  0.022593  0.000000      4.000000
  0.086026  0.022593  0.000000      4.000000
  0.095584  0.022593  0.000000      4.000000
  0.105143  0.022593  0.000000      4.000000
  0.114701  0.022593  0.000000      2.000000
  0.000000  0.033890  0.000000      2.000000
  0.009558  0.033890  0.000000      4.000000
  0.019117  0.033890  0.000000      4.000000
  0.028675  0.033890  0.000000      4.000000
  0.038234  0.033890  0.000000      4.000000
  0.047792  0.033890  0.000000      4.000000
  0.057351  0.033890  0.000000      4.000000
  0.066909  0.033890  0.000000      4.000000
  0.076467  0.033890  0.000000      4.000000
  0.086026  0.033890  0.000000      4.000000
  0.095584  0.033890  0.000000      4.000000
  0.105143  0.033890  0.000000      4.000000
  0.114701  0.033890  0.000000      2.000000
  0.000000  0.045187  0.000000      2.000000
  0.009558  0.045187  0.000000      4.000000
  0.019117  0.045187  0.000000      4.000000
  0.028675  0.045187  0.000000      4.000000
  0.038234  0.045187  0.000000      4.000000
  0.047792  0.045187  0.000000      4.000000
  0.057351  0.045187  0.000000      4.000000
  0.066909  0.045187  0.000000      4.000000
[...]
  0.105143  0.192043  0.000000      4.000000
  0.114701  0.192043  0.000000      2.000000
  0.000000  0.203339  0.000000      1.000000
  0.009558  0.203339  0.000000      2.000000
  0.019117  0.203339  0.000000      2.000000
  0.028675  0.203339  0.000000      2.000000
  0.038234  0.203339  0.000000      2.000000
  0.047792  0.203339  0.000000      2.000000
  0.057351  0.203339  0.000000      2.000000
  0.066909  0.203339  0.000000      2.000000
  0.076467  0.203339  0.000000      2.000000
  0.086026  0.203339  0.000000      2.000000
  0.095584  0.203339  0.000000      2.000000
  0.105143  0.203339  0.000000      2.000000
  0.114701  0.203339  0.000000      1.000000

 I would recommend the setting:
   dimension x,y,z NGX =    64 NGY =   36 NGZ =  287
[...]
 k-point ** :   0.4167 0.2778 0.0000  plane waves:   42845
 k-point ** :   0.4583 0.2778 0.0000  plane waves:   42827
 k-point ** :   0.5000 0.2778 0.0000  plane waves:   42830
 k-point ** :   0.0000 0.3056 0.0000  plane waves:   42848
 k-point ** :   0.0417 0.3056 0.0000  plane waves:   42835
 k-point ** :   0.0833 0.3056 0.0000  plane waves:   42854
 k-point ** :   0.1250 0.3056 0.0000  plane waves:   42848
 k-point ** :   0.1667 0.3056 0.0000  plane waves:   42831
 k-point ** :   0.2083 0.3056 0.0000  plane waves:   42844
 k-point ** :   0.2500 0.3056 0.0000  plane waves:   42862
 k-point ** :   0.2917 0.3056 0.0000  plane waves:   42860
 k-point ** :   0.3333 0.3056 0.0000  plane waves:   42871
 k-point ** :   0.3750 0.3056 0.0000  plane waves:   42864
 k-point ** :   0.4167 0.3056 0.0000  plane waves:   42863
 k-point ** :   0.4583 0.3056 0.0000  plane waves:   42861
 k-point ** :   0.5000 0.3056 0.0000  plane waves:   42862
 k-point ** :   0.0000 0.3333 0.0000  plane waves:   42856
 k-point ** :   0.0417 0.3333 0.0000  plane waves:   42844
 k-point ** :   0.0833 0.3333 0.0000  plane waves:   42847
[...]
 k-point ** :   0.4583 0.4722 0.0000  plane waves:   42951
 k-point ** :   0.5000 0.4722 0.0000  plane waves:   42972
 k-point ** :   0.0000 0.5000 0.0000  plane waves:   42850
 k-point ** :   0.0417 0.5000 0.0000  plane waves:   42842
 k-point ** :   0.0833 0.5000 0.0000  plane waves:   42862
 k-point ** :   0.1250 0.5000 0.0000  plane waves:   42866
 k-point ** :   0.1667 0.5000 0.0000  plane waves:   42860
 k-point ** :   0.2083 0.5000 0.0000  plane waves:   42872
 k-point ** :   0.2500 0.5000 0.0000  plane waves:   42852
 k-point ** :   0.2917 0.5000 0.0000  plane waves:   42894
 k-point ** :   0.3333 0.5000 0.0000  plane waves:   42876
 k-point ** :   0.3750 0.5000 0.0000  plane waves:   42906
 k-point ** :   0.4167 0.5000 0.0000  plane waves:   42926
 k-point ** :   0.4583 0.5000 0.0000  plane waves:   42940
 k-point ** :   0.5000 0.5000 0.0000  plane waves:   42920

 maximum and minimum number of plane-waves per node :     21486    21297

 maximum number of plane-waves:     42972
 maximum index in each direction:
   IXMAX=   15   IYMAX=    8   IZMAX=   71
   IXMIN=  -16   IYMIN=   -9   IZMIN=  -71

 NGX is ok and might be reduce to  64
 NGY is ok and might be reduce to  36
 NGZ is ok and might be reduce to 286

 parallel 3D FFT for wavefunctions:
    minimum data exchange during FFTs selected (reduces bandwidth)
 parallel 3D FFT for charge:
    minimum data exchange during FFTs selected (reduces bandwidth)

 Broyden mixing: mesh for mixing (old mesh)
   NGX = 31   NGY = 17   NGZ =143
  (NGX  =128   NGY  = 72   NGZ  =576)
  gives a total of  75361 points

 initial charge density was supplied:
 charge density of overlapping atoms calculated
 number of electron      16.0000000 magnetization
 keeping initial charge density in first step

 Maximum index for augmentation-charges         4565 (set IRDMAX)

 First call to EWALD:  gamma=   0.298
 Maximum number of real-space cells 4x 6x 1
 Maximum number of reciprocal cells 2x 1x 8

 FEWALD executed in parallel

----------------------------------------- Iteration    1(   1)  ---------------------------------------

 eigenvalue-minimisations  :  5928
 total energy-change (2. order) : 0.1863907E+03  (-0.1066303E+04)
 number of electron      16.0000000 magnetization
 augmentation part       16.0000000 magnetization

 Free energy of the ion-electron system (eV)
  alpha Z        PSCENC =         6.18334092
  Ewald energy   TEWEN  =      2475.82285036
  -Hartree energ DENC   =     -2904.52686662
  -exchange      EXHF   =         0.00000000
  -V(xc)+E(xc)   XCENC  =        54.87161459
  PAW double counting   =       151.32577238     -155.92769107
  entropy T*S    EENTRO =        -0.00083619
  eigenvalues    EBANDS =       -29.98096433
  atomic energy  EATOM  =       588.62352690
  free energy    TOTEN  =       186.39074695 eV

  energy without entropy =      186.39158314  energy(sigma->0) =      186.39116505

[...]

 eigenvalue-minimisations  : 10400
 total energy-change (2. order) :-0.1955560E+03  (-0.1732839E+03)
 number of electron      16.0000000 magnetization
 augmentation part       16.0000000 magnetization

[...]

 Broyden mixing:
  rms(total) = 0.71380E+00    rms(broyden)= 0.71380E+00
  rms(prec ) = 0.77740E+00
  weight for this iteration     100.00

[...]

 eigenvalues of (default mixing * dielectric matrix)
  average eigenvalue GAMMA=   2.3191
  2.3191

[...]

WARNING in EDDRMM: call to ZHEGV failed, returncode =   6  3  1
WARNING in EDDRMM: call to ZHEGV failed, returncode =   6  3  1
WARNING in EDDRMM: call to ZHEGV failed, returncode =   6  3  1
WARNING in EDDRMM: call to ZHEGV failed, returncode =   6  3  1
WARNING in EDDRMM: call to ZHEGV failed, returncode =   6  3  1
WARNING in EDDRMM: call to ZHEGV failed, returncode =   6  3  1

[...]

 average (electrostatic) potential at core
  the test charge radii are     0.6991
  (the norm of the test charge is              1.0000)
       1 -58.2902       2 -58.2902       3 -58.2902       4 -58.2902

 E-fermi :  -2.8108     XC(G=0):  -2.1710     alpha+bet : -1.9046

 k-point     1 :       0.0000    0.0000    0.0000
  band No.  band energies     occupation
      1     -22.1146      2.00000
      2     -17.2135      2.00000
      3     -15.8619      2.00000
      4     -10.2516      2.00000
      5      -8.8714      2.00000
      6      -5.9661      2.00000
      7      -5.7373      2.00000
      8      -5.2926      2.00000
      9      -1.1662      0.00000
     10       0.5406      0.00000
     11       1.3392      0.00000
     12       1.7291      0.00000

[...]

 soft charge-density along one line, spin component           1
         0         1         2         3         4         5         6         7         8         9
 total charge-density along one line

------------------------ aborting loop because EDIFF is reached ----------------------------------------

  FORCE on cell =-STRESS in cart. coord.  units (eV):
  Direction    XX          YY          ZZ          XY          YZ          ZX
  Alpha Z     6.18334     6.18334     6.18334
  Ewald    3007.55240  3010.21096 -3541.94074    -0.00000     0.00000     0.00000
  Hartree  2946.55195  2947.47466 -2923.98332     0.00000    -0.00000    -0.00000
  E(xc)     -58.03242   -58.05536   -60.36870    -0.00000    -0.00000    -0.00000
  Local   -6127.43076 -6130.58702  6260.49729     0.00000     0.00000    -0.00000
  n-local   -13.19019   -13.84695   -12.53678     0.06524     0.00000    -0.00000
  augment    -1.49033    -1.49230    -1.37999     0.00000     0.00000    -0.00000
  Kinetic   235.47870   240.11267   273.52754    -4.47995    -0.00000     0.00000
  Fock        0.00000     0.00000     0.00000     0.00000     0.00000     0.00000
  Total      -4.37731    -0.00001    -0.00135     0.00000     0.00000     0.00000
  in kB     -33.26363    -0.00006    -0.01027     0.00000     0.00000     0.00000

 VOLUME and BASIS-vectors are now :
  energy-cutoff  :     2000.00
  volume of cell :      210.84
      direct lattice vectors                 reciprocal lattice vectors
     4.359155920  0.000000000  0.000000000     0.229402210  0.000000000  0.000000000
     0.000000000  2.458943918  0.000000000     0.000000000  0.406678653  0.000000000
     0.000000000  0.000000000 19.669696450     0.000000000  0.000000000  0.050839625

[...]

 FORCES acting on ions
    electron-ion (+dipol)            ewald-force                    non-local-force                 convergence-correction
   0.431E+01 0.370E-15 -.185E-08   -.431E+01 -.564E-14 -.247E-18   -.139E-02 -.347E-17 0.000E+00   -.775E-07 -.231E-14 -.861E-13
   -.431E+01 -.184E-12 -.967E-08   0.431E+01 0.991E-14 0.262E-33   0.139E-02 0.000E+00 0.000E+00   0.775E-07 0.151E-15 -.858E-13
   0.431E+01 -.211E-12 -.186E-08   -.431E+01 -.577E-14 0.247E-18   -.139E-02 -.347E-17 0.000E+00   -.775E-07 -.229E-14 -.861E-13
   -.431E+01 0.685E-15 -.966E-08   0.431E+01 0.979E-14 -.265E-33   0.139E-02 0.000E+00 0.000E+00   0.775E-07 0.188E-15 -.858E-13
   -.117E-05 -.394E-12 -.230E-07   -.266E-14 0.830E-14 -.241E-34   0.000E+00 -.694E-17 0.000E+00   -.728E-13 -.426E-14 -.344E-12

 POSITION                                       TOTAL-FORCE (eV/Angst)
      4.35716      0.00000      0.00000        -0.000005      0.000000     -0.000000
      0.72852      1.22947      0.00000         0.000005      0.000000      0.000000
      2.17759      1.22947      0.00000        -0.000005      0.000000     -0.000000
      2.90810      0.00000      0.00000         0.000005     -0.000000      0.000000
    total drift:                               -0.000001     -0.000000     -0.000000

  FREE ENERGIE OF THE ION-ELECTRON SYSTEM (eV)
  free  energy   TOTEN  =       -36.88187026 eV

  energy  without entropy=      -36.88186986  energy(sigma->0) =      -36.88187006

 Quasi-Newton relaxation of ions (Broydens 2nd method)
  g(Force)  = 0.469E-11   g(Stress)= 0.000E+00

 Reset! Starting new Quasi-Newton update for ions

[...]

 eigenvalue-minimisations  :  6320
 total energy-change (2. order) : 0.3304876E-09  ( 0.4797848E-09)
 number of electron      16.0000000 magnetization
 augmentation part        0.3743806 magnetization

[...]

 eigenvalue-minimisations  :  3288
 total energy-change (2. order) :-0.3735749E-09  ( 0.5165992E-13)
 number of electron      16.0000000 magnetization
 augmentation part        0.3743806 magnetization

[...]

 d Force =-0.5342596E-11[-0.154E-10, 0.469E-11]  d Energy =-0.3057039E-09 0.300E-09
 d Force = 0.4099513E-05[ 0.410E-05, 0.410E-05]  d Ewald  = 0.4099513E-05 0.000E+00

[...]

 retain information from N=  1 steps
 eigenvalues of (default step * inverse Hessian matrix)
  average eigenvalue of G=   0.2336
 eigenvalue spectrum of G is  0.2336

[...]

 d Force = 0.7578154E-11[ 0.338E-11, 0.118E-10]  d Energy = 0.1625722E-10-0.868E-11
 d Force =-0.3141730E-05[-0.314E-05,-0.314E-05]  d Ewald  =-0.3141729E-05-0.455E-12

[...]

 eigenvalue-minimisations  :   855
 total energy-change (2. order) : 0.6798473E-10  (-0.1598721E-13)
 number of electron      16.0000000 magnetization
 augmentation part        0.3743806 magnetization

[...]

 d Force =-0.4549442E-12[-0.227E-11, 0.136E-11]  d Energy = 0.2268052E-09-0.227E-09
 d Force =-0.1262257E-05[-0.126E-05,-0.126E-05]  d Ewald  =-0.1262257E-05 0.000E+00

[...]

 d Force = 0.8070639E-12[ 0.196E-12, 0.142E-11]  d Energy =-0.4524736E-10 0.461E-10
 d Force = 0.7896377E-06[ 0.790E-06, 0.790E-06]  d Ewald  = 0.7896379E-06 0.000E+00

[...]

 FEWALD executed in parallel

[...]

 eigenvalue-minimisations  :   369
 total energy-change (2. order) :-0.5727543E-09  (-0.1809252E-14)
 number of electron      16.0000000 magnetization
 augmentation part        0.3743806 magnetization

[...]

 eigenvalue-minimisations  :   272
 total energy-change (2. order) : 0.7094059E-10  ( 0.0000000E+00)
 number of electron      16.0000000 magnetization
 augmentation part        0.3743806 magnetization

 Broyden mixing:
  rms(total) = 0.14994E-09    rms(broyden)= 0.14993E-09
  rms(prec ) = 0.16146E-09
  weight for this iteration     100.00

 eigenvalues of (default mixing * dielectric matrix)
  average eigenvalue GAMMA=   2.0931
  1.0217  2.5639  2.6937

[...]

----------------------------------------- Iteration    6(   5)  ---------------------------------------

 eigenvalue-minimisations  :   361
 total energy-change (2. order) :-0.4911271E-10  ( 0.0000000E+00)
 number of electron      16.0000000 magnetization
 augmentation part        0.3743806 magnetization

 Free energy of the ion-electron system (eV)
  alpha Z        PSCENC =         6.18334092
  Ewald energy   TEWEN  =      2475.82284975
  -Hartree energ DENC   =     -2970.04328699
  -exchange      EXHF   =         0.00000000
  -V(xc)+E(xc)   XCENC  =        57.21570007
  PAW double counting   =       270.40261854     -275.52122815
  entropy T*S    EENTRO =        -0.00000040
  eigenvalues    EBANDS =      -189.56539090
  atomic energy  EATOM  =       588.62352690
  free energy    TOTEN  =       -36.88187026 eV

  energy without entropy =      -36.88186986  energy(sigma->0) =      -36.88187006

 average (electrostatic) potential at core
  the test charge radii are     0.6991
  (the norm of the test charge is              1.0000)
       1 -58.2902       2 -58.2902       3 -58.2902       4 -58.2902

 E-fermi :  -2.8108     XC(G=0):  -2.1703     alpha+bet : -1.9046

[...]

 k-point   247 :       0.5000    0.5000    0.0000
  band No.  band energies     occupation
      1     -16.8793      2.00000
      2     -16.8793      2.00000
      3     -15.8796      2.00000
      4     -15.8796      2.00000
      5      -9.2781      2.00000
      6      -9.2781      2.00000
      7      -5.0314      2.00000
      8      -5.0314      2.00000
      9      -1.1358      0.00000
     10      -1.1358      0.00000
     11       4.0312      0.00000
     12       4.0312      0.00000

 soft charge-density along one line, spin component           1
         0         1         2         3         4         5         6         7         8         9
 total charge-density along one line

------------------------ aborting loop because EDIFF is reached ----------------------------------------

  FORCE on cell =-STRESS in cart. coord.  units (eV):
  Direction    XX          YY          ZZ          XY          YZ          ZX
  Alpha Z     6.18334     6.18334     6.18334
  Ewald    3007.55243  3010.21093 -3541.94074     0.00000     0.00000    -0.00000
  Hartree  2946.55196  2947.47466 -2923.98332     0.00000    -0.00000    -0.00000
  E(xc)     -58.03242   -58.05536   -60.36870    -0.00000    -0.00000    -0.00000
  Local   -6127.43079 -6130.58699  6260.49730    -0.00000    -0.00000     0.00000
  n-local   -13.19019   -13.84695   -12.53678     0.06524    -0.00000    -0.00000
  augment    -1.49033    -1.49230    -1.37999    -0.00000    -0.00000     0.00000
  Kinetic   235.47870   240.11268   273.52754    -4.47995     0.00000     0.00000
  Fock        0.00000     0.00000     0.00000     0.00000     0.00000     0.00000
  Total      -4.37731    -0.00001    -0.00135     0.00000     0.00000     0.00000
  in kB     -33.26361    -0.00006    -0.01026     0.00000     0.00000     0.00000

 VOLUME and BASIS-vectors are now :
  energy-cutoff  :     2000.00
  volume of cell :      210.84
      direct lattice vectors                 reciprocal lattice vectors
     4.359155920  0.000000000  0.000000000     0.229402210  0.000000000  0.000000000
     0.000000000  2.458943918  0.000000000     0.000000000  0.406678653  0.000000000
     0.000000000  0.000000000 19.669696450     0.000000000  0.000000000  0.050839625

  length of vectors
     4.359155920  2.458943918 19.669696450     0.229402210  0.406678653  0.050839625

 FORCES acting on ions
    electron-ion (+dipol)            ewald-force                    non-local-force                 convergence-correction
   0.431E+01 0.627E-15 -.187E-08   -.431E+01 0.501E-14 0.111E-17   -.139E-02 -.347E-17 0.258E-25   -.891E-10 -.157E-14 0.137E-11
   -.431E+01 0.127E-13 -.967E-08   0.431E+01 0.244E-15 -.124E-18   0.139E-02 0.347E-17 0.258E-25   0.891E-10 0.844E-15 0.137E-11
   0.431E+01 -.103E-12 -.188E-08   -.431E+01 0.390E-14 0.622E-18   -.139E-02 -.104E-16 0.258E-25   -.891E-10 -.739E-15 0.137E-11
   -.431E+01 -.158E-15 -.968E-08   0.431E+01 -.867E-15 -.161E-17   0.139E-02 0.347E-17 0.129E-25   0.891E-10 0.632E-16 0.137E-11
   -.117E-05 -.896E-13 -.231E-07   -.266E-14 0.830E-14 0.000E+00   0.000E+00 -.694E-17 0.905E-25   0.250E-14 -.140E-14 0.548E-11

 POSITION                                       TOTAL-FORCE (eV/Angst)
      4.35716      0.00000     -0.00000        -0.000001     -0.000000     -0.000000
      0.72852      1.22947      0.00000         0.000001      0.000000      0.000000
      2.17759      1.22947     -0.00000        -0.000001     -0.000000     -0.000000
      2.90810     -0.00000      0.00000         0.000001      0.000000      0.000000
    total drift:                               -0.000001     -0.000000     -0.000000

  FREE ENERGIE OF THE ION-ELECTRON SYSTEM (eV)
  free  energy   TOTEN  =       -36.88187026 eV

  energy  without entropy=      -36.88186986  energy(sigma->0) =      -36.88187006

 d Force = 0.2342978E-13[ 0.153E-13, 0.316E-13]  d Energy = 0.5320544E-10-0.532E-10
 d Force = 0.1269244E-06[ 0.127E-06, 0.127E-06]  d Ewald  = 0.1269245E-06 0.000E+00

 Quasi-Newton relaxation of ions (Broydens 2nd method)
  g(Force)  = 0.521E-13   g(Stress)= 0.000E+00

 retain information from N=  1 steps
 eigenvalues of (default step * inverse Hessian matrix)
  average eigenvalue of G=   0.2763
 eigenvalue spectrum of G is  0.2763

 reached required accuracy - stopping structural energy minimisation