 vasp.5.3.5 31Mar14 (build Mar 02 2015 18:14:16) complex

 executed on             LinuxIFC date 2018.08.09  20:03:22

 INCAR:
 POTCAR:   PAW_PBE C 08Apr2002
 POTCAR:   PAW_PBE C 08Apr2002
   VRHFIN =C: s2p2

   TITEL  = PAW_PBE C 08Apr2002
   POMASS =   12.011; ZVAL   =    4.000    mass and valenz
   ENMAX  =  400.000; ENMIN  =  300.000 eV
   QCUT   =   -5.516; QGAM   =   11.032    optimization parameters

   Description
     l     E      TYP  RCUT    TYP  RCUT
     0   .000     23  1.200
     0   .000     23  1.200
     1   .000     23  1.500
     1  2.500     23  1.500
     2   .000      7  1.500

 PAW_PBE C 08Apr2002                    :

 POSCAR: MD-kMC export data
  positions in direct lattice
  velocities in cartesian coordinates
 exchange correlation table for  LEXCH =        8
   RHO(1)=    0.500       N(1)  =     2000
   RHO(2)=  100.500       N(2)  =     4000

 ion  position               nearest neighbor table
   1  0.000  0.000  0.000-   4 1.42   2 1.44   2 1.44
   2  0.166  0.500  0.000-   3 1.42   1 1.44   1 1.44
   3  0.500  0.500  0.000-   2 1.42   4 1.44   4 1.44
   4  0.666  0.000  0.000-   1 1.42   3 1.44   3 1.44

  LATTYP: Found a simple orthorhombic cell.
 ALAT       =     2.5039404910
 B/A-ratio  =     1.7021856841
 C/A-ratio  =     7.8898680782

  Lattice vectors:

 A1 = (   0.0000000000,  -2.5039404910,   0.0000000000)
 A2 = (  -4.2621716574,   0.0000000000,   0.0000000000)
 A3 = (   0.0000000000,   0.0000000000, -19.7557601493)

Analysis of symmetry for initial positions (statically):
 Subroutine PRICEL returns following result:

  LATTYP: Found a base centered orthorhombic cell.
 ALAT       =     2.5039404910
 B/A-ratio  =     1.7021856841
 C/A-ratio  =     7.8898680782

[...]

   2 primitive cells build up your supercell.

 Routine SETGRP: Setting up the symmetry group for a
 simple orthorhombic supercell.

 Subroutine GETGRP returns: Found  8 space group operations
 (whereof  4 operations were pure point group operations)
 out of a pool of  8 trial point group operations.

The static configuration has the point symmetry C_2v.
 The point group associated with its full space group is D_2h.

Analysis of symmetry for dynamics (positions and initial velocities):
 Subroutine PRICEL returns following result:

  LATTYP: Found a base centered orthorhombic cell.
 ALAT       =     2.5039404910
 B/A-ratio  =     1.7021856841
 C/A-ratio  =     7.8898680782

  Lattice vectors:

 A1 = (   2.1310858287,  -1.2519702455,   0.0000000000)
 A2 = (  -2.1310858287,  -1.2519702455,   0.0000000000)
 A3 = (   0.0000000000,   0.0000000000, -19.7557601493)

   2 primitive cells build up your supercell.

 Routine SETGRP: Setting up the symmetry group for a
 simple orthorhombic supercell.

 Subroutine GETGRP returns: Found  8 space group operations
 (whereof  4 operations were pure point group operations)
 out of a pool of  8 trial point group operations.

The dynamic configuration has the point symmetry C_2v.
 The point group associated with its full space group is D_2h.

 KPOINTS: Automatic mesh

Automatic generation of k-mesh.
Space group operators:
 irot       det(A)        alpha          n_x          n_y          n_z        tau_x        tau_y        tau_z
    1     1.000000     0.000001     1.000000     0.000000     0.000000     0.000000     0.000000     0.000000
    2    -1.000000   180.000000     0.000000     0.000000     1.000000     0.000000     0.000000     0.000000
    3     1.000000   179.999999     1.000000     0.000000     0.000000     0.000000     0.000000     0.000000
    4    -1.000000   180.000000     0.000000     1.000000     0.000000     0.000000     0.000000     0.000000
    5    -1.000000     0.000001     1.000000     0.000000     0.000000     0.166667    -0.500000     0.000000
    6     1.000000   180.000000     0.000000     0.000000     1.000000     0.166667    -0.500000     0.000000
    7    -1.000000   179.999999     1.000000     0.000000     0.000000     0.166667    -0.500000     0.000000
    8     1.000000   180.000000     0.000000     1.000000     0.000000     0.166667    -0.500000     0.000000

 Subroutine IBZKPT returns following result:

 Found    247 irreducible k-points:

 Following reciprocal coordinates:
            Coordinates               Weight
  0.000000  0.000000  0.000000      1.000000
  0.041667  0.000000  0.000000      2.000000
  0.083333  0.000000  0.000000      2.000000
  0.125000  0.000000  0.000000      2.000000
  0.166667  0.000000  0.000000      2.000000
  0.208333  0.000000  0.000000      2.000000
  0.250000  0.000000  0.000000      2.000000
  0.291667  0.000000  0.000000      2.000000
  0.333333  0.000000  0.000000      2.000000
  0.375000  0.000000  0.000000      2.000000
  0.416667  0.000000  0.000000      2.000000
  0.458333  0.000000  0.000000      2.000000
  0.500000  0.000000  0.000000      1.000000
  0.000000  0.027778  0.000000      2.000000
  0.041667  0.027778  0.000000      4.000000
  0.083333  0.027778  0.000000      4.000000
  0.125000  0.027778  0.000000      4.000000
  0.166667  0.027778  0.000000      4.000000
  0.208333  0.027778  0.000000      4.000000
  0.250000  0.027778  0.000000      4.000000
  0.291667  0.027778  0.000000      4.000000
  0.333333  0.027778  0.000000      4.000000
  0.375000  0.027778  0.000000      4.000000
  0.416667  0.027778  0.000000      4.000000
  0.458333  0.027778  0.000000      4.000000
  0.500000  0.027778  0.000000      2.000000
  0.000000  0.055556  0.000000      2.000000
  0.041667  0.055556  0.000000      4.000000
  0.083333  0.055556  0.000000      4.000000
  0.125000  0.055556  0.000000      4.000000
  0.166667  0.055556  0.000000      4.000000
  0.208333  0.055556  0.000000      4.000000
  0.250000  0.055556  0.000000      4.000000
  0.291667  0.055556  0.000000      4.000000
  0.333333  0.055556  0.000000      4.000000
  0.375000  0.055556  0.000000      4.000000
  0.416667  0.055556  0.000000      4.000000
  0.458333  0.055556  0.000000      4.000000
  0.500000  0.055556  0.000000      2.000000
  0.000000  0.083333  0.000000      2.000000
  0.041667  0.083333  0.000000      4.000000
  0.083333  0.083333  0.000000      4.000000
  0.125000  0.083333  0.000000      4.000000
  0.166667  0.083333  0.000000      4.000000
  0.208333  0.083333  0.000000      4.000000
  0.250000  0.083333  0.000000      4.000000
  0.291667  0.083333  0.000000      4.000000
  0.333333  0.083333  0.000000      4.000000
  0.375000  0.083333  0.000000      4.000000
  0.416667  0.083333  0.000000      4.000000
  0.458333  0.083333  0.000000      4.000000
  0.500000  0.083333  0.000000      2.000000
  0.000000  0.111111  0.000000      2.000000
  0.041667  0.111111  0.000000      4.000000
  0.083333  0.111111  0.000000      4.000000
  0.125000  0.111111  0.000000      4.000000
  0.166667  0.111111  0.000000      4.000000
  0.208333  0.111111  0.000000      4.000000
  0.250000  0.111111  0.000000      4.000000
  0.291667  0.111111  0.000000      4.000000
[...]
  0.458333  0.472222  0.000000      4.000000
  0.500000  0.472222  0.000000      2.000000
  0.000000  0.500000  0.000000      1.000000
  0.041667  0.500000  0.000000      2.000000
  0.083333  0.500000  0.000000      2.000000
  0.125000  0.500000  0.000000      2.000000
  0.166667  0.500000  0.000000      2.000000
  0.208333  0.500000  0.000000      2.000000
  0.250000  0.500000  0.000000      2.000000
  0.291667  0.500000  0.000000      2.000000
  0.333333  0.500000  0.000000      2.000000
  0.375000  0.500000  0.000000      2.000000
  0.416667  0.500000  0.000000      2.000000
  0.458333  0.500000  0.000000      2.000000
  0.500000  0.500000  0.000000      1.000000

 Following cartesian coordinates:
            Coordinates               Weight
  0.000000  0.000000  0.000000      1.000000
  0.009776  0.000000  0.000000      2.000000
  0.019552  0.000000  0.000000      2.000000
  0.029328  0.000000  0.000000      2.000000
  0.039104  0.000000  0.000000      2.000000
  0.048880  0.000000  0.000000      2.000000
  0.058656  0.000000  0.000000      2.000000
  0.068431  0.000000  0.000000      2.000000
  0.078207  0.000000  0.000000      2.000000
  0.087983  0.000000  0.000000      2.000000
  0.097759  0.000000  0.000000      2.000000
  0.107535  0.000000  0.000000      2.000000
  0.117311  0.000000  0.000000      1.000000
  0.000000  0.011094  0.000000      2.000000
  0.009776  0.011094  0.000000      4.000000
  0.019552  0.011094  0.000000      4.000000
  0.029328  0.011094  0.000000      4.000000
  0.039104  0.011094  0.000000      4.000000
  0.048880  0.011094  0.000000      4.000000
  0.058656  0.011094  0.000000      4.000000
  0.068431  0.011094  0.000000      4.000000
  0.078207  0.011094  0.000000      4.000000
  0.087983  0.011094  0.000000      4.000000
  0.097759  0.011094  0.000000      4.000000
  0.107535  0.011094  0.000000      4.000000
  0.117311  0.011094  0.000000      2.000000
  0.000000  0.022187  0.000000      2.000000
  0.009776  0.022187  0.000000      4.000000
  0.019552  0.022187  0.000000      4.000000
  0.029328  0.022187  0.000000      4.000000
  0.039104  0.022187  0.000000      4.000000
  0.048880  0.022187  0.000000      4.000000
  0.058656  0.022187  0.000000      4.000000
  0.068431  0.022187  0.000000      4.000000
  0.078207  0.022187  0.000000      4.000000
  0.087983  0.022187  0.000000      4.000000
  0.097759  0.022187  0.000000      4.000000
  0.107535  0.022187  0.000000      4.000000
  0.117311  0.022187  0.000000      2.000000
  0.000000  0.033281  0.000000      2.000000
  0.009776  0.033281  0.000000      4.000000
  0.019552  0.033281  0.000000      4.000000
  0.029328  0.033281  0.000000      4.000000
  0.039104  0.033281  0.000000      4.000000
  0.048880  0.033281  0.000000      4.000000
  0.058656  0.033281  0.000000      4.000000
  0.068431  0.033281  0.000000      4.000000
  0.078207  0.033281  0.000000      4.000000
  0.087983  0.033281  0.000000      4.000000
  0.097759  0.033281  0.000000      4.000000
  0.107535  0.033281  0.000000      4.000000
  0.117311  0.033281  0.000000      2.000000
  0.000000  0.044375  0.000000      2.000000
  0.009776  0.044375  0.000000      4.000000
  0.019552  0.044375  0.000000      4.000000
  0.029328  0.044375  0.000000      4.000000
  0.039104  0.044375  0.000000      4.000000
  0.048880  0.044375  0.000000      4.000000
  0.058656  0.044375  0.000000      4.000000
  0.068431  0.044375  0.000000      4.000000
[...]
  0.107535  0.188592  0.000000      4.000000
  0.117311  0.188592  0.000000      2.000000
  0.000000  0.199685  0.000000      1.000000
  0.009776  0.199685  0.000000      2.000000
  0.019552  0.199685  0.000000      2.000000
  0.029328  0.199685  0.000000      2.000000
  0.039104  0.199685  0.000000      2.000000
  0.048880  0.199685  0.000000      2.000000
  0.058656  0.199685  0.000000      2.000000
  0.068431  0.199685  0.000000      2.000000
  0.078207  0.199685  0.000000      2.000000
  0.087983  0.199685  0.000000      2.000000
  0.097759  0.199685  0.000000      2.000000
  0.107535  0.199685  0.000000      2.000000
  0.117311  0.199685  0.000000      1.000000

 I would recommend the setting:
   dimension x,y,z NGX =    62 NGY =   37 NGZ =  288
[...]
 k-point ** :   0.2083 0.3056 0.0000  plane waves:   42841
 k-point ** :   0.2500 0.3056 0.0000  plane waves:   42837
 k-point ** :   0.2917 0.3056 0.0000  plane waves:   42815
 k-point ** :   0.3333 0.3056 0.0000  plane waves:   42776
 k-point ** :   0.3750 0.3056 0.0000  plane waves:   42778
 k-point ** :   0.4167 0.3056 0.0000  plane waves:   42783
 k-point ** :   0.4583 0.3056 0.0000  plane waves:   42757
 k-point ** :   0.5000 0.3056 0.0000  plane waves:   42746
 k-point ** :   0.0000 0.3333 0.0000  plane waves:   42904
 k-point ** :   0.0417 0.3333 0.0000  plane waves:   42889
 k-point ** :   0.0833 0.3333 0.0000  plane waves:   42905
[...]
 k-point ** :   0.4583 0.4722 0.0000  plane waves:   42835
 k-point ** :   0.5000 0.4722 0.0000  plane waves:   42818
 k-point ** :   0.0000 0.5000 0.0000  plane waves:   42862
 k-point ** :   0.0417 0.5000 0.0000  plane waves:   42838
 k-point ** :   0.0833 0.5000 0.0000  plane waves:   42872
 k-point ** :   0.1250 0.5000 0.0000  plane waves:   42874
 k-point ** :   0.1667 0.5000 0.0000  plane waves:   42908
 k-point ** :   0.2083 0.5000 0.0000  plane waves:   42880
 k-point ** :   0.2500 0.5000 0.0000  plane waves:   42892
 k-point ** :   0.2917 0.5000 0.0000  plane waves:   42888
 k-point ** :   0.3333 0.5000 0.0000  plane waves:   42888
 k-point ** :   0.3750 0.5000 0.0000  plane waves:   42882
 k-point ** :   0.4167 0.5000 0.0000  plane waves:   42856
 k-point ** :   0.4583 0.5000 0.0000  plane waves:   42880
 k-point ** :   0.5000 0.5000 0.0000  plane waves:   42784

 maximum and minimum number of plane-waves per node :     21494    21316

 maximum number of plane-waves:     42922
 maximum index in each direction:
   IXMAX=   15   IYMAX=    9   IZMAX=   72
   IXMIN=  -16   IYMIN=   -9   IZMIN=  -72

 NGX is ok and might be reduce to  64
 NGY is ok and might be reduce to  38
 WARNING: aliasing errors must be expected set NGZ to 290 to avoid them
 aliasing errors are usually negligible using standard VASP settings
 and one can safely disregard these warnings

 parallel 3D FFT for wavefunctions:
    minimum data exchange during FFTs selected (reduces bandwidth)
 parallel 3D FFT for charge:
    minimum data exchange during FFTs selected (reduces bandwidth)

 Broyden mixing: mesh for mixing (old mesh)
   NGX = 31   NGY = 19   NGZ =145
  (NGX  =128   NGY  = 80   NGZ  =576)
  gives a total of  85405 points

 initial charge density was supplied:
 charge density of overlapping atoms calculated
 number of electron      16.0000000 magnetization
 keeping initial charge density in first step

 Maximum index for augmentation-charges         5073 (set IRDMAX)

 First call to EWALD:  gamma=   0.298
 Maximum number of real-space cells 4x 6x 1
 Maximum number of reciprocal cells 2x 1x 8

 FEWALD executed in parallel

----------------------------------------- Iteration    1(   1)  ---------------------------------------

 eigenvalue-minimisations  :  5928
 total energy-change (2. order) : 0.1879545E+03  (-0.1057035E+04)
 number of electron      16.0000000 magnetization
 augmentation part       16.0000000 magnetization

 Free energy of the ion-electron system (eV)
  alpha Z        PSCENC =         6.18334092
  Ewald energy   TEWEN  =      2504.55437983
  -Hartree energ DENC   =     -2932.39841249
  -exchange      EXHF   =         0.00000000
  -V(xc)+E(xc)   XCENC  =        54.93061708
  PAW double counting   =       151.32577238     -155.92769107
  entropy T*S    EENTRO =        -0.00234590
  eigenvalues    EBANDS =       -29.33471799
  atomic energy  EATOM  =       588.62352690
  free energy    TOTEN  =       187.95446967 eV

  energy without entropy =      187.95681558  energy(sigma->0) =      187.95564262

[...]

 eigenvalue-minimisations  : 10376
 total energy-change (2. order) :-0.1967558E+03  (-0.1752700E+03)
 number of electron      16.0000000 magnetization
 augmentation part       16.0000000 magnetization

[...]

 Broyden mixing:
  rms(total) = 0.71938E+00    rms(broyden)= 0.71938E+00
  rms(prec ) = 0.78312E+00
  weight for this iteration     100.00

[...]

 eigenvalues of (default mixing * dielectric matrix)
  average eigenvalue GAMMA=   2.3162
  2.3162

[...]

 average (electrostatic) potential at core
  the test charge radii are     0.6991
  (the norm of the test charge is              1.0000)
       1 -58.2637       2 -58.2637       3 -58.2637       4 -58.2637

 E-fermi :  -2.7962     XC(G=0):  -2.1632     alpha+bet : -1.9046

 k-point     1 :       0.0000    0.0000    0.0000
  band No.  band energies     occupation
      1     -22.1511      2.00000
      2     -16.8317      2.00000
      3     -15.9067      2.00000
      4     -10.2797      2.00000
      5      -9.3538      2.00000
      6      -5.9159      2.00000
      7      -5.7541      2.00000
      8      -4.9877      2.00000
      9      -1.1115      0.00000
     10       0.5361      0.00000
     11       1.3355      0.00000
     12       2.7311      0.00000

[...]

 soft charge-density along one line, spin component           1
         0         1         2         3         4         5         6         7         8         9
 total charge-density along one line

------------------------ aborting loop because EDIFF is reached ----------------------------------------

  FORCE on cell =-STRESS in cart. coord.  units (eV):
  Direction    XX          YY          ZZ          XY          YZ          ZX
  Alpha Z     6.18334     6.18334     6.18334
  Ewald    3039.67750  3037.88033 -3573.00368     0.00000     0.00000     0.00000
  Hartree  2976.07595  2975.47220 -2952.84405    -0.00000    -0.00000    -0.00000
  E(xc)     -58.13053   -58.11241   -60.44999     0.00000     0.00000    -0.00000
  Local   -6188.53278 -6186.46151  6320.23015    -0.00000    -0.00000    -0.00000
  n-local   -13.87736   -13.38487   -12.59723     0.07579    -0.00000     0.00000
  augment    -1.50538    -1.50342    -1.38899    -0.00000     0.00000    -0.00000
  Kinetic   240.10726   236.68113   273.86910    -4.62713     0.00000    -0.00000
  Fock        0.00000     0.00000     0.00000     0.00000     0.00000     0.00000
  Total      -0.00200    -3.24523    -0.00134     0.00000     0.00000     0.00000
  in kB      -0.01523   -24.66081    -0.01019     0.00000     0.00000     0.00000

 VOLUME and BASIS-vectors are now :
  energy-cutoff  :     2000.00
  volume of cell :      210.84
      direct lattice vectors                 reciprocal lattice vectors
     4.262171657  0.000000000  0.000000000     0.234622179  0.000000000  0.000000000
     0.000000000  2.503940491  0.000000000     0.000000000  0.399370514  0.000000000
     0.000000000  0.000000000 19.755760149     0.000000000  0.000000000  0.050618148

[...]

 FORCES acting on ions
    electron-ion (+dipol)            ewald-force                    non-local-force                 convergence-correction
   -.319E+01 -.912E-15 0.664E-09   0.318E+01 -.737E-15 0.730E-18   -.560E-03 0.104E-16 0.000E+00   0.223E-06 0.155E-14 -.822E-13
   0.319E+01 0.194E-12 -.327E-08   -.318E+01 0.110E-14 -.152E-33   0.560E-03 -.104E-16 -.129E-25   -.223E-06 -.208E-14 -.828E-13
   -.319E+01 -.150E-12 0.664E-09   0.318E+01 -.155E-15 -.730E-18   -.560E-03 -.104E-16 0.000E+00   0.223E-06 0.240E-14 -.819E-13
   0.319E+01 -.121E-14 -.324E-08   -.318E+01 0.168E-14 0.144E-33   0.560E-03 0.104E-16 0.000E+00   -.223E-06 -.295E-14 -.827E-13
   -.210E-06 0.415E-13 -.518E-08   -.133E-14 0.189E-14 -.481E-34   0.108E-18 0.000E+00 -.129E-25   0.397E-14 -.109E-14 -.330E-12

 POSITION                                       TOTAL-FORCE (eV/Angst)
      0.00168      0.00000      0.00000        -0.002339      0.000000     -0.000000
      0.70868      1.25197      0.00000         0.002339     -0.000000      0.000000
      2.13276      1.25197      0.00000        -0.002339      0.000000     -0.000000
      2.83977      0.00000      0.00000         0.002339      0.000000      0.000000
    total drift:                               -0.000000      0.000000     -0.000000

  FREE ENERGIE OF THE ION-ELECTRON SYSTEM (eV)
  free  energy   TOTEN  =       -36.90144381 eV

  energy  without entropy=      -36.90143874  energy(sigma->0) =      -36.90144127

 Quasi-Newton relaxation of ions (Broydens 2nd method)
  g(Force)  = 0.106E-05   g(Stress)= 0.000E+00

 Reset! Starting new Quasi-Newton update for ions

[...]

 d Force =-0.1624382E-05[-0.430E-05, 0.106E-05]  d Energy =-0.1608807E-05-0.156E-07
 d Force =-0.1445574E-02[-0.145E-02,-0.144E-02]  d Ewald  =-0.1445573E-02-0.114E-08

[...]

 retain information from N=  1 steps
 eigenvalues of (default step * inverse Hessian matrix)
  average eigenvalue of G=   0.1969
 eigenvalue spectrum of G is  0.1969

[...]

 d Force = 0.1729733E-05[ 0.291E-08, 0.346E-05]  d Energy = 0.1715541E-05 0.142E-07
 d Force = 0.1162338E-02[ 0.116E-02, 0.117E-02]  d Ewald  = 0.1162337E-02 0.586E-09

[...]

 eigenvalue-minimisations  :  4756
 total energy-change (2. order) : 0.5040874E-09  ( 0.6076873E-09)
 number of electron      16.0000000 magnetization
 augmentation part        0.3763343 magnetization

[...]

 eigenvalue-minimisations  :  2955
 total energy-change (2. order) :-0.2003162E-09  ( 0.3477401E-12)
 number of electron      16.0000000 magnetization
 augmentation part        0.3763343 magnetization

[...]

 d Force =-0.5777152E-12[-0.360E-11, 0.245E-11]  d Energy =-0.2738716E-09 0.273E-09
 d Force = 0.9739881E-06[ 0.974E-06, 0.974E-06]  d Ewald  = 0.9739870E-06 0.136E-11

[...]

 d Force = 0.1288520E-11[ 0.431E-12, 0.215E-11]  d Energy = 0.4058620E-09-0.405E-09
 d Force =-0.5799402E-06[-0.580E-06,-0.580E-06]  d Ewald  =-0.5799393E-06-0.909E-12

[...]

 d Force = 0.9678033E-13[ 0.854E-13, 0.108E-12]  d Energy =-0.2255547E-09 0.226E-09
 d Force =-0.1456062E-06[-0.146E-06,-0.146E-06]  d Ewald  =-0.1456065E-06 0.000E+00

[...]

 eigenvalue-minimisations  :   559
 total energy-change (2. order) :-0.8345751E-09  (-0.5658025E-14)
 number of electron      16.0000000 magnetization
 augmentation part        0.3763343 magnetization

[...]

 eigenvalue-minimisations  :   503
 total energy-change (2. order) : 0.1587068E-09  (-0.1315820E-15)
 number of electron      16.0000000 magnetization
 augmentation part        0.3763343 magnetization

[...]

 d Force =-0.4493230E-13[-0.411E-12, 0.321E-12]  d Energy =-0.3683454E-10 0.368E-10
 d Force =-0.5472522E-06[-0.547E-06,-0.547E-06]  d Ewald  =-0.5472525E-06 0.455E-12

[...]

 d Force = 0.4617938E-13[-0.138E-12, 0.231E-12]  d Energy = 0.3180958E-09-0.318E-09
 d Force = 0.3072215E-06[ 0.307E-06, 0.307E-06]  d Ewald  = 0.3072214E-06 0.000E+00

[...]

 d Force = 0.2535898E-14[-0.468E-13, 0.518E-13]  d Energy =-0.1488161E-09 0.149E-09
 d Force =-0.1151615E-06[-0.115E-06,-0.115E-06]  d Ewald  =-0.1151602E-06-0.136E-11

[...]

 FEWALD executed in parallel

[...]

 eigenvalue-minimisations  :   492
 total energy-change (2. order) : 0.1623448E-09  ( 0.0000000E+00)
 number of electron      16.0000000 magnetization
 augmentation part        0.3763343 magnetization

[...]

 Broyden mixing:
  rms(total) = 0.15797E-10    rms(broyden)= 0.14999E-10
  rms(prec ) = 0.32724E-10
  weight for this iteration     100.00

 eigenvalues of (default mixing * dielectric matrix)
  average eigenvalue GAMMA=   2.1284
  3.8897  3.8897  2.6396  2.5409  0.9551  0.6746  0.3088

[...]

----------------------------------------- Iteration   10(   9)  ---------------------------------------

 eigenvalue-minimisations  :   351
 total energy-change (2. order) :-0.8640200E-11  ( 0.0000000E+00)
 number of electron      16.0000000 magnetization
 augmentation part        0.3763343 magnetization

 Free energy of the ion-electron system (eV)
  alpha Z        PSCENC =         6.18334092
  Ewald energy   TEWEN  =      2504.55466312
  -Hartree energ DENC   =     -2998.70434433
  -exchange      EXHF   =         0.00000000
  -V(xc)+E(xc)   XCENC  =        57.29584457
  PAW double counting   =       272.12832819     -277.25471987
  entropy T*S    EENTRO =        -0.00000497
  eigenvalues    EBANDS =      -189.72807844
  atomic energy  EATOM  =       588.62352690
  free energy    TOTEN  =       -36.90144392 eV

  energy without entropy =      -36.90143895  energy(sigma->0) =      -36.90144143

 average (electrostatic) potential at core
  the test charge radii are     0.6991
  (the norm of the test charge is              1.0000)
       1 -58.2637       2 -58.2637       3 -58.2637       4 -58.2637

 E-fermi :  -2.7962     XC(G=0):  -2.1629     alpha+bet : -1.9046

[...]

 k-point   247 :       0.5000    0.5000    0.0000
  band No.  band energies     occupation
      1     -17.0827      2.00000
      2     -17.0827      2.00000
      3     -15.8964      2.00000
      4     -15.8964      2.00000
      5      -9.0451      2.00000
      6      -9.0451      2.00000
      7      -5.1814      2.00000
      8      -5.1814      2.00000
      9      -1.1350      0.00000
     10      -1.1350      0.00000
     11       4.5995      0.00000
     12       4.5995      0.00000

 soft charge-density along one line, spin component           1
         0         1         2         3         4         5         6         7         8         9
 total charge-density along one line

------------------------ aborting loop because EDIFF is reached ----------------------------------------

  FORCE on cell =-STRESS in cart. coord.  units (eV):
  Direction    XX          YY          ZZ          XY          YZ          ZX
  Alpha Z     6.18334     6.18334     6.18334
  Ewald    3039.69681  3037.86130 -3573.00368     0.00000     0.00000     0.00000
  Hartree  2976.07867  2975.46970 -2952.84403     0.00000    -0.00000    -0.00000
  E(xc)     -58.13047   -58.11250   -60.45001    -0.00000    -0.00000    -0.00000
  Local   -6188.55103 -6186.44361  6320.23007    -0.00000     0.00000    -0.00000
  n-local   -13.87720   -13.38504   -12.59724     0.07576    -0.00000     0.00000
  augment    -1.50542    -1.50340    -1.38899     0.00000     0.00000     0.00000
  Kinetic   240.10444   236.68411   273.86919    -4.62703     0.00000    -0.00000
  Fock        0.00000     0.00000     0.00000     0.00000     0.00000     0.00000
  Total      -0.00086    -3.24608    -0.00134     0.00000     0.00000     0.00000
  in kB      -0.00654   -24.66727    -0.01018     0.00000     0.00000     0.00000

 VOLUME and BASIS-vectors are now :
  energy-cutoff  :     2000.00
  volume of cell :      210.84
      direct lattice vectors                 reciprocal lattice vectors
     4.262171657  0.000000000  0.000000000     0.234622179  0.000000000  0.000000000
     0.000000000  2.503940491  0.000000000     0.000000000  0.399370514  0.000000000
     0.000000000  0.000000000 19.755760149     0.000000000  0.000000000  0.050618148

  length of vectors
     4.262171657  2.503940491 19.755760149     0.234622179  0.399370514  0.050618148

 FORCES acting on ions
    electron-ion (+dipol)            ewald-force                    non-local-force                 convergence-correction
   -.319E+01 -.153E-15 0.659E-09   0.319E+01 -.341E-14 -.193E-33   0.266E-03 0.347E-17 0.000E+00   -.312E-11 -.558E-15 0.451E-13
   0.319E+01 0.336E-13 -.330E-08   -.319E+01 0.519E-14 0.174E-18   -.266E-03 0.000E+00 0.000E+00   0.310E-11 -.171E-14 0.465E-13
   -.319E+01 -.153E-12 0.666E-09   0.319E+01 -.424E-14 0.193E-33   0.266E-03 0.104E-16 -.808E-27   -.309E-11 0.103E-15 0.445E-13
   0.319E+01 -.469E-15 -.330E-08   -.319E+01 0.436E-14 -.174E-18   -.266E-03 -.139E-16 0.404E-27   0.312E-11 -.231E-14 0.430E-13
   -.210E-06 -.120E-12 -.527E-08   -.133E-14 0.189E-14 0.241E-34   0.000E+00 0.000E+00 -.404E-27   0.347E-14 -.447E-14 0.179E-12

 POSITION                                       TOTAL-FORCE (eV/Angst)
      0.00166     -0.00000     -0.00000        -0.000000      0.000000      0.000000
      0.70871      1.25197      0.00000         0.000000      0.000000      0.000000
      2.13274      1.25197     -0.00000        -0.000000      0.000000      0.000000
      2.83979     -0.00000      0.00000         0.000000     -0.000000      0.000000
    total drift:                               -0.000000     -0.000000     -0.000000

  FREE ENERGIE OF THE ION-ELECTRON SYSTEM (eV)
  free  energy   TOTEN  =       -36.90144392 eV

  energy  without entropy=      -36.90143895  energy(sigma->0) =      -36.90144143

 d Force = 0.8776159E-14[-0.463E-14, 0.222E-13]  d Energy =-0.8196821E-10 0.820E-10
 d Force = 0.5461959E-07[ 0.546E-07, 0.546E-07]  d Ewald  = 0.5461879E-07 0.909E-12

 Quasi-Newton relaxation of ions (Broydens 2nd method)
  g(Force)  = 0.141E-13   g(Stress)= 0.000E+00

 retain information from N=  1 steps
 eigenvalues of (default step * inverse Hessian matrix)
  average eigenvalue of G=   0.0566
 eigenvalue spectrum of G is  0.0566

 reached required accuracy - stopping structural energy minimisation