 vasp.5.3.5 31Mar14 (build Mar 02 2015 18:14:16) complex

 executed on             LinuxIFC date 2018.08.08  16:49:24

 INCAR:
 POTCAR:   PAW_PBE C 08Apr2002
 POTCAR:   PAW_PBE C 08Apr2002
   VRHFIN =C: s2p2

   TITEL  = PAW_PBE C 08Apr2002
   POMASS =   12.011; ZVAL   =    4.000    mass and valenz
   ENMAX  =  400.000; ENMIN  =  300.000 eV
   QCUT   =   -5.516; QGAM   =   11.032    optimization parameters

   Description
     l     E      TYP  RCUT    TYP  RCUT
     0   .000     23  1.200
     0   .000     23  1.200
     1   .000     23  1.500
     1  2.500     23  1.500
     2   .000      7  1.500

 PAW_PBE C 08Apr2002                    :

 POSCAR: MD-kMC export data
  positions in direct lattice
  velocities in cartesian coordinates
 exchange correlation table for  LEXCH =        8
   RHO(1)=    0.500       N(1)  =     2000
   RHO(2)=  100.500       N(2)  =     4000

 ion  position               nearest neighbor table
   1  1.000  0.000  0.000-   2 1.43   2 1.43   4 1.43
   2  0.167  0.500  0.000-   1 1.43   1 1.43   3 1.43
   3  0.500  0.500  0.000-   4 1.43   4 1.43   2 1.43
   4  0.667  0.000  0.000-   3 1.43   3 1.43   1 1.43

  LATTYP: Found a simple orthorhombic cell.
 ALAT       =     2.4648654707
 B/A-ratio  =     1.7426825542
 C/A-ratio  =     8.0788722028

  Lattice vectors:

 A1 = (   0.0000000000,  -2.4648654707,   0.0000000000)
 A2 = (  -4.2954780543,   0.0000000000,   0.0000000000)
 A3 = (   0.0000000000,   0.0000000000, -19.9133331347)

Analysis of symmetry for initial positions (statically):
 Subroutine PRICEL returns following result:

  LATTYP: Found a base centered orthorhombic cell.
 ALAT       =     2.4648654707
 B/A-ratio  =     1.7426825542
 C/A-ratio  =     8.0788722028

[...]

   2 primitive cells build up your supercell.

 Routine SETGRP: Setting up the symmetry group for a
 simple orthorhombic supercell.

 Subroutine GETGRP returns: Found  8 space group operations
 (whereof  4 operations were pure point group operations)
 out of a pool of  8 trial point group operations.

The static configuration has the point symmetry C_2v.
 The point group associated with its full space group is D_2h.

Analysis of symmetry for dynamics (positions and initial velocities):
 Subroutine PRICEL returns following result:

  LATTYP: Found a base centered orthorhombic cell.
 ALAT       =     2.4648654707
 B/A-ratio  =     1.7426825542
 C/A-ratio  =     8.0788722028

  Lattice vectors:

 A1 = (   2.1477390271,  -1.2324327353,   0.0000000000)
 A2 = (  -2.1477390271,  -1.2324327353,   0.0000000000)
 A3 = (   0.0000000000,   0.0000000000, -19.9133331347)

   2 primitive cells build up your supercell.

 Routine SETGRP: Setting up the symmetry group for a
 simple orthorhombic supercell.

 Subroutine GETGRP returns: Found  8 space group operations
 (whereof  4 operations were pure point group operations)
 out of a pool of  8 trial point group operations.

The dynamic configuration has the point symmetry C_2v.
 The point group associated with its full space group is D_2h.

 KPOINTS: Automatic mesh

Automatic generation of k-mesh.
Space group operators:
 irot       det(A)        alpha          n_x          n_y          n_z        tau_x        tau_y        tau_z
    1     1.000000     0.000000     1.000000     0.000000     0.000000     0.000000     0.000000     0.000000
    2    -1.000000   180.000000     0.000000     0.000000     1.000000     0.000000     0.000000     0.000000
    3     1.000000   180.000000     1.000000     0.000000     0.000000     0.000000     0.000000     0.000000
    4    -1.000000   180.000000     0.000000     1.000000     0.000000     0.000000     0.000000     0.000000
    5    -1.000000     0.000000     1.000000     0.000000     0.000000     0.166667    -0.500000     0.000000
    6     1.000000   180.000000     0.000000     0.000000     1.000000     0.166667    -0.500000     0.000000
    7    -1.000000   180.000000     1.000000     0.000000     0.000000     0.166667    -0.500000     0.000000
    8     1.000000   180.000000     0.000000     1.000000     0.000000     0.166667    -0.500000     0.000000

 Subroutine IBZKPT returns following result:

 Found    247 irreducible k-points:

 Following reciprocal coordinates:
            Coordinates               Weight
  0.000000  0.000000  0.000000      1.000000
  0.041667  0.000000  0.000000      2.000000
  0.083333  0.000000  0.000000      2.000000
  0.125000  0.000000  0.000000      2.000000
  0.166667  0.000000  0.000000      2.000000
  0.208333  0.000000  0.000000      2.000000
  0.250000  0.000000  0.000000      2.000000
  0.291667  0.000000  0.000000      2.000000
  0.333333  0.000000  0.000000      2.000000
  0.375000  0.000000  0.000000      2.000000
  0.416667  0.000000  0.000000      2.000000
  0.458333  0.000000  0.000000      2.000000
  0.500000  0.000000  0.000000      1.000000
  0.000000  0.027778  0.000000      2.000000
  0.041667  0.027778  0.000000      4.000000
  0.083333  0.027778  0.000000      4.000000
  0.125000  0.027778  0.000000      4.000000
  0.166667  0.027778  0.000000      4.000000
  0.208333  0.027778  0.000000      4.000000
  0.250000  0.027778  0.000000      4.000000
  0.291667  0.027778  0.000000      4.000000
  0.333333  0.027778  0.000000      4.000000
  0.375000  0.027778  0.000000      4.000000
  0.416667  0.027778  0.000000      4.000000
  0.458333  0.027778  0.000000      4.000000
  0.500000  0.027778  0.000000      2.000000
  0.000000  0.055556  0.000000      2.000000
  0.041667  0.055556  0.000000      4.000000
  0.083333  0.055556  0.000000      4.000000
  0.125000  0.055556  0.000000      4.000000
  0.166667  0.055556  0.000000      4.000000
  0.208333  0.055556  0.000000      4.000000
  0.250000  0.055556  0.000000      4.000000
  0.291667  0.055556  0.000000      4.000000
  0.333333  0.055556  0.000000      4.000000
  0.375000  0.055556  0.000000      4.000000
  0.416667  0.055556  0.000000      4.000000
  0.458333  0.055556  0.000000      4.000000
  0.500000  0.055556  0.000000      2.000000
  0.000000  0.083333  0.000000      2.000000
  0.041667  0.083333  0.000000      4.000000
  0.083333  0.083333  0.000000      4.000000
  0.125000  0.083333  0.000000      4.000000
  0.166667  0.083333  0.000000      4.000000
  0.208333  0.083333  0.000000      4.000000
  0.250000  0.083333  0.000000      4.000000
  0.291667  0.083333  0.000000      4.000000
  0.333333  0.083333  0.000000      4.000000
  0.375000  0.083333  0.000000      4.000000
  0.416667  0.083333  0.000000      4.000000
  0.458333  0.083333  0.000000      4.000000
  0.500000  0.083333  0.000000      2.000000
  0.000000  0.111111  0.000000      2.000000
  0.041667  0.111111  0.000000      4.000000
  0.083333  0.111111  0.000000      4.000000
  0.125000  0.111111  0.000000      4.000000
  0.166667  0.111111  0.000000      4.000000
  0.208333  0.111111  0.000000      4.000000
  0.250000  0.111111  0.000000      4.000000
  0.291667  0.111111  0.000000      4.000000
[...]
  0.458333  0.472222  0.000000      4.000000
  0.500000  0.472222  0.000000      2.000000
  0.000000  0.500000  0.000000      1.000000
  0.041667  0.500000  0.000000      2.000000
  0.083333  0.500000  0.000000      2.000000
  0.125000  0.500000  0.000000      2.000000
  0.166667  0.500000  0.000000      2.000000
  0.208333  0.500000  0.000000      2.000000
  0.250000  0.500000  0.000000      2.000000
  0.291667  0.500000  0.000000      2.000000
  0.333333  0.500000  0.000000      2.000000
  0.375000  0.500000  0.000000      2.000000
  0.416667  0.500000  0.000000      2.000000
  0.458333  0.500000  0.000000      2.000000
  0.500000  0.500000  0.000000      1.000000

 Following cartesian coordinates:
            Coordinates               Weight
  0.000000  0.000000  0.000000      1.000000
  0.009700  0.000000  0.000000      2.000000
  0.019400  0.000000  0.000000      2.000000
  0.029100  0.000000  0.000000      2.000000
  0.038800  0.000000  0.000000      2.000000
  0.048501  0.000000  0.000000      2.000000
  0.058201  0.000000  0.000000      2.000000
  0.067901  0.000000  0.000000      2.000000
  0.077601  0.000000  0.000000      2.000000
  0.087301  0.000000  0.000000      2.000000
  0.097001  0.000000  0.000000      2.000000
  0.106701  0.000000  0.000000      2.000000
  0.116401  0.000000  0.000000      1.000000
  0.000000  0.011269  0.000000      2.000000
  0.009700  0.011269  0.000000      4.000000
  0.019400  0.011269  0.000000      4.000000
  0.029100  0.011269  0.000000      4.000000
  0.038800  0.011269  0.000000      4.000000
  0.048501  0.011269  0.000000      4.000000
  0.058201  0.011269  0.000000      4.000000
  0.067901  0.011269  0.000000      4.000000
  0.077601  0.011269  0.000000      4.000000
  0.087301  0.011269  0.000000      4.000000
  0.097001  0.011269  0.000000      4.000000
  0.106701  0.011269  0.000000      4.000000
  0.116401  0.011269  0.000000      2.000000
  0.000000  0.022539  0.000000      2.000000
  0.009700  0.022539  0.000000      4.000000
  0.019400  0.022539  0.000000      4.000000
  0.029100  0.022539  0.000000      4.000000
  0.038800  0.022539  0.000000      4.000000
  0.048501  0.022539  0.000000      4.000000
  0.058201  0.022539  0.000000      4.000000
  0.067901  0.022539  0.000000      4.000000
  0.077601  0.022539  0.000000      4.000000
  0.087301  0.022539  0.000000      4.000000
  0.097001  0.022539  0.000000      4.000000
  0.106701  0.022539  0.000000      4.000000
  0.116401  0.022539  0.000000      2.000000
  0.000000  0.033808  0.000000      2.000000
  0.009700  0.033808  0.000000      4.000000
  0.019400  0.033808  0.000000      4.000000
  0.029100  0.033808  0.000000      4.000000
  0.038800  0.033808  0.000000      4.000000
  0.048501  0.033808  0.000000      4.000000
  0.058201  0.033808  0.000000      4.000000
  0.067901  0.033808  0.000000      4.000000
  0.077601  0.033808  0.000000      4.000000
  0.087301  0.033808  0.000000      4.000000
  0.097001  0.033808  0.000000      4.000000
  0.106701  0.033808  0.000000      4.000000
  0.116401  0.033808  0.000000      2.000000
  0.000000  0.045078  0.000000      2.000000
  0.009700  0.045078  0.000000      4.000000
  0.019400  0.045078  0.000000      4.000000
  0.029100  0.045078  0.000000      4.000000
  0.038800  0.045078  0.000000      4.000000
  0.048501  0.045078  0.000000      4.000000
  0.058201  0.045078  0.000000      4.000000
  0.067901  0.045078  0.000000      4.000000
[...]
  0.106701  0.191581  0.000000      4.000000
  0.116401  0.191581  0.000000      2.000000
  0.000000  0.202851  0.000000      1.000000
  0.009700  0.202851  0.000000      2.000000
  0.019400  0.202851  0.000000      2.000000
  0.029100  0.202851  0.000000      2.000000
  0.038800  0.202851  0.000000      2.000000
  0.048501  0.202851  0.000000      2.000000
  0.058201  0.202851  0.000000      2.000000
  0.067901  0.202851  0.000000      2.000000
  0.077601  0.202851  0.000000      2.000000
  0.087301  0.202851  0.000000      2.000000
  0.097001  0.202851  0.000000      2.000000
  0.106701  0.202851  0.000000      2.000000
  0.116401  0.202851  0.000000      1.000000

 I would recommend the setting:
   dimension x,y,z NGX =    63 NGY =   36 NGZ =  290
[...]
 k-point ** :   0.5000 0.2222 0.0000  plane waves:   42782
 k-point ** :   0.0000 0.2500 0.0000  plane waves:   42874
 k-point ** :   0.0417 0.2500 0.0000  plane waves:   42847
 k-point ** :   0.0833 0.2500 0.0000  plane waves:   42854
 k-point ** :   0.1250 0.2500 0.0000  plane waves:   42865
 k-point ** :   0.1667 0.2500 0.0000  plane waves:   42850
 k-point ** :   0.2083 0.2500 0.0000  plane waves:   42839
 k-point ** :   0.2500 0.2500 0.0000  plane waves:   42815
 k-point ** :   0.2917 0.2500 0.0000  plane waves:   42820
 k-point ** :   0.3333 0.2500 0.0000  plane waves:   42823
 k-point ** :   0.3750 0.2500 0.0000  plane waves:   42798
 k-point ** :   0.4167 0.2500 0.0000  plane waves:   42792
 k-point ** :   0.4583 0.2500 0.0000  plane waves:   42817
 k-point ** :   0.5000 0.2500 0.0000  plane waves:   42816
 k-point ** :   0.0000 0.2778 0.0000  plane waves:   42894
 k-point ** :   0.0417 0.2778 0.0000  plane waves:   42883
 k-point ** :   0.0833 0.2778 0.0000  plane waves:   42871
 k-point ** :   0.1250 0.2778 0.0000  plane waves:   42866
 k-point ** :   0.1667 0.2778 0.0000  plane waves:   42851
 k-point ** :   0.2083 0.2778 0.0000  plane waves:   42840
 k-point ** :   0.2500 0.2778 0.0000  plane waves:   42837
 k-point ** :   0.2917 0.2778 0.0000  plane waves:   42824
 k-point ** :   0.3333 0.2778 0.0000  plane waves:   42818
 k-point ** :   0.3750 0.2778 0.0000  plane waves:   42808
 k-point ** :   0.4167 0.2778 0.0000  plane waves:   42835
 k-point ** :   0.4583 0.2778 0.0000  plane waves:   42855
 k-point ** :   0.5000 0.2778 0.0000  plane waves:   42844
 k-point ** :   0.0000 0.3056 0.0000  plane waves:   42894
 k-point ** :   0.0417 0.3056 0.0000  plane waves:   42882
 k-point ** :   0.0833 0.3056 0.0000  plane waves:   42893
 k-point ** :   0.1250 0.3056 0.0000  plane waves:   42874
 k-point ** :   0.1667 0.3056 0.0000  plane waves:   42870
 k-point ** :   0.2083 0.3056 0.0000  plane waves:   42878
 k-point ** :   0.2500 0.3056 0.0000  plane waves:   42842
 k-point ** :   0.2917 0.3056 0.0000  plane waves:   42850
 k-point ** :   0.3333 0.3056 0.0000  plane waves:   42848
 k-point ** :   0.3750 0.3056 0.0000  plane waves:   42841
 k-point ** :   0.4167 0.3056 0.0000  plane waves:   42841
 k-point ** :   0.4583 0.3056 0.0000  plane waves:   42841
 k-point ** :   0.5000 0.3056 0.0000  plane waves:   42850
 k-point ** :   0.0000 0.3333 0.0000  plane waves:   42898
 k-point ** :   0.0417 0.3333 0.0000  plane waves:   42890
 k-point ** :   0.0833 0.3333 0.0000  plane waves:   42892
[...]
 k-point ** :   0.4583 0.4722 0.0000  plane waves:   42799
 k-point ** :   0.5000 0.4722 0.0000  plane waves:   42796
 k-point ** :   0.0000 0.5000 0.0000  plane waves:   42958
 k-point ** :   0.0417 0.5000 0.0000  plane waves:   42926
 k-point ** :   0.0833 0.5000 0.0000  plane waves:   42932
 k-point ** :   0.1250 0.5000 0.0000  plane waves:   42918
 k-point ** :   0.1667 0.5000 0.0000  plane waves:   42902
 k-point ** :   0.2083 0.5000 0.0000  plane waves:   42924
 k-point ** :   0.2500 0.5000 0.0000  plane waves:   42912
 k-point ** :   0.2917 0.5000 0.0000  plane waves:   42888
 k-point ** :   0.3333 0.5000 0.0000  plane waves:   42900
 k-point ** :   0.3750 0.5000 0.0000  plane waves:   42848
 k-point ** :   0.4167 0.5000 0.0000  plane waves:   42842
 k-point ** :   0.4583 0.5000 0.0000  plane waves:   42812
 k-point ** :   0.5000 0.5000 0.0000  plane waves:   42796

 maximum and minimum number of plane-waves per node :     21480    21276

 maximum number of plane-waves:     42958
 maximum index in each direction:
   IXMAX=   15   IYMAX=    8   IZMAX=   72
   IXMIN=  -16   IYMIN=   -9   IZMIN=  -72

 NGX is ok and might be reduce to  64
 NGY is ok and might be reduce to  36
 NGZ is ok and might be reduce to 290

 parallel 3D FFT for wavefunctions:
    minimum data exchange during FFTs selected (reduces bandwidth)
 parallel 3D FFT for charge:
    minimum data exchange during FFTs selected (reduces bandwidth)

 Broyden mixing: mesh for mixing (old mesh)
   NGX = 31   NGY = 17   NGZ =145
  (NGX  =128   NGY  = 72   NGZ  =588)
  gives a total of  76415 points

 initial charge density was supplied:
 charge density of overlapping atoms calculated
 number of electron      16.0000000 magnetization
 keeping initial charge density in first step

 Maximum index for augmentation-charges         4677 (set IRDMAX)

 First call to EWALD:  gamma=   0.298
 Maximum number of real-space cells 4x 6x 1
 Maximum number of reciprocal cells 2x 1x 8

 FEWALD executed in parallel

----------------------------------------- Iteration    1(   1)  ---------------------------------------

 eigenvalue-minimisations  :  5928
 total energy-change (2. order) : 0.1901716E+03  (-0.1063676E+04)
 number of electron      16.0000000 magnetization
 augmentation part       16.0000000 magnetization

 Free energy of the ion-electron system (eV)
  alpha Z        PSCENC =         6.18334092
  Ewald energy   TEWEN  =      2557.52892414
  -Hartree energ DENC   =     -2983.78624169
  -exchange      EXHF   =         0.00000000
  -V(xc)+E(xc)   XCENC  =        55.03850112
  PAW double counting   =       151.32577238     -155.92769107
  entropy T*S    EENTRO =        -0.00142047
  eigenvalues    EBANDS =       -28.81310085
  atomic energy  EATOM  =       588.62352690
  free energy    TOTEN  =       190.17161139 eV

  energy without entropy =      190.17303186  energy(sigma->0) =      190.17232163

[...]

 eigenvalue-minimisations  : 10448
 total energy-change (2. order) :-0.1990707E+03  (-0.1766300E+03)
 number of electron      16.0000000 magnetization
 augmentation part       16.0000000 magnetization

[...]

 Broyden mixing:
  rms(total) = 0.73008E+00    rms(broyden)= 0.73008E+00
  rms(prec ) = 0.79395E+00
  weight for this iteration     100.00

[...]

 eigenvalues of (default mixing * dielectric matrix)
  average eigenvalue GAMMA=   2.3184
  2.3184

[...]

 average (electrostatic) potential at core
  the test charge radii are     0.6991
  (the norm of the test charge is              1.0000)
       1 -58.2154       2 -58.2154       3 -58.2154       4 -58.2154

 E-fermi :  -2.7688     XC(G=0):  -2.1497     alpha+bet : -1.9046

 k-point     1 :       0.0000    0.0000    0.0000
  band No.  band energies     occupation
      1     -22.2178      2.00000
      2     -17.0726      2.00000
      3     -15.9451      2.00000
      4     -10.3313      2.00000
      5      -9.0827      2.00000
      6      -5.8333      2.00000
      7      -5.7735      2.00000
      8      -5.1593      2.00000
      9      -1.0992      0.00000
     10       0.5281      0.00000
     11       1.3286      0.00000
     12       4.2229      0.00000

[...]

 soft charge-density along one line, spin component           1
         0         1         2         3         4         5         6         7         8         9
 total charge-density along one line

------------------------ aborting loop because EDIFF is reached ----------------------------------------

  FORCE on cell =-STRESS in cart. coord.  units (eV):
  Direction    XX          YY          ZZ          XY          YZ          ZX
  Alpha Z     6.18334     6.18334     6.18334
  Ewald    3093.53409  3094.22248 -3630.22790     0.00000     0.00000     0.00000
  Hartree  3028.67563  3028.91057 -3006.03912     0.00000    -0.00000    -0.00000
  E(xc)     -58.26032   -58.26626   -60.59865     0.00000    -0.00000    -0.00000
  Local   -6294.89218 -6295.69987  6430.29831    -0.00000    -0.00000     0.00000
  n-local   -13.74944   -13.92534   -12.70792     0.05838     0.00000    -0.00000
  augment    -1.52828    -1.52896    -1.40551     0.00000     0.00000     0.00000
  Kinetic   238.89566   240.10493   274.49612    -4.56774    -0.00000     0.00000
  Fock        0.00000     0.00000     0.00000     0.00000     0.00000     0.00000
  Total      -1.14150     0.00090    -0.00132     0.00000     0.00000     0.00000
  in kB      -8.67440     0.00686    -0.01001     0.00000     0.00000     0.00000

 VOLUME and BASIS-vectors are now :
  energy-cutoff  :     2000.00
  volume of cell :      210.84
      direct lattice vectors                 reciprocal lattice vectors
     4.295478054  0.000000000  0.000000000     0.232802959  0.000000000  0.000000000
     0.000000000  2.464865471  0.000000000     0.000000000  0.405701655  0.000000000
     0.000000000  0.000000000 19.913333135     0.000000000  0.000000000  0.050217610

[...]

 FORCES acting on ions
    electron-ion (+dipol)            ewald-force                    non-local-force                 convergence-correction
   0.114E+01 -.272E-16 -.329E-09   -.114E+01 0.194E-14 0.181E-34   0.941E-03 0.104E-16 0.000E+00   -.526E-07 0.194E-14 0.192E-12
   -.114E+01 0.134E-13 -.600E-08   0.114E+01 0.418E-14 0.556E-18   -.941E-03 -.104E-16 0.414E-24   0.526E-07 -.331E-14 0.194E-12
   0.114E+01 -.203E-12 -.362E-09   -.114E+01 -.508E-14 0.000E+00   0.941E-03 -.104E-16 -.414E-24   -.526E-07 0.194E-14 0.193E-12
   -.114E+01 0.214E-15 -.603E-08   0.114E+01 -.284E-14 -.556E-18   -.941E-03 -.104E-16 0.414E-24   0.526E-07 -.337E-14 0.194E-12
   -.867E-06 -.190E-12 -.127E-07   -.888E-15 -.180E-14 0.000E+00   0.434E-18 -.208E-16 0.414E-24   -.451E-13 -.280E-14 0.772E-12

 POSITION                                       TOTAL-FORCE (eV/Angst)
      4.29494      0.00000      0.00000        -0.001116      0.000000      0.000000
      0.71645      1.23243      0.00000         0.001116      0.000000     -0.000000
      2.14720      1.23243      0.00000        -0.001116      0.000000      0.000000
      2.86419      0.00000      0.00000         0.001116     -0.000000     -0.000000
    total drift:                               -0.000001     -0.000000     -0.000000

  FREE ENERGIE OF THE ION-ELECTRON SYSTEM (eV)
  free  energy   TOTEN  =       -36.92254234 eV

  energy  without entropy=      -36.92245600  energy(sigma->0) =      -36.92249917

 Quasi-Newton relaxation of ions (Broydens 2nd method)
  g(Force)  = 0.240E-06   g(Stress)= 0.000E+00

 Reset! Starting new Quasi-Newton update for ions

[...]

 d Force =-0.3557651E-06[-0.952E-06, 0.240E-06]  d Energy =-0.3586141E-06 0.285E-08
 d Force = 0.2441995E-03[ 0.242E-03, 0.246E-03]  d Ewald  = 0.2441996E-03-0.123E-09

[...]

 retain information from N=  1 steps
 eigenvalues of (default step * inverse Hessian matrix)
  average eigenvalue of G=   0.2015
 eigenvalue spectrum of G is  0.2015

 FEWALD executed in parallel

[...]

WARNING in EDDRMM: call to ZHEGV failed, returncode =   6  3  1

[...]

 eigenvalue-minimisations  :  2027
 total energy-change (2. order) : 0.2688694E-09  (-0.9838221E-13)
 number of electron      16.0000000 magnetization
 augmentation part        0.3799187 magnetization

[...]

 eigenvalue-minimisations  :  1808
 total energy-change (2. order) :-0.1427907E-09  (-0.8725119E-13)
 number of electron      16.0000000 magnetization
 augmentation part        0.3799187 magnetization

 Broyden mixing:
  rms(total) = 0.89598E-08    rms(broyden)= 0.89598E-08
  rms(prec ) = 0.95976E-08
  weight for this iteration     100.00

 eigenvalues of (default mixing * dielectric matrix)
  average eigenvalue GAMMA=   1.7668
  6.5260  3.4855  2.6533  2.6533  1.8332  1.0374  1.0374  1.0932  1.0932  0.9754
  0.8797  0.8797  0.9100  0.9100  0.5346

[...]

----------------------------------------- Iteration    3(  17)  ---------------------------------------

 eigenvalue-minimisations  :  1744
 total energy-change (2. order) :-0.1909939E-10  ( 0.3556826E-14)
 number of electron      16.0000000 magnetization
 augmentation part        0.3799187 magnetization

 Free energy of the ion-electron system (eV)
  alpha Z        PSCENC =         6.18334092
  Ewald energy   TEWEN  =      2557.52887461
  -Hartree energ DENC   =     -3051.54703617
  -exchange      EXHF   =         0.00000000
  -V(xc)+E(xc)   XCENC  =        57.44234316
  PAW double counting   =       275.31639469     -280.45723090
  entropy T*S    EENTRO =        -0.00008667
  eigenvalues    EBANDS =      -190.01266892
  atomic energy  EATOM  =       588.62352690
  free energy    TOTEN  =       -36.92254236 eV

  energy without entropy =      -36.92245570  energy(sigma->0) =      -36.92249903

 average (electrostatic) potential at core
  the test charge radii are     0.6991
  (the norm of the test charge is              1.0000)
       1 -58.2154       2 -58.2154       3 -58.2154       4 -58.2154

 E-fermi :  -2.7688     XC(G=0):  -2.1494     alpha+bet : -1.9046

[...]

 k-point   247 :       0.5000    0.5000    0.0000
  band No.  band energies     occupation
      1     -16.9836      2.00000
      2     -16.9836      2.00000
      3     -15.9488      2.00000
      4     -15.9488      2.00000
      5      -9.1921      2.00000
      6      -9.1921      2.00000
      7      -5.0899      2.00000
      8      -5.0899      2.00000
      9      -1.0903      0.00000
     10      -1.0903      0.00000
     11       4.4559      0.00000
     12       4.4559      0.00000

 soft charge-density along one line, spin component           1
         0         1         2         3         4         5         6         7         8         9
 total charge-density along one line

------------------------ aborting loop because EDIFF is reached ----------------------------------------

  FORCE on cell =-STRESS in cart. coord.  units (eV):
  Direction    XX          YY          ZZ          XY          YZ          ZX
  Alpha Z     6.18334     6.18334     6.18334
  Ewald    3093.54354  3094.21298 -3630.22790     0.00000     0.00000     0.00000
  Hartree  3028.67692  3028.90923 -3006.03912    -0.00000    -0.00000    -0.00000
  E(xc)     -58.26028   -58.26630   -60.59864    -0.00000     0.00000    -0.00000
  Local   -6294.90115 -6295.69084  6430.29833    -0.00000    -0.00000    -0.00000
  n-local   -13.74937   -13.92541   -12.70792     0.05836    -0.00000    -0.00000
  augment    -1.52830    -1.52894    -1.40551     0.00000     0.00000     0.00000
  Kinetic   238.89417   240.10640   274.49610    -4.56770     0.00000     0.00000
  Fock        0.00000     0.00000     0.00000     0.00000     0.00000     0.00000
  Total      -1.14111     0.00046    -0.00132     0.00000     0.00000     0.00000
  in kB      -8.67142     0.00351    -0.01000     0.00000     0.00000     0.00000

 VOLUME and BASIS-vectors are now :
  energy-cutoff  :     2000.00
  volume of cell :      210.84
      direct lattice vectors                 reciprocal lattice vectors
     4.295478054  0.000000000  0.000000000     0.232802959  0.000000000  0.000000000
     0.000000000  2.464865471  0.000000000     0.000000000  0.405701655  0.000000000
     0.000000000  0.000000000 19.913333135     0.000000000  0.000000000  0.050217610

  length of vectors
     4.295478054  2.464865471 19.913333135     0.232802959  0.405701655  0.050217610

 FORCES acting on ions
    electron-ion (+dipol)            ewald-force                    non-local-force                 convergence-correction
   0.114E+01 0.509E-16 -.313E-09   -.114E+01 0.283E-14 0.310E-18   0.134E-02 -.104E-16 -.162E-26   0.531E-07 -.581E-15 0.175E-12
   -.114E+01 0.207E-12 -.600E-08   0.114E+01 -.316E-14 -.105E-17   -.134E-02 0.139E-16 0.000E+00   -.531E-07 0.247E-15 0.176E-12
   0.114E+01 -.207E-12 -.347E-09   -.114E+01 0.225E-14 0.142E-17   0.134E-02 -.347E-17 0.000E+00   0.531E-07 -.570E-15 0.175E-12
   -.114E+01 0.508E-16 -.602E-08   0.114E+01 -.373E-14 -.679E-18   -.134E-02 0.000E+00 0.000E+00   -.531E-07 0.286E-15 0.176E-12
   -.867E-06 -.845E-16 -.127E-07   -.888E-15 -.180E-14 0.000E+00   -.434E-18 0.000E+00 -.162E-26   0.189E-13 -.617E-15 0.702E-12

 POSITION                                       TOTAL-FORCE (eV/Angst)
      4.29493      0.00000      0.00000         0.000000     -0.000000     -0.000000
      0.71647      1.23243     -0.00000        -0.000000     -0.000000      0.000000
      2.14719      1.23243      0.00000         0.000000     -0.000000     -0.000000
      2.86420      0.00000     -0.00000        -0.000000      0.000000      0.000000
    total drift:                               -0.000001     -0.000000     -0.000000

  FREE ENERGIE OF THE ION-ELECTRON SYSTEM (eV)
  free  energy   TOTEN  =       -36.92254236 eV

  energy  without entropy=      -36.92245570  energy(sigma->0) =      -36.92249903

 d Force = 0.3800013E-06[ 0.789E-10, 0.760E-06]  d Energy = 0.3825392E-06-0.254E-08
 d Force =-0.1946638E-03[-0.196E-03,-0.193E-03]  d Ewald  =-0.1946639E-03 0.628E-10

 Quasi-Newton relaxation of ions (Broydens 2nd method)
  g(Force)  = 0.406E-13   g(Stress)= 0.000E+00

 retain information from N=  1 steps
 eigenvalues of (default step * inverse Hessian matrix)
  average eigenvalue of G=   0.2015
 eigenvalue spectrum of G is  0.2015

 reached required accuracy - stopping structural energy minimisation