 vasp.5.3.5 31Mar14 (build Mar 02 2015 18:14:16) complex

 executed on             LinuxIFC date 2018.08.10  14:35:45

 INCAR:
 POTCAR:   PAW_PBE C 08Apr2002
 POTCAR:   PAW_PBE C 08Apr2002
   VRHFIN =C: s2p2

   TITEL  = PAW_PBE C 08Apr2002
   POMASS =   12.011; ZVAL   =    4.000    mass and valenz
   ENMAX  =  400.000; ENMIN  =  300.000 eV
   QCUT   =   -5.516; QGAM   =   11.032    optimization parameters

   Description
     l     E      TYP  RCUT    TYP  RCUT
     0   .000     23  1.200
     0   .000     23  1.200
     1   .000     23  1.500
     1  2.500     23  1.500
     2   .000      7  1.500

 PAW_PBE C 08Apr2002                    :

 POSCAR: MD-kMC export data
  positions in direct lattice
  velocities in cartesian coordinates
 exchange correlation table for  LEXCH =        8
   RHO(1)=    0.500       N(1)  =     2000
   RHO(2)=  100.500       N(2)  =     4000

 ion  position               nearest neighbor table
   1  0.999  0.000  0.000-   2 1.43   2 1.43   4 1.46
   2  0.167  0.500  0.000-   1 1.43   1 1.43   3 1.46
   3  0.499  0.500  0.000-   4 1.43   4 1.43   2 1.46
   4  0.667  0.000  0.000-   3 1.43   3 1.43   1 1.46

  LATTYP: Found a simple orthorhombic cell.
 ALAT       =     2.4553403997
 B/A-ratio  =     1.7930441725
 C/A-ratio  =     7.9436951097

  Lattice vectors:

 A1 = (   0.0000000000,  -2.4553403997,   0.0000000000)
 A2 = (  -4.4025337953,   0.0000000000,   0.0000000000)
 A3 = (   0.0000000000,   0.0000000000, -19.5044755258)

Analysis of symmetry for initial positions (statically):
 Subroutine PRICEL returns following result:

  LATTYP: Found a base centered orthorhombic cell.
 ALAT       =     2.4553403997
 B/A-ratio  =     1.7930441725
 C/A-ratio  =     7.9436951097

[...]

   2 primitive cells build up your supercell.

 Routine SETGRP: Setting up the symmetry group for a
 simple orthorhombic supercell.

 Subroutine GETGRP returns: Found  8 space group operations
 (whereof  4 operations were pure point group operations)
 out of a pool of  8 trial point group operations.

The static configuration has the point symmetry C_2v.
 The point group associated with its full space group is D_2h.

Analysis of symmetry for dynamics (positions and initial velocities):
 Subroutine PRICEL returns following result:

  LATTYP: Found a base centered orthorhombic cell.
 ALAT       =     2.4553403997
 B/A-ratio  =     1.7930441725
 C/A-ratio  =     7.9436951097

  Lattice vectors:

 A1 = (   2.2012668976,  -1.2276701999,   0.0000000000)
 A2 = (  -2.2012668976,  -1.2276701999,   0.0000000000)
 A3 = (   0.0000000000,   0.0000000000, -19.5044755258)

   2 primitive cells build up your supercell.

 Routine SETGRP: Setting up the symmetry group for a
 simple orthorhombic supercell.

 Subroutine GETGRP returns: Found  8 space group operations
 (whereof  4 operations were pure point group operations)
 out of a pool of  8 trial point group operations.

The dynamic configuration has the point symmetry C_2v.
 The point group associated with its full space group is D_2h.

 KPOINTS: Automatic mesh

Automatic generation of k-mesh.
Space group operators:
 irot       det(A)        alpha          n_x          n_y          n_z        tau_x        tau_y        tau_z
    1     1.000000     0.000000     1.000000     0.000000     0.000000     0.000000     0.000000     0.000000
    2    -1.000000   179.999999     0.000000     0.000000     1.000000     0.000000     0.000000     0.000000
    3     1.000000   180.000000     1.000000     0.000000     0.000000     0.000000     0.000000     0.000000
    4    -1.000000   180.000000     0.000000     1.000000     0.000000     0.000000     0.000000     0.000000
    5    -1.000000     0.000000     1.000000     0.000000     0.000000     0.166667    -0.500000     0.000000
    6     1.000000   179.999999     0.000000     0.000000     1.000000     0.166667    -0.500000     0.000000
    7    -1.000000   180.000000     1.000000     0.000000     0.000000     0.166667    -0.500000     0.000000
    8     1.000000   180.000000     0.000000     1.000000     0.000000     0.166667    -0.500000     0.000000

 Subroutine IBZKPT returns following result:

 Found    247 irreducible k-points:

 Following reciprocal coordinates:
            Coordinates               Weight
  0.000000  0.000000  0.000000      1.000000
  0.041667  0.000000  0.000000      2.000000
  0.083333  0.000000  0.000000      2.000000
  0.125000  0.000000  0.000000      2.000000
  0.166667  0.000000  0.000000      2.000000
  0.208333  0.000000  0.000000      2.000000
  0.250000  0.000000  0.000000      2.000000
  0.291667  0.000000  0.000000      2.000000
  0.333333  0.000000  0.000000      2.000000
  0.375000  0.000000  0.000000      2.000000
  0.416667  0.000000  0.000000      2.000000
  0.458333  0.000000  0.000000      2.000000
  0.500000  0.000000  0.000000      1.000000
  0.000000  0.027778  0.000000      2.000000
  0.041667  0.027778  0.000000      4.000000
  0.083333  0.027778  0.000000      4.000000
  0.125000  0.027778  0.000000      4.000000
  0.166667  0.027778  0.000000      4.000000
  0.208333  0.027778  0.000000      4.000000
  0.250000  0.027778  0.000000      4.000000
  0.291667  0.027778  0.000000      4.000000
  0.333333  0.027778  0.000000      4.000000
  0.375000  0.027778  0.000000      4.000000
  0.416667  0.027778  0.000000      4.000000
  0.458333  0.027778  0.000000      4.000000
  0.500000  0.027778  0.000000      2.000000
  0.000000  0.055556  0.000000      2.000000
  0.041667  0.055556  0.000000      4.000000
  0.083333  0.055556  0.000000      4.000000
  0.125000  0.055556  0.000000      4.000000
  0.166667  0.055556  0.000000      4.000000
  0.208333  0.055556  0.000000      4.000000
  0.250000  0.055556  0.000000      4.000000
  0.291667  0.055556  0.000000      4.000000
  0.333333  0.055556  0.000000      4.000000
  0.375000  0.055556  0.000000      4.000000
  0.416667  0.055556  0.000000      4.000000
  0.458333  0.055556  0.000000      4.000000
  0.500000  0.055556  0.000000      2.000000
  0.000000  0.083333  0.000000      2.000000
  0.041667  0.083333  0.000000      4.000000
  0.083333  0.083333  0.000000      4.000000
  0.125000  0.083333  0.000000      4.000000
  0.166667  0.083333  0.000000      4.000000
  0.208333  0.083333  0.000000      4.000000
  0.250000  0.083333  0.000000      4.000000
  0.291667  0.083333  0.000000      4.000000
  0.333333  0.083333  0.000000      4.000000
  0.375000  0.083333  0.000000      4.000000
  0.416667  0.083333  0.000000      4.000000
  0.458333  0.083333  0.000000      4.000000
  0.500000  0.083333  0.000000      2.000000
  0.000000  0.111111  0.000000      2.000000
  0.041667  0.111111  0.000000      4.000000
  0.083333  0.111111  0.000000      4.000000
  0.125000  0.111111  0.000000      4.000000
  0.166667  0.111111  0.000000      4.000000
  0.208333  0.111111  0.000000      4.000000
  0.250000  0.111111  0.000000      4.000000
  0.291667  0.111111  0.000000      4.000000
[...]
  0.458333  0.472222  0.000000      4.000000
  0.500000  0.472222  0.000000      2.000000
  0.000000  0.500000  0.000000      1.000000
  0.041667  0.500000  0.000000      2.000000
  0.083333  0.500000  0.000000      2.000000
  0.125000  0.500000  0.000000      2.000000
  0.166667  0.500000  0.000000      2.000000
  0.208333  0.500000  0.000000      2.000000
  0.250000  0.500000  0.000000      2.000000
  0.291667  0.500000  0.000000      2.000000
  0.333333  0.500000  0.000000      2.000000
  0.375000  0.500000  0.000000      2.000000
  0.416667  0.500000  0.000000      2.000000
  0.458333  0.500000  0.000000      2.000000
  0.500000  0.500000  0.000000      1.000000

 Following cartesian coordinates:
            Coordinates               Weight
  0.000000  0.000000  0.000000      1.000000
  0.009464  0.000000  0.000000      2.000000
  0.018928  0.000000  0.000000      2.000000
  0.028393  0.000000  0.000000      2.000000
  0.037857  0.000000  0.000000      2.000000
  0.047321  0.000000  0.000000      2.000000
  0.056785  0.000000  0.000000      2.000000
  0.066250  0.000000  0.000000      2.000000
  0.075714  0.000000  0.000000      2.000000
  0.085178  0.000000  0.000000      2.000000
  0.094642  0.000000  0.000000      2.000000
  0.104107  0.000000  0.000000      2.000000
  0.113571  0.000000  0.000000      1.000000
  0.000000  0.011313  0.000000      2.000000
  0.009464  0.011313  0.000000      4.000000
  0.018928  0.011313  0.000000      4.000000
  0.028393  0.011313  0.000000      4.000000
  0.037857  0.011313  0.000000      4.000000
  0.047321  0.011313  0.000000      4.000000
  0.056785  0.011313  0.000000      4.000000
  0.066250  0.011313  0.000000      4.000000
  0.075714  0.011313  0.000000      4.000000
  0.085178  0.011313  0.000000      4.000000
  0.094642  0.011313  0.000000      4.000000
  0.104107  0.011313  0.000000      4.000000
  0.113571  0.011313  0.000000      2.000000
  0.000000  0.022626  0.000000      2.000000
  0.009464  0.022626  0.000000      4.000000
  0.018928  0.022626  0.000000      4.000000
  0.028393  0.022626  0.000000      4.000000
  0.037857  0.022626  0.000000      4.000000
  0.047321  0.022626  0.000000      4.000000
  0.056785  0.022626  0.000000      4.000000
  0.066250  0.022626  0.000000      4.000000
  0.075714  0.022626  0.000000      4.000000
  0.085178  0.022626  0.000000      4.000000
  0.094642  0.022626  0.000000      4.000000
  0.104107  0.022626  0.000000      4.000000
  0.113571  0.022626  0.000000      2.000000
  0.000000  0.033940  0.000000      2.000000
  0.009464  0.033940  0.000000      4.000000
  0.018928  0.033940  0.000000      4.000000
  0.028393  0.033940  0.000000      4.000000
  0.037857  0.033940  0.000000      4.000000
  0.047321  0.033940  0.000000      4.000000
  0.056785  0.033940  0.000000      4.000000
  0.066250  0.033940  0.000000      4.000000
  0.075714  0.033940  0.000000      4.000000
  0.085178  0.033940  0.000000      4.000000
  0.094642  0.033940  0.000000      4.000000
  0.104107  0.033940  0.000000      4.000000
  0.113571  0.033940  0.000000      2.000000
  0.000000  0.045253  0.000000      2.000000
  0.009464  0.045253  0.000000      4.000000
  0.018928  0.045253  0.000000      4.000000
  0.028393  0.045253  0.000000      4.000000
  0.037857  0.045253  0.000000      4.000000
  0.047321  0.045253  0.000000      4.000000
  0.056785  0.045253  0.000000      4.000000
  0.066250  0.045253  0.000000      4.000000
[...]
  0.104107  0.192325  0.000000      4.000000
  0.113571  0.192325  0.000000      2.000000
  0.000000  0.203638  0.000000      1.000000
  0.009464  0.203638  0.000000      2.000000
  0.018928  0.203638  0.000000      2.000000
  0.028393  0.203638  0.000000      2.000000
  0.037857  0.203638  0.000000      2.000000
  0.047321  0.203638  0.000000      2.000000
  0.056785  0.203638  0.000000      2.000000
  0.066250  0.203638  0.000000      2.000000
  0.075714  0.203638  0.000000      2.000000
  0.085178  0.203638  0.000000      2.000000
  0.094642  0.203638  0.000000      2.000000
  0.104107  0.203638  0.000000      2.000000
  0.113571  0.203638  0.000000      1.000000

 I would recommend the setting:
   dimension x,y,z NGX =    64 NGY =   36 NGZ =  284
[...]
 k-point ** :   0.4167 0.2778 0.0000  plane waves:   42856
 k-point ** :   0.4583 0.2778 0.0000  plane waves:   42857
 k-point ** :   0.5000 0.2778 0.0000  plane waves:   42870
 k-point ** :   0.0000 0.3056 0.0000  plane waves:   42816
 k-point ** :   0.0417 0.3056 0.0000  plane waves:   42816
 k-point ** :   0.0833 0.3056 0.0000  plane waves:   42824
 k-point ** :   0.1250 0.3056 0.0000  plane waves:   42863
 k-point ** :   0.1667 0.3056 0.0000  plane waves:   42877
 k-point ** :   0.2083 0.3056 0.0000  plane waves:   42868
 k-point ** :   0.2500 0.3056 0.0000  plane waves:   42842
 k-point ** :   0.2917 0.3056 0.0000  plane waves:   42853
 k-point ** :   0.3333 0.3056 0.0000  plane waves:   42853
 k-point ** :   0.3750 0.3056 0.0000  plane waves:   42858
 k-point ** :   0.4167 0.3056 0.0000  plane waves:   42865
 k-point ** :   0.4583 0.3056 0.0000  plane waves:   42877
 k-point ** :   0.5000 0.3056 0.0000  plane waves:   42902
 k-point ** :   0.0000 0.3333 0.0000  plane waves:   42832
 k-point ** :   0.0417 0.3333 0.0000  plane waves:   42832
 k-point ** :   0.0833 0.3333 0.0000  plane waves:   42826
[...]
 k-point ** :   0.4583 0.4722 0.0000  plane waves:   42958
 k-point ** :   0.5000 0.4722 0.0000  plane waves:   42960
 k-point ** :   0.0000 0.5000 0.0000  plane waves:   42746
 k-point ** :   0.0417 0.5000 0.0000  plane waves:   42750
 k-point ** :   0.0833 0.5000 0.0000  plane waves:   42796
 k-point ** :   0.1250 0.5000 0.0000  plane waves:   42810
 k-point ** :   0.1667 0.5000 0.0000  plane waves:   42838
 k-point ** :   0.2083 0.5000 0.0000  plane waves:   42864
 k-point ** :   0.2500 0.5000 0.0000  plane waves:   42896
 k-point ** :   0.2917 0.5000 0.0000  plane waves:   42952
 k-point ** :   0.3333 0.5000 0.0000  plane waves:   42966
 k-point ** :   0.3750 0.5000 0.0000  plane waves:   42970
 k-point ** :   0.4167 0.5000 0.0000  plane waves:   42932
 k-point ** :   0.4583 0.5000 0.0000  plane waves:   42960
 k-point ** :   0.5000 0.5000 0.0000  plane waves:   43008

 maximum and minimum number of plane-waves per node :     21524    21308

 maximum number of plane-waves:     43008
 maximum index in each direction:
   IXMAX=   16   IYMAX=    8   IZMAX=   71
   IXMIN=  -16   IYMIN=   -9   IZMIN=  -71

 WARNING: aliasing errors must be expected set NGX to  66 to avoid them
 NGY is ok and might be reduce to  36
 NGZ is ok and might be reduce to 286
 aliasing errors are usually negligible using standard VASP settings
 and one can safely disregard these warnings

 parallel 3D FFT for wavefunctions:
    minimum data exchange during FFTs selected (reduces bandwidth)
 parallel 3D FFT for charge:
    minimum data exchange during FFTs selected (reduces bandwidth)

 Broyden mixing: mesh for mixing (old mesh)
   NGX = 33   NGY = 17   NGZ =143
  (NGX  =128   NGY  = 72   NGZ  =576)
  gives a total of  80223 points

 initial charge density was supplied:
 charge density of overlapping atoms calculated
 number of electron      16.0000000 magnetization
 keeping initial charge density in first step

 Maximum index for augmentation-charges         4575 (set IRDMAX)

 First call to EWALD:  gamma=   0.298
 Maximum number of real-space cells 4x 6x 1
 Maximum number of reciprocal cells 2x 1x 8

 FEWALD executed in parallel

----------------------------------------- Iteration    1(   1)  ---------------------------------------

 eigenvalue-minimisations  :  5928
 total energy-change (2. order) : 0.1860216E+03  (-0.1062388E+04)
 number of electron      16.0000000 magnetization
 augmentation part       16.0000000 magnetization

 Free energy of the ion-electron system (eV)
  alpha Z        PSCENC =         6.18334092
  Ewald energy   TEWEN  =      2421.06234082
  -Hartree energ DENC   =     -2851.40584830
  -exchange      EXHF   =         0.00000000
  -V(xc)+E(xc)   XCENC  =        54.75808764
  PAW double counting   =       151.32577238     -155.92769107
  entropy T*S    EENTRO =        -0.00201101
  eigenvalues    EBANDS =       -28.59594533
  atomic energy  EATOM  =       588.62352690
  free energy    TOTEN  =       186.02157296 eV

  energy without entropy =      186.02358397  energy(sigma->0) =      186.02257846

[...]

 eigenvalue-minimisations  : 10360
 total energy-change (2. order) :-0.1952239E+03  (-0.1734236E+03)
 number of electron      16.0000000 magnetization
 augmentation part       16.0000000 magnetization

[...]

 Broyden mixing:
  rms(total) = 0.70241E+00    rms(broyden)= 0.70241E+00
  rms(prec ) = 0.76571E+00
  weight for this iteration     100.00

[...]

 eigenvalues of (default mixing * dielectric matrix)
  average eigenvalue GAMMA=   2.3189
  2.3189

[...]

WARNING in EDDRMM: call to ZHEGV failed, returncode =   6  3  1
WARNING in EDDRMM: call to ZHEGV failed, returncode =   6  3  1
WARNING in EDDRMM: call to ZHEGV failed, returncode =   6  3  1
WARNING in EDDRMM: call to ZHEGV failed, returncode =   6  3  1
WARNING in EDDRMM: call to ZHEGV failed, returncode =   6  3  1

[...]

 eigenvalue-minimisations  :  1919
 total energy-change (2. order) :-0.3600462E-09  ( 0.3900584E-13)
 number of electron      16.0000000 magnetization
 augmentation part        0.3706281 magnetization

[...]

 eigenvalue-minimisations  :  1644
 total energy-change (2. order) : 0.1531362E-09  ( 0.3766534E-13)
 number of electron      16.0000000 magnetization
 augmentation part        0.3706281 magnetization

[...]

 average (electrostatic) potential at core
  the test charge radii are     0.6991
  (the norm of the test charge is              1.0000)
       1 -58.3413       2 -58.3413       3 -58.3413       4 -58.3413

 E-fermi :  -2.8384     XC(G=0):  -2.1848     alpha+bet : -1.9046

 k-point     1 :       0.0000    0.0000    0.0000
  band No.  band energies     occupation
      1     -22.0443      2.00000
      2     -17.3040      2.00000
      3     -15.7998      2.00000
      4     -10.1974      2.00000
      5      -8.7347      2.00000
      6      -6.0477      2.00000
      7      -5.7176      2.00000
      8      -5.3811      2.00000
      9      -1.2056      0.00000
     10       0.5493      0.00000
     11       1.3467      0.00000
     12       1.7424      0.00000

[...]

 soft charge-density along one line, spin component           1
         0         1         2         3         4         5         6         7         8         9
 total charge-density along one line

------------------------ aborting loop because EDIFF is reached ----------------------------------------

  FORCE on cell =-STRESS in cart. coord.  units (eV):
  Direction    XX          YY          ZZ          XY          YZ          ZX
  Alpha Z     6.18334     6.18334     6.18334
  Ewald    2949.68719  2954.06254 -3482.68765    -0.00000     0.00000    -0.00000
  Hartree  2891.45506  2892.92261 -2868.96117     0.00000    -0.00000    -0.00000
  E(xc)     -57.87820   -57.91093   -60.21233     0.00000     0.00000     0.00000
  Local   -6014.90723 -6020.08045  6146.58605    -0.00000    -0.00000     0.00000
  n-local   -12.81854   -13.78463   -12.41995     0.07056     0.00000     0.00000
  augment    -1.46516    -1.46784    -1.36268    -0.00000     0.00000     0.00000
  Kinetic   233.23709   240.07640   272.87305    -4.42481    -0.00000     0.00000
  Fock        0.00000     0.00000     0.00000     0.00000     0.00000     0.00000
  Total      -6.50645     0.00103    -0.00133     0.00000     0.00000     0.00000
  in kB     -49.44312     0.00783    -0.01013     0.00000     0.00000     0.00000

 VOLUME and BASIS-vectors are now :
  energy-cutoff  :     2000.00
  volume of cell :      210.84
      direct lattice vectors                 reciprocal lattice vectors
     4.402533795  0.000000000  0.000000000     0.227141925  0.000000000  0.000000000
     0.000000000  2.455340400  0.000000000     0.000000000  0.407275504  0.000000000
     0.000000000  0.000000000 19.504475526     0.000000000  0.000000000  0.051270284

[...]

 FORCES acting on ions
    electron-ion (+dipol)            ewald-force                    non-local-force                 convergence-correction
   0.647E+01 0.682E-16 -.304E-08   -.646E+01 0.191E-14 0.116E-17   -.104E-01 0.347E-17 0.000E+00   0.194E-07 0.383E-13 -.611E-13
   -.647E+01 0.625E-14 -.121E-07   0.646E+01 -.204E-14 -.508E-19   0.104E-01 0.000E+00 0.000E+00   -.194E-07 -.941E-14 -.730E-13
   0.647E+01 -.214E-12 -.307E-08   -.646E+01 0.159E-14 -.119E-17   -.104E-01 0.347E-17 0.207E-24   0.194E-07 0.348E-13 -.582E-13
   -.647E+01 -.234E-15 -.121E-07   0.646E+01 -.236E-14 0.779E-19   0.104E-01 0.000E+00 0.103E-24   -.194E-07 -.573E-14 -.713E-13
   -.735E-06 -.207E-12 -.302E-07   0.444E-14 -.902E-15 0.481E-34   0.173E-17 0.694E-17 0.310E-24   -.123E-12 0.580E-13 -.264E-12

 POSITION                                       TOTAL-FORCE (eV/Angst)
      4.39985      0.00000      0.00000        -0.000808     -0.000000     -0.000000
      0.73644      1.22767      0.00000         0.000808      0.000000      0.000000
      2.19858      1.22767      0.00000        -0.000808      0.000000     -0.000000
      2.93771      0.00000      0.00000         0.000808     -0.000000      0.000000
    total drift:                               -0.000001     -0.000000     -0.000000

  FREE ENERGIE OF THE ION-ELECTRON SYSTEM (eV)
  free  energy   TOTEN  =       -36.82794841 eV

  energy  without entropy=      -36.82794841  energy(sigma->0) =      -36.82794841

 Quasi-Newton relaxation of ions (Broydens 2nd method)
  g(Force)  = 0.126E-06   g(Stress)= 0.000E+00

 Reset! Starting new Quasi-Newton update for ions

[...]

 d Force =-0.1621579E-06[-0.450E-06, 0.126E-06]  d Energy =-0.1731894E-06 0.110E-07
 d Force = 0.1005330E-02[ 0.100E-02, 0.101E-02]  d Ewald  = 0.1005330E-02-0.441E-10

[...]

 retain information from N=  1 steps
 eigenvalues of (default step * inverse Hessian matrix)
  average eigenvalue of G=   0.2185
 eigenvalue spectrum of G is  0.2185

[...]

WARNING in EDDRMM: call to ZHEGV failed, returncode =   6  3  1

[...]

 d Force = 0.1761987E-06[ 0.590E-09, 0.352E-06]  d Energy = 0.1849669E-06-0.877E-08
 d Force =-0.7855206E-03[-0.786E-03,-0.785E-03]  d Ewald  =-0.7855206E-03 0.218E-10

[...]

 eigenvalue-minimisations  :  1883
 total energy-change (2. order) : 0.1728040E-10  (-0.5988214E-13)
 number of electron      16.0000000 magnetization
 augmentation part        0.3706279 magnetization

[...]

 d Force =-0.1685727E-12[-0.133E-11, 0.993E-12]  d Energy =-0.5320544E-10 0.530E-10
 d Force =-0.1321743E-05[-0.132E-05,-0.132E-05]  d Ewald  =-0.1321743E-05-0.455E-12

[...]

 FEWALD executed in parallel

[...]

 eigenvalue-minimisations  :  4540
 total energy-change (2. order) : 0.5320544E-09  ( 0.5295479E-09)
 number of electron      16.0000000 magnetization
 augmentation part        0.3706279 magnetization

[...]

 eigenvalue-minimisations  :  1331
 total energy-change (2. order) :-0.4092726E-11  ( 0.8223874E-15)
 number of electron      16.0000000 magnetization
 augmentation part        0.3706279 magnetization

 Broyden mixing:
  rms(total) = 0.73627E-09    rms(broyden)= 0.73627E-09
  rms(prec ) = 0.12654E-08
  weight for this iteration     100.00

 eigenvalues of (default mixing * dielectric matrix)
  average eigenvalue GAMMA=   2.2182
  3.2642  2.5621  0.8283

[...]

----------------------------------------- Iteration    5(   5)  ---------------------------------------

 eigenvalue-minimisations  :  1332
 total energy-change (2. order) :-0.5911716E-11  (-0.1026340E-13)
 number of electron      16.0000000 magnetization
 augmentation part        0.3706279 magnetization

 Free energy of the ion-electron system (eV)
  alpha Z        PSCENC =         6.18334092
  Ewald energy   TEWEN  =      2421.06212157
  -Hartree energ DENC   =     -2915.41630931
  -exchange      EXHF   =         0.00000000
  -V(xc)+E(xc)   XCENC  =        57.06150939
  PAW double counting   =       267.12118573     -272.22506495
  entropy T*S    EENTRO =        -0.00000000
  eigenvalues    EBANDS =      -189.23825868
  atomic energy  EATOM  =       588.62352690
  free energy    TOTEN  =       -36.82794842 eV

  energy without entropy =      -36.82794842  energy(sigma->0) =      -36.82794842

 average (electrostatic) potential at core
  the test charge radii are     0.6991
  (the norm of the test charge is              1.0000)
       1 -58.3413       2 -58.3413       3 -58.3413       4 -58.3413

 E-fermi :  -2.8379     XC(G=0):  -2.1848     alpha+bet : -1.9046

[...]

 k-point   247 :       0.5000    0.5000    0.0000
  band No.  band energies     occupation
      1     -16.8086      2.00000
      2     -16.8086      2.00000
      3     -15.8342      2.00000
      4     -15.8342      2.00000
      5      -9.3272      2.00000
      6      -9.3272      2.00000
      7      -4.9907      2.00000
      8      -4.9907      2.00000
      9      -1.1699      0.00000
     10      -1.1699      0.00000
     11       3.7519      0.00000
     12       3.7519      0.00000

 soft charge-density along one line, spin component           1
         0         1         2         3         4         5         6         7         8         9
 total charge-density along one line

------------------------ aborting loop because EDIFF is reached ----------------------------------------

  FORCE on cell =-STRESS in cart. coord.  units (eV):
  Direction    XX          YY          ZZ          XY          YZ          ZX
  Alpha Z     6.18334     6.18334     6.18334
  Ewald    2949.69438  2954.05513 -3482.68765    -0.00000     0.00000    -0.00000
  Hartree  2891.45604  2892.92146 -2868.96119    -0.00000    -0.00000    -0.00000
  E(xc)     -57.87817   -57.91095   -60.21232    -0.00000    -0.00000    -0.00000
  Local   -6014.91415 -6020.07325  6146.58612    -0.00000     0.00000    -0.00000
  n-local   -12.81848   -13.78469   -12.41994     0.07055    -0.00000     0.00000
  augment    -1.46517    -1.46783    -1.36267     0.00000     0.00000    -0.00000
  Kinetic   233.23588   240.07748   272.87298    -4.42478    -0.00000    -0.00000
  Fock        0.00000     0.00000     0.00000     0.00000     0.00000     0.00000
  Total      -6.50632     0.00068    -0.00133     0.00000     0.00000     0.00000
  in kB     -49.44214     0.00518    -0.01013     0.00000     0.00000     0.00000

 VOLUME and BASIS-vectors are now :
  energy-cutoff  :     2000.00
  volume of cell :      210.84
      direct lattice vectors                 reciprocal lattice vectors
     4.402533795  0.000000000  0.000000000     0.227141925  0.000000000  0.000000000
     0.000000000  2.455340400  0.000000000     0.000000000  0.407275504  0.000000000
     0.000000000  0.000000000 19.504475526     0.000000000  0.000000000  0.051270284

  length of vectors
     4.402533795  2.455340400 19.504475526     0.227141925  0.407275504  0.051270284

 FORCES acting on ions
    electron-ion (+dipol)            ewald-force                    non-local-force                 convergence-correction
   0.647E+01 0.588E-15 -.304E-08   -.646E+01 -.911E-15 -.111E-17   -.101E-01 0.000E+00 0.000E+00   -.240E-08 0.774E-16 -.323E-11
   -.647E+01 -.144E-13 -.121E-07   0.646E+01 -.223E-14 0.111E-17   0.101E-01 -.694E-17 0.000E+00   0.240E-08 -.102E-14 -.324E-11
   0.647E+01 -.262E-12 -.305E-08   -.646E+01 0.177E-14 0.198E-17   -.101E-01 0.000E+00 -.808E-27   -.240E-08 -.589E-15 -.326E-11
   -.647E+01 0.294E-15 -.121E-07   0.646E+01 0.460E-15 -.198E-17   0.101E-01 -.694E-17 0.808E-27   0.240E-08 -.371E-15 -.326E-11
   -.735E-06 -.275E-12 -.303E-07   0.444E-14 -.902E-15 0.000E+00   -.347E-17 -.139E-16 0.000E+00   0.189E-14 -.190E-14 -.130E-10

 POSITION                                       TOTAL-FORCE (eV/Angst)
      4.39984     -0.00000     -0.00000         0.000000      0.000000      0.000000
      0.73645      1.22767      0.00000        -0.000000     -0.000000     -0.000000
      2.19857      1.22767     -0.00000         0.000000      0.000000      0.000000
      2.93772     -0.00000      0.00000        -0.000000     -0.000000     -0.000000
    total drift:                               -0.000001     -0.000000     -0.000000

  FREE ENERGIE OF THE ION-ELECTRON SYSTEM (eV)
  free  energy   TOTEN  =       -36.82794842 eV

  energy  without entropy=      -36.82794842  energy(sigma->0) =      -36.82794842

 d Force = 0.3769265E-12[-0.763E-14, 0.761E-12]  d Energy = 0.3865352E-10-0.383E-10
 d Force = 0.7567985E-06[ 0.757E-06, 0.757E-06]  d Ewald  = 0.7567983E-06 0.455E-12

 Quasi-Newton relaxation of ions (Broydens 2nd method)
  g(Force)  = 0.818E-15   g(Stress)= 0.000E+00

 retain information from N=  1 steps
 eigenvalues of (default step * inverse Hessian matrix)
  average eigenvalue of G=   0.0926
 eigenvalue spectrum of G is  0.0926

 reached required accuracy - stopping structural energy minimisation