 vasp.5.3.5 31Mar14 (build Mar 02 2015 18:14:16) complex

 executed on             LinuxIFC date 2018.08.09  18:55:56

 INCAR:
 POTCAR:   PAW_PBE C 08Apr2002
 POTCAR:   PAW_PBE C 08Apr2002
   VRHFIN =C: s2p2

   TITEL  = PAW_PBE C 08Apr2002
   POMASS =   12.011; ZVAL   =    4.000    mass and valenz
   ENMAX  =  400.000; ENMIN  =  300.000 eV
   QCUT   =   -5.516; QGAM   =   11.032    optimization parameters

   Description
     l     E      TYP  RCUT    TYP  RCUT
     0   .000     23  1.200
     0   .000     23  1.200
     1   .000     23  1.500
     1  2.500     23  1.500
     2   .000      7  1.500

 PAW_PBE C 08Apr2002                    :

 POSCAR: MD-kMC export data
  positions in direct lattice
  velocities in cartesian coordinates
 exchange correlation table for  LEXCH =        8
   RHO(1)=    0.500       N(1)  =     2000
   RHO(2)=  100.500       N(2)  =     4000

 ion  position               nearest neighbor table
   1  0.000  0.000  0.000-   4 1.42   2 1.43   2 1.43
   2  0.167  0.500  0.000-   3 1.42   1 1.43   1 1.43
   3  0.500  0.500  0.000-   2 1.42   4 1.43   4 1.43
   4  0.667  0.000  0.000-   1 1.42   3 1.43   3 1.43

  LATTYP: Found a simple orthorhombic cell.
 ALAT       =     2.4801298625
 B/A-ratio  =     1.7213654270
 C/A-ratio  =     8.0288315075

  Lattice vectors:

 A1 = (   0.0000000000,  -2.4801298625,   0.0000000000)
 A2 = (  -4.2692097997,   0.0000000000,   0.0000000000)
 A3 = (   0.0000000000,   0.0000000000, -19.9125447828)

Analysis of symmetry for initial positions (statically):
 Subroutine PRICEL returns following result:

  LATTYP: Found a base centered orthorhombic cell.
 ALAT       =     2.4801298625
 B/A-ratio  =     1.7213654270
 C/A-ratio  =     8.0288315075

[...]

   2 primitive cells build up your supercell.

 Routine SETGRP: Setting up the symmetry group for a
 simple orthorhombic supercell.

 Subroutine GETGRP returns: Found  8 space group operations
 (whereof  4 operations were pure point group operations)
 out of a pool of  8 trial point group operations.

The static configuration has the point symmetry C_2v.
 The point group associated with its full space group is D_2h.

Analysis of symmetry for dynamics (positions and initial velocities):
 Subroutine PRICEL returns following result:

  LATTYP: Found a base centered orthorhombic cell.
 ALAT       =     2.4801298625
 B/A-ratio  =     1.7213654270
 C/A-ratio  =     8.0288315075

  Lattice vectors:

 A1 = (   2.1346048999,  -1.2400649313,   0.0000000000)
 A2 = (  -2.1346048999,  -1.2400649313,   0.0000000000)
 A3 = (   0.0000000000,   0.0000000000, -19.9125447828)

   2 primitive cells build up your supercell.

 Routine SETGRP: Setting up the symmetry group for a
 simple orthorhombic supercell.

 Subroutine GETGRP returns: Found  8 space group operations
 (whereof  4 operations were pure point group operations)
 out of a pool of  8 trial point group operations.

The dynamic configuration has the point symmetry C_2v.
 The point group associated with its full space group is D_2h.

 KPOINTS: Automatic mesh

Automatic generation of k-mesh.
Space group operators:
 irot       det(A)        alpha          n_x          n_y          n_z        tau_x        tau_y        tau_z
    1     1.000000     0.000001     1.000000     0.000000     0.000000     0.000000     0.000000     0.000000
    2    -1.000000   180.000000     0.000000     0.000000     1.000000     0.000000     0.000000     0.000000
    3     1.000000   180.000000     1.000000     0.000000     0.000000     0.000000     0.000000     0.000000
    4    -1.000000   180.000000     0.000000     1.000000     0.000000     0.000000     0.000000     0.000000
    5    -1.000000     0.000001     1.000000     0.000000     0.000000     0.166667    -0.500000     0.000000
    6     1.000000   180.000000     0.000000     0.000000     1.000000     0.166667    -0.500000     0.000000
    7    -1.000000   180.000000     1.000000     0.000000     0.000000     0.166667    -0.500000     0.000000
    8     1.000000   180.000000     0.000000     1.000000     0.000000     0.166667    -0.500000     0.000000

 Subroutine IBZKPT returns following result:

 Found    247 irreducible k-points:

 Following reciprocal coordinates:
            Coordinates               Weight
  0.000000  0.000000  0.000000      1.000000
  0.041667  0.000000  0.000000      2.000000
  0.083333  0.000000  0.000000      2.000000
  0.125000  0.000000  0.000000      2.000000
  0.166667  0.000000  0.000000      2.000000
  0.208333  0.000000  0.000000      2.000000
  0.250000  0.000000  0.000000      2.000000
  0.291667  0.000000  0.000000      2.000000
  0.333333  0.000000  0.000000      2.000000
  0.375000  0.000000  0.000000      2.000000
  0.416667  0.000000  0.000000      2.000000
  0.458333  0.000000  0.000000      2.000000
  0.500000  0.000000  0.000000      1.000000
  0.000000  0.027778  0.000000      2.000000
  0.041667  0.027778  0.000000      4.000000
  0.083333  0.027778  0.000000      4.000000
  0.125000  0.027778  0.000000      4.000000
  0.166667  0.027778  0.000000      4.000000
  0.208333  0.027778  0.000000      4.000000
  0.250000  0.027778  0.000000      4.000000
  0.291667  0.027778  0.000000      4.000000
  0.333333  0.027778  0.000000      4.000000
  0.375000  0.027778  0.000000      4.000000
  0.416667  0.027778  0.000000      4.000000
  0.458333  0.027778  0.000000      4.000000
  0.500000  0.027778  0.000000      2.000000
  0.000000  0.055556  0.000000      2.000000
  0.041667  0.055556  0.000000      4.000000
  0.083333  0.055556  0.000000      4.000000
  0.125000  0.055556  0.000000      4.000000
  0.166667  0.055556  0.000000      4.000000
  0.208333  0.055556  0.000000      4.000000
  0.250000  0.055556  0.000000      4.000000
  0.291667  0.055556  0.000000      4.000000
  0.333333  0.055556  0.000000      4.000000
  0.375000  0.055556  0.000000      4.000000
  0.416667  0.055556  0.000000      4.000000
  0.458333  0.055556  0.000000      4.000000
  0.500000  0.055556  0.000000      2.000000
  0.000000  0.083333  0.000000      2.000000
  0.041667  0.083333  0.000000      4.000000
  0.083333  0.083333  0.000000      4.000000
  0.125000  0.083333  0.000000      4.000000
  0.166667  0.083333  0.000000      4.000000
  0.208333  0.083333  0.000000      4.000000
  0.250000  0.083333  0.000000      4.000000
  0.291667  0.083333  0.000000      4.000000
  0.333333  0.083333  0.000000      4.000000
  0.375000  0.083333  0.000000      4.000000
  0.416667  0.083333  0.000000      4.000000
  0.458333  0.083333  0.000000      4.000000
  0.500000  0.083333  0.000000      2.000000
  0.000000  0.111111  0.000000      2.000000
  0.041667  0.111111  0.000000      4.000000
  0.083333  0.111111  0.000000      4.000000
  0.125000  0.111111  0.000000      4.000000
  0.166667  0.111111  0.000000      4.000000
  0.208333  0.111111  0.000000      4.000000
  0.250000  0.111111  0.000000      4.000000
  0.291667  0.111111  0.000000      4.000000
[...]
  0.458333  0.472222  0.000000      4.000000
  0.500000  0.472222  0.000000      2.000000
  0.000000  0.500000  0.000000      1.000000
  0.041667  0.500000  0.000000      2.000000
  0.083333  0.500000  0.000000      2.000000
  0.125000  0.500000  0.000000      2.000000
  0.166667  0.500000  0.000000      2.000000
  0.208333  0.500000  0.000000      2.000000
  0.250000  0.500000  0.000000      2.000000
  0.291667  0.500000  0.000000      2.000000
  0.333333  0.500000  0.000000      2.000000
  0.375000  0.500000  0.000000      2.000000
  0.416667  0.500000  0.000000      2.000000
  0.458333  0.500000  0.000000      2.000000
  0.500000  0.500000  0.000000      1.000000

 Following cartesian coordinates:
            Coordinates               Weight
  0.000000  0.000000  0.000000      1.000000
  0.009760  0.000000  0.000000      2.000000
  0.019520  0.000000  0.000000      2.000000
  0.029279  0.000000  0.000000      2.000000
  0.039039  0.000000  0.000000      2.000000
  0.048799  0.000000  0.000000      2.000000
  0.058559  0.000000  0.000000      2.000000
  0.068319  0.000000  0.000000      2.000000
  0.078078  0.000000  0.000000      2.000000
  0.087838  0.000000  0.000000      2.000000
  0.097598  0.000000  0.000000      2.000000
  0.107358  0.000000  0.000000      2.000000
  0.117118  0.000000  0.000000      1.000000
  0.000000  0.011200  0.000000      2.000000
  0.009760  0.011200  0.000000      4.000000
  0.019520  0.011200  0.000000      4.000000
  0.029279  0.011200  0.000000      4.000000
  0.039039  0.011200  0.000000      4.000000
  0.048799  0.011200  0.000000      4.000000
  0.058559  0.011200  0.000000      4.000000
  0.068319  0.011200  0.000000      4.000000
  0.078078  0.011200  0.000000      4.000000
  0.087838  0.011200  0.000000      4.000000
  0.097598  0.011200  0.000000      4.000000
  0.107358  0.011200  0.000000      4.000000
  0.117118  0.011200  0.000000      2.000000
  0.000000  0.022400  0.000000      2.000000
  0.009760  0.022400  0.000000      4.000000
  0.019520  0.022400  0.000000      4.000000
  0.029279  0.022400  0.000000      4.000000
  0.039039  0.022400  0.000000      4.000000
  0.048799  0.022400  0.000000      4.000000
  0.058559  0.022400  0.000000      4.000000
  0.068319  0.022400  0.000000      4.000000
  0.078078  0.022400  0.000000      4.000000
  0.087838  0.022400  0.000000      4.000000
  0.097598  0.022400  0.000000      4.000000
  0.107358  0.022400  0.000000      4.000000
  0.117118  0.022400  0.000000      2.000000
  0.000000  0.033600  0.000000      2.000000
  0.009760  0.033600  0.000000      4.000000
  0.019520  0.033600  0.000000      4.000000
  0.029279  0.033600  0.000000      4.000000
  0.039039  0.033600  0.000000      4.000000
  0.048799  0.033600  0.000000      4.000000
  0.058559  0.033600  0.000000      4.000000
  0.068319  0.033600  0.000000      4.000000
  0.078078  0.033600  0.000000      4.000000
  0.087838  0.033600  0.000000      4.000000
  0.097598  0.033600  0.000000      4.000000
  0.107358  0.033600  0.000000      4.000000
  0.117118  0.033600  0.000000      2.000000
  0.000000  0.044801  0.000000      2.000000
  0.009760  0.044801  0.000000      4.000000
  0.019520  0.044801  0.000000      4.000000
  0.029279  0.044801  0.000000      4.000000
  0.039039  0.044801  0.000000      4.000000
  0.048799  0.044801  0.000000      4.000000
  0.058559  0.044801  0.000000      4.000000
  0.068319  0.044801  0.000000      4.000000
[...]
  0.107358  0.190402  0.000000      4.000000
  0.117118  0.190402  0.000000      2.000000
  0.000000  0.201602  0.000000      1.000000
  0.009760  0.201602  0.000000      2.000000
  0.019520  0.201602  0.000000      2.000000
  0.029279  0.201602  0.000000      2.000000
  0.039039  0.201602  0.000000      2.000000
  0.048799  0.201602  0.000000      2.000000
  0.058559  0.201602  0.000000      2.000000
  0.068319  0.201602  0.000000      2.000000
  0.078078  0.201602  0.000000      2.000000
  0.087838  0.201602  0.000000      2.000000
  0.097598  0.201602  0.000000      2.000000
  0.107358  0.201602  0.000000      2.000000
  0.117118  0.201602  0.000000      1.000000

 I would recommend the setting:
   dimension x,y,z NGX =    62 NGY =   36 NGZ =  290
[...]
 k-point ** :   0.4583 0.2778 0.0000  plane waves:   42798
 k-point ** :   0.5000 0.2778 0.0000  plane waves:   42798
 k-point ** :   0.0000 0.3056 0.0000  plane waves:   42908
 k-point ** :   0.0417 0.3056 0.0000  plane waves:   42944
 k-point ** :   0.0833 0.3056 0.0000  plane waves:   42917
 k-point ** :   0.1250 0.3056 0.0000  plane waves:   42882
 k-point ** :   0.1667 0.3056 0.0000  plane waves:   42865
 k-point ** :   0.2083 0.3056 0.0000  plane waves:   42867
 k-point ** :   0.2500 0.3056 0.0000  plane waves:   42856
 k-point ** :   0.2917 0.3056 0.0000  plane waves:   42823
 k-point ** :   0.3333 0.3056 0.0000  plane waves:   42816
 k-point ** :   0.3750 0.3056 0.0000  plane waves:   42818
 k-point ** :   0.4167 0.3056 0.0000  plane waves:   42816
 k-point ** :   0.4583 0.3056 0.0000  plane waves:   42815
 k-point ** :   0.5000 0.3056 0.0000  plane waves:   42804
 k-point ** :   0.0000 0.3333 0.0000  plane waves:   42926
 k-point ** :   0.0417 0.3333 0.0000  plane waves:   42927
 k-point ** :   0.0833 0.3333 0.0000  plane waves:   42896
[...]
 k-point ** :   0.4583 0.4722 0.0000  plane waves:   42791
 k-point ** :   0.5000 0.4722 0.0000  plane waves:   42814
 k-point ** :   0.0000 0.5000 0.0000  plane waves:   42918
 k-point ** :   0.0417 0.5000 0.0000  plane waves:   42904
 k-point ** :   0.0833 0.5000 0.0000  plane waves:   42932
 k-point ** :   0.1250 0.5000 0.0000  plane waves:   42908
 k-point ** :   0.1667 0.5000 0.0000  plane waves:   42932
 k-point ** :   0.2083 0.5000 0.0000  plane waves:   42950
 k-point ** :   0.2500 0.5000 0.0000  plane waves:   42922
 k-point ** :   0.2917 0.5000 0.0000  plane waves:   42910
 k-point ** :   0.3333 0.5000 0.0000  plane waves:   42862
 k-point ** :   0.3750 0.5000 0.0000  plane waves:   42812
 k-point ** :   0.4167 0.5000 0.0000  plane waves:   42804
 k-point ** :   0.4583 0.5000 0.0000  plane waves:   42766
 k-point ** :   0.5000 0.5000 0.0000  plane waves:   42764

 maximum and minimum number of plane-waves per node :     21488    21328

 maximum number of plane-waves:     42950
 maximum index in each direction:
   IXMAX=   15   IYMAX=    9   IZMAX=   72
   IXMIN=  -16   IYMIN=   -9   IZMIN=  -72

 NGX is ok and might be reduce to  64
 WARNING: aliasing errors must be expected set NGY to  38 to avoid them
 NGZ is ok and might be reduce to 290
 aliasing errors are usually negligible using standard VASP settings
 and one can safely disregard these warnings

 parallel 3D FFT for wavefunctions:
    minimum data exchange during FFTs selected (reduces bandwidth)
 parallel 3D FFT for charge:
    minimum data exchange during FFTs selected (reduces bandwidth)

 Broyden mixing: mesh for mixing (old mesh)
   NGX = 31   NGY = 19   NGZ =145
  (NGX  =128   NGY  = 72   NGZ  =588)
  gives a total of  85405 points

 initial charge density was supplied:
 charge density of overlapping atoms calculated
 number of electron      16.0000000 magnetization
 keeping initial charge density in first step

 Maximum index for augmentation-charges         4661 (set IRDMAX)

 First call to EWALD:  gamma=   0.298
 Maximum number of real-space cells 4x 6x 1
 Maximum number of reciprocal cells 2x 1x 8

 FEWALD executed in parallel

----------------------------------------- Iteration    1(   1)  ---------------------------------------

 eigenvalue-minimisations  :  5928
 total energy-change (2. order) : 0.1885603E+03  (-0.1059248E+04)
 number of electron      16.0000000 magnetization
 augmentation part       16.0000000 magnetization

 Free energy of the ion-electron system (eV)
  alpha Z        PSCENC =         6.18334092
  Ewald energy   TEWEN  =      2557.26266852
  -Hartree energ DENC   =     -2983.52797646
  -exchange      EXHF   =         0.00000000
  -V(xc)+E(xc)   XCENC  =        55.03796106
  PAW double counting   =       151.32577238     -155.92769107
  entropy T*S    EENTRO =        -0.00193300
  eigenvalues    EBANDS =       -30.41536309
  atomic energy  EATOM  =       588.62352690
  free energy    TOTEN  =       188.56030616 eV

  energy without entropy =      188.56223917  energy(sigma->0) =      188.56127266

[...]

 eigenvalue-minimisations  : 10476
 total energy-change (2. order) :-0.1976838E+03  (-0.1761544E+03)
 number of electron      16.0000000 magnetization
 augmentation part       16.0000000 magnetization

[...]

 Broyden mixing:
  rms(total) = 0.72825E+00    rms(broyden)= 0.72825E+00
  rms(prec ) = 0.79227E+00
  weight for this iteration     100.00

[...]

 eigenvalues of (default mixing * dielectric matrix)
  average eigenvalue GAMMA=   2.3106
  2.3106

[...]

WARNING in EDDRMM: call to ZHEGV failed, returncode =   6  3  1

[...]

 average (electrostatic) potential at core
  the test charge radii are     0.6991
  (the norm of the test charge is              1.0000)
       1 -58.2157       2 -58.2157       3 -58.2157       4 -58.2157

 E-fermi :  -2.7690     XC(G=0):  -2.1499     alpha+bet : -1.9046

 k-point     1 :       0.0000    0.0000    0.0000
  band No.  band energies     occupation
      1     -22.2175      2.00000
      2     -16.9531      2.00000
      3     -15.9499      2.00000
      4     -10.3310      2.00000
      5      -9.2294      2.00000
      6      -5.8329      2.00000
      7      -5.7741      2.00000
      8      -5.0662      2.00000
      9      -1.0878      0.00000
     10       0.5281      0.00000
     11       1.3285      0.00000
     12       1.7336      0.00000

[...]

 soft charge-density along one line, spin component           1
         0         1         2         3         4         5         6         7         8         9
 total charge-density along one line

------------------------ aborting loop because EDIFF is reached ----------------------------------------

  FORCE on cell =-STRESS in cart. coord.  units (eV):
  Direction    XX          YY          ZZ          XY          YZ          ZX
  Alpha Z     6.18334     6.18334     6.18334
  Ewald    3093.94451  3093.25838 -3629.94047     0.00000     0.00000     0.00000
  Hartree  3028.64124  3028.41210 -3005.77185    -0.00000    -0.00000    -0.00000
  E(xc)     -58.26563   -58.25953   -60.59790    -0.00000    -0.00000    -0.00000
  Local   -6295.15162 -6294.35714  6429.74538     0.00000    -0.00000    -0.00000
  n-local   -13.92508   -13.74762   -12.70737     0.06320     0.00000    -0.00000
  augment    -1.52891    -1.52811    -1.40542    -0.00000     0.00000    -0.00000
  Kinetic   240.10368   238.88579   274.49297    -4.61031    -0.00000     0.00000
  Fock        0.00000     0.00000     0.00000     0.00000     0.00000     0.00000
  Total       0.00154    -1.15280    -0.00132     0.00000     0.00000     0.00000
  in kB       0.01169    -8.76023    -0.01004     0.00000     0.00000     0.00000

 VOLUME and BASIS-vectors are now :
  energy-cutoff  :     2000.00
  volume of cell :      210.84
      direct lattice vectors                 reciprocal lattice vectors
     4.269209800  0.000000000  0.000000000     0.234235385  0.000000000  0.000000000
     0.000000000  2.480129863  0.000000000     0.000000000  0.403204693  0.000000000
     0.000000000  0.000000000 19.912544783     0.000000000  0.000000000  0.050219598

[...]

 FORCES acting on ions
    electron-ion (+dipol)            ewald-force                    non-local-force                 convergence-correction
   -.115E+01 -.487E-15 0.289E-09   0.115E+01 0.165E-14 0.233E-31   -.635E-03 -.104E-16 0.000E+00   0.399E-07 -.664E-15 0.195E-12
   0.115E+01 0.108E-13 -.457E-08   -.115E+01 0.378E-15 -.168E-17   0.635E-03 0.104E-16 -.207E-24   -.399E-07 -.154E-15 0.196E-12
   -.115E+01 0.588E-12 0.302E-09   0.115E+01 -.397E-14 -.233E-31   -.635E-03 -.104E-16 0.000E+00   0.399E-07 -.667E-15 0.195E-12
   0.115E+01 0.114E-15 -.458E-08   -.115E+01 -.525E-14 0.168E-17   0.635E-03 -.104E-16 -.207E-24   -.399E-07 -.178E-15 0.196E-12
   -.362E-06 0.598E-12 -.856E-08   -.466E-14 -.719E-14 0.000E+00   0.000E+00 -.208E-16 -.414E-24   0.598E-13 -.166E-14 0.783E-12

 POSITION                                       TOTAL-FORCE (eV/Angst)
      0.00056      0.00000      0.00000         0.001781      0.000000     -0.000000
      0.71097      1.24006      0.00000        -0.001781      0.000000      0.000000
      2.13517      1.24006      0.00000         0.001781      0.000000     -0.000000
      2.84558      0.00000      0.00000        -0.001781     -0.000000      0.000000
    total drift:                               -0.000000      0.000000     -0.000000

  FREE ENERGIE OF THE ION-ELECTRON SYSTEM (eV)
  free  energy   TOTEN  =       -36.92247684 eV

  energy  without entropy=      -36.92239140  energy(sigma->0) =      -36.92243412

 Quasi-Newton relaxation of ions (Broydens 2nd method)
  g(Force)  = 0.612E-06   g(Stress)= 0.000E+00

 Reset! Starting new Quasi-Newton update for ions

[...]

WARNING in EDDRMM: call to ZHEGV failed, returncode =   6  3  1

[...]

 d Force =-0.9257522E-06[-0.246E-05, 0.612E-06]  d Energy =-0.9312453E-06 0.549E-08
 d Force = 0.3909748E-03[ 0.386E-03, 0.396E-03]  d Ewald  = 0.3909743E-03 0.505E-09

[...]

 retain information from N=  1 steps
 eigenvalues of (default step * inverse Hessian matrix)
  average eigenvalue of G=   0.1990
 eigenvalue spectrum of G is  0.1990

[...]

 d Force = 0.9880712E-06[ 0.280E-08, 0.197E-05]  d Energy = 0.9912477E-06-0.318E-08
 d Force =-0.3123295E-03[-0.316E-03,-0.309E-03]  d Ewald  =-0.3123292E-03-0.260E-09

[...]

 eigenvalue-minimisations  :  4932
 total energy-change (2. order) : 0.3528839E-09  ( 0.5682085E-09)
 number of electron      16.0000000 magnetization
 augmentation part        0.3799007 magnetization

[...]

 eigenvalue-minimisations  :  3099
 total energy-change (2. order) :-0.1972467E-09  ( 0.8193035E-14)
 number of electron      16.0000000 magnetization
 augmentation part        0.3799007 magnetization

[...]

 d Force =-0.4233691E-12[-0.483E-11, 0.398E-11]  d Energy = 0.1682565E-09-0.169E-09
 d Force =-0.4486015E-06[-0.449E-06,-0.449E-06]  d Ewald  =-0.4486019E-06 0.455E-12

[...]

 d Force = 0.1515783E-11[ 0.386E-12, 0.265E-11]  d Energy =-0.1168701E-09 0.118E-09
 d Force = 0.2458713E-06[ 0.246E-06, 0.246E-06]  d Ewald  = 0.2458714E-06 0.000E+00

[...]

 eigenvalue-minimisations  :   598
 total energy-change (2. order) :-0.4740741E-09  (-0.1229469E-14)
 number of electron      16.0000000 magnetization
 augmentation part        0.3799007 magnetization

[...]

 eigenvalue-minimisations  :   435
 total energy-change (2. order) : 0.1416538E-09  (-0.1134895E-14)
 number of electron      16.0000000 magnetization
 augmentation part        0.3799007 magnetization

[...]

 d Force = 0.5569459E-13[ 0.453E-13, 0.661E-13]  d Energy =-0.8378720E-10 0.838E-10
 d Force = 0.4207018E-07[ 0.421E-07, 0.421E-07]  d Ewald  = 0.4207004E-07 0.000E+00

[...]

 FEWALD executed in parallel

[...]

 eigenvalue-minimisations  :   442
 total energy-change (2. order) :-0.1579110E-09  ( 0.0000000E+00)
 number of electron      16.0000000 magnetization
 augmentation part        0.3799007 magnetization

 Broyden mixing:
  rms(total) = 0.19350E-09    rms(broyden)= 0.19345E-09
  rms(prec ) = 0.20321E-09
  weight for this iteration     100.00

 eigenvalues of (default mixing * dielectric matrix)
  average eigenvalue GAMMA=   2.0225
  2.6508  2.5601  0.8566

[...]

----------------------------------------- Iteration    7(   5)  ---------------------------------------

 eigenvalue-minimisations  :   252
 total energy-change (2. order) : 0.7651124E-10  ( 0.0000000E+00)
 number of electron      16.0000000 magnetization
 augmentation part        0.3799007 magnetization

 Free energy of the ion-electron system (eV)
  alpha Z        PSCENC =         6.18334092
  Ewald energy   TEWEN  =      2557.26258994
  -Hartree energ DENC   =     -3051.28143722
  -exchange      EXHF   =         0.00000000
  -V(xc)+E(xc)   XCENC  =        57.44160900
  PAW double counting   =       275.30029242     -280.44105551
  entropy T*S    EENTRO =        -0.00008594
  eigenvalues    EBANDS =      -190.01125741
  atomic energy  EATOM  =       588.62352690
  free energy    TOTEN  =       -36.92247690 eV

  energy without entropy =      -36.92239096  energy(sigma->0) =      -36.92243393

 average (electrostatic) potential at core
  the test charge radii are     0.6991
  (the norm of the test charge is              1.0000)
       1 -58.2157       2 -58.2157       3 -58.2157       4 -58.2157

 E-fermi :  -2.7690     XC(G=0):  -2.1495     alpha+bet : -1.9046

[...]

 k-point   247 :       0.5000    0.5000    0.0000
  band No.  band energies     occupation
      1     -17.0432      2.00000
      2     -17.0432      2.00000
      3     -15.9463      2.00000
      4     -15.9463      2.00000
      5      -9.1185      2.00000
      6      -9.1185      2.00000
      7      -5.1362      2.00000
      8      -5.1362      2.00000
      9      -1.0966      0.00000
     10      -1.0966      0.00000
     11       4.6057      0.00000
     12       4.6057      0.00000

 soft charge-density along one line, spin component           1
         0         1         2         3         4         5         6         7         8         9
 total charge-density along one line

------------------------ aborting loop because EDIFF is reached ----------------------------------------

  FORCE on cell =-STRESS in cart. coord.  units (eV):
  Direction    XX          YY          ZZ          XY          YZ          ZX
  Alpha Z     6.18334     6.18334     6.18334
  Ewald    3093.92958  3093.27323 -3629.94047     0.00000     0.00000     0.00000
  Hartree  3028.63918  3028.41412 -3005.77186    -0.00000    -0.00000    -0.00000
  E(xc)     -58.26569   -58.25947   -60.59790     0.00000    -0.00000    -0.00000
  Local   -6295.13750 -6294.37118  6429.74540    -0.00000     0.00000     0.00000
  n-local   -13.92520   -13.74750   -12.70737     0.06322     0.00000     0.00000
  augment    -1.52889    -1.52814    -1.40542     0.00000    -0.00000    -0.00000
  Kinetic   240.10597   238.88345   274.49295    -4.61038    -0.00000    -0.00000
  Fock        0.00000     0.00000     0.00000     0.00000     0.00000     0.00000
  Total       0.00080    -1.15214    -0.00132     0.00000     0.00000     0.00000
  in kB       0.00607    -8.75521    -0.01001     0.00000     0.00000     0.00000

 VOLUME and BASIS-vectors are now :
  energy-cutoff  :     2000.00
  volume of cell :      210.84
      direct lattice vectors                 reciprocal lattice vectors
     4.269209800  0.000000000  0.000000000     0.234235385  0.000000000  0.000000000
     0.000000000  2.480129863  0.000000000     0.000000000  0.403204693  0.000000000
     0.000000000  0.000000000 19.912544783     0.000000000  0.000000000  0.050219598

  length of vectors
     4.269209800  2.480129863 19.912544783     0.234235385  0.403204693  0.050219598

 FORCES acting on ions
    electron-ion (+dipol)            ewald-force                    non-local-force                 convergence-correction
   -.115E+01 0.288E-15 0.296E-09   0.115E+01 -.704E-14 0.508E-19   -.127E-02 -.694E-17 0.162E-26   -.189E-10 0.612E-15 0.167E-12
   0.115E+01 -.184E-12 -.455E-08   -.115E+01 0.749E-14 -.239E-18   0.127E-02 -.173E-16 -.162E-26   0.189E-10 -.768E-16 0.169E-12
   -.115E+01 -.105E-11 0.303E-09   0.115E+01 -.111E-13 0.817E-18   -.127E-02 -.694E-17 0.000E+00   -.189E-10 0.217E-14 0.158E-12
   0.115E+01 0.246E-15 -.457E-08   -.115E+01 0.344E-14 -.628E-18   0.127E-02 -.104E-16 0.000E+00   0.189E-10 -.168E-14 0.157E-12
   -.361E-06 -.124E-11 -.853E-08   -.466E-14 -.719E-14 0.963E-34   0.000E+00 -.416E-16 0.000E+00   0.167E-14 0.103E-14 0.651E-12

 POSITION                                       TOTAL-FORCE (eV/Angst)
      0.00058     -0.00000     -0.00000        -0.000000     -0.000000      0.000000
      0.71096      1.24006      0.00000         0.000000     -0.000000     -0.000000
      2.13518      1.24006     -0.00000        -0.000000     -0.000000      0.000000
      2.84556     -0.00000      0.00000         0.000000      0.000000     -0.000000
    total drift:                               -0.000000     -0.000000     -0.000000

  FREE ENERGIE OF THE ION-ELECTRON SYSTEM (eV)
  free  energy   TOTEN  =       -36.92247690 eV

  energy  without entropy=      -36.92239096  energy(sigma->0) =      -36.92243393

 d Force = 0.2951493E-13[-0.391E-13, 0.982E-13]  d Energy = 0.2034994E-09-0.203E-09
 d Force = 0.9125072E-07[ 0.913E-07, 0.913E-07]  d Ewald  = 0.9125097E-07-0.455E-12

 Quasi-Newton relaxation of ions (Broydens 2nd method)
  g(Force)  = 0.467E-13   g(Stress)= 0.000E+00

 retain information from N=  1 steps
 eigenvalues of (default step * inverse Hessian matrix)
  average eigenvalue of G=   0.2390
 eigenvalue spectrum of G is  0.2390

 reached required accuracy - stopping structural energy minimisation