 vasp.5.3.5 31Mar14 (build Mar 02 2015 18:14:16) complex

 executed on             LinuxIFC date 2018.08.09  19:53:55

 INCAR:
 POTCAR:   PAW_PBE C 08Apr2002
 POTCAR:   PAW_PBE C 08Apr2002
   VRHFIN =C: s2p2

   TITEL  = PAW_PBE C 08Apr2002
   POMASS =   12.011; ZVAL   =    4.000    mass and valenz
   ENMAX  =  400.000; ENMIN  =  300.000 eV
   QCUT   =   -5.516; QGAM   =   11.032    optimization parameters

   Description
     l     E      TYP  RCUT    TYP  RCUT
     0   .000     23  1.200
     0   .000     23  1.200
     1   .000     23  1.500
     1  2.500     23  1.500
     2   .000      7  1.500

 PAW_PBE C 08Apr2002                    :

 POSCAR: MD-kMC export data
  positions in direct lattice
  velocities in cartesian coordinates
 exchange correlation table for  LEXCH =        8
   RHO(1)=    0.500       N(1)  =     2000
   RHO(2)=  100.500       N(2)  =     4000

 ion  position               nearest neighbor table
   1  0.000  0.000  0.000-   4 1.42   2 1.43   2 1.43
   2  0.166  0.500  0.000-   3 1.42   1 1.43   1 1.43
   3  0.500  0.500  0.000-   2 1.42   4 1.43   4 1.43
   4  0.666  0.000  0.000-   1 1.42   3 1.43   3 1.43

  LATTYP: Found a simple orthorhombic cell.
 ALAT       =     2.4927137180
 B/A-ratio  =     1.7111434788
 C/A-ratio  =     7.9550890788

  Lattice vectors:

 A1 = (   0.0000000000,  -2.4927137180,   0.0000000000)
 A2 = (  -4.2653908230,   0.0000000000,   0.0000000000)
 A3 = (   0.0000000000,   0.0000000000, -19.8297596744)

Analysis of symmetry for initial positions (statically):
 Subroutine PRICEL returns following result:

  LATTYP: Found a base centered orthorhombic cell.
 ALAT       =     2.4927137180
 B/A-ratio  =     1.7111434788
 C/A-ratio  =     7.9550890788

[...]

   2 primitive cells build up your supercell.

 Routine SETGRP: Setting up the symmetry group for a
 simple orthorhombic supercell.

 Subroutine GETGRP returns: Found  8 space group operations
 (whereof  4 operations were pure point group operations)
 out of a pool of  8 trial point group operations.

The static configuration has the point symmetry C_2v.
 The point group associated with its full space group is D_2h.

Analysis of symmetry for dynamics (positions and initial velocities):
 Subroutine PRICEL returns following result:

  LATTYP: Found a base centered orthorhombic cell.
 ALAT       =     2.4927137180
 B/A-ratio  =     1.7111434788
 C/A-ratio  =     7.9550890788

  Lattice vectors:

 A1 = (   2.1326954115,  -1.2463568590,   0.0000000000)
 A2 = (  -2.1326954115,  -1.2463568590,   0.0000000000)
 A3 = (   0.0000000000,   0.0000000000, -19.8297596744)

   2 primitive cells build up your supercell.

 Routine SETGRP: Setting up the symmetry group for a
 simple orthorhombic supercell.

 Subroutine GETGRP returns: Found  8 space group operations
 (whereof  4 operations were pure point group operations)
 out of a pool of  8 trial point group operations.

The dynamic configuration has the point symmetry C_2v.
 The point group associated with its full space group is D_2h.

 KPOINTS: Automatic mesh

Automatic generation of k-mesh.
Space group operators:
 irot       det(A)        alpha          n_x          n_y          n_z        tau_x        tau_y        tau_z
    1     1.000000     0.000000     1.000000     0.000000     0.000000     0.000000     0.000000     0.000000
    2    -1.000000   180.000000     0.000000     0.000000     1.000000     0.000000     0.000000     0.000000
    3     1.000000   180.000000     1.000000     0.000000     0.000000     0.000000     0.000000     0.000000
    4    -1.000000   180.000000     0.000000     1.000000     0.000000     0.000000     0.000000     0.000000
    5    -1.000000     0.000000     1.000000     0.000000     0.000000     0.166667    -0.500000     0.000000
    6     1.000000   180.000000     0.000000     0.000000     1.000000     0.166667    -0.500000     0.000000
    7    -1.000000   180.000000     1.000000     0.000000     0.000000     0.166667    -0.500000     0.000000
    8     1.000000   180.000000     0.000000     1.000000     0.000000     0.166667    -0.500000     0.000000

 Subroutine IBZKPT returns following result:

 Found    247 irreducible k-points:

 Following reciprocal coordinates:
            Coordinates               Weight
  0.000000  0.000000  0.000000      1.000000
  0.041667  0.000000  0.000000      2.000000
  0.083333  0.000000  0.000000      2.000000
  0.125000  0.000000  0.000000      2.000000
  0.166667  0.000000  0.000000      2.000000
  0.208333  0.000000  0.000000      2.000000
  0.250000  0.000000  0.000000      2.000000
  0.291667  0.000000  0.000000      2.000000
  0.333333  0.000000  0.000000      2.000000
  0.375000  0.000000  0.000000      2.000000
  0.416667  0.000000  0.000000      2.000000
  0.458333  0.000000  0.000000      2.000000
  0.500000  0.000000  0.000000      1.000000
  0.000000  0.027778  0.000000      2.000000
  0.041667  0.027778  0.000000      4.000000
  0.083333  0.027778  0.000000      4.000000
  0.125000  0.027778  0.000000      4.000000
  0.166667  0.027778  0.000000      4.000000
  0.208333  0.027778  0.000000      4.000000
  0.250000  0.027778  0.000000      4.000000
  0.291667  0.027778  0.000000      4.000000
  0.333333  0.027778  0.000000      4.000000
  0.375000  0.027778  0.000000      4.000000
  0.416667  0.027778  0.000000      4.000000
  0.458333  0.027778  0.000000      4.000000
  0.500000  0.027778  0.000000      2.000000
  0.000000  0.055556  0.000000      2.000000
  0.041667  0.055556  0.000000      4.000000
  0.083333  0.055556  0.000000      4.000000
  0.125000  0.055556  0.000000      4.000000
  0.166667  0.055556  0.000000      4.000000
  0.208333  0.055556  0.000000      4.000000
  0.250000  0.055556  0.000000      4.000000
  0.291667  0.055556  0.000000      4.000000
  0.333333  0.055556  0.000000      4.000000
  0.375000  0.055556  0.000000      4.000000
  0.416667  0.055556  0.000000      4.000000
  0.458333  0.055556  0.000000      4.000000
  0.500000  0.055556  0.000000      2.000000
  0.000000  0.083333  0.000000      2.000000
  0.041667  0.083333  0.000000      4.000000
  0.083333  0.083333  0.000000      4.000000
  0.125000  0.083333  0.000000      4.000000
  0.166667  0.083333  0.000000      4.000000
  0.208333  0.083333  0.000000      4.000000
  0.250000  0.083333  0.000000      4.000000
  0.291667  0.083333  0.000000      4.000000
  0.333333  0.083333  0.000000      4.000000
  0.375000  0.083333  0.000000      4.000000
  0.416667  0.083333  0.000000      4.000000
  0.458333  0.083333  0.000000      4.000000
  0.500000  0.083333  0.000000      2.000000
  0.000000  0.111111  0.000000      2.000000
  0.041667  0.111111  0.000000      4.000000
  0.083333  0.111111  0.000000      4.000000
  0.125000  0.111111  0.000000      4.000000
  0.166667  0.111111  0.000000      4.000000
  0.208333  0.111111  0.000000      4.000000
  0.250000  0.111111  0.000000      4.000000
  0.291667  0.111111  0.000000      4.000000
[...]
  0.458333  0.472222  0.000000      4.000000
  0.500000  0.472222  0.000000      2.000000
  0.000000  0.500000  0.000000      1.000000
  0.041667  0.500000  0.000000      2.000000
  0.083333  0.500000  0.000000      2.000000
  0.125000  0.500000  0.000000      2.000000
  0.166667  0.500000  0.000000      2.000000
  0.208333  0.500000  0.000000      2.000000
  0.250000  0.500000  0.000000      2.000000
  0.291667  0.500000  0.000000      2.000000
  0.333333  0.500000  0.000000      2.000000
  0.375000  0.500000  0.000000      2.000000
  0.416667  0.500000  0.000000      2.000000
  0.458333  0.500000  0.000000      2.000000
  0.500000  0.500000  0.000000      1.000000

 Following cartesian coordinates:
            Coordinates               Weight
  0.000000  0.000000  0.000000      1.000000
  0.009769  0.000000  0.000000      2.000000
  0.019537  0.000000  0.000000      2.000000
  0.029306  0.000000  0.000000      2.000000
  0.039074  0.000000  0.000000      2.000000
  0.048843  0.000000  0.000000      2.000000
  0.058611  0.000000  0.000000      2.000000
  0.068380  0.000000  0.000000      2.000000
  0.078148  0.000000  0.000000      2.000000
  0.087917  0.000000  0.000000      2.000000
  0.097685  0.000000  0.000000      2.000000
  0.107454  0.000000  0.000000      2.000000
  0.117223  0.000000  0.000000      1.000000
  0.000000  0.011144  0.000000      2.000000
  0.009769  0.011144  0.000000      4.000000
  0.019537  0.011144  0.000000      4.000000
  0.029306  0.011144  0.000000      4.000000
  0.039074  0.011144  0.000000      4.000000
  0.048843  0.011144  0.000000      4.000000
  0.058611  0.011144  0.000000      4.000000
  0.068380  0.011144  0.000000      4.000000
  0.078148  0.011144  0.000000      4.000000
  0.087917  0.011144  0.000000      4.000000
  0.097685  0.011144  0.000000      4.000000
  0.107454  0.011144  0.000000      4.000000
  0.117223  0.011144  0.000000      2.000000
  0.000000  0.022287  0.000000      2.000000
  0.009769  0.022287  0.000000      4.000000
  0.019537  0.022287  0.000000      4.000000
  0.029306  0.022287  0.000000      4.000000
  0.039074  0.022287  0.000000      4.000000
  0.048843  0.022287  0.000000      4.000000
  0.058611  0.022287  0.000000      4.000000
  0.068380  0.022287  0.000000      4.000000
  0.078148  0.022287  0.000000      4.000000
  0.087917  0.022287  0.000000      4.000000
  0.097685  0.022287  0.000000      4.000000
  0.107454  0.022287  0.000000      4.000000
  0.117223  0.022287  0.000000      2.000000
  0.000000  0.033431  0.000000      2.000000
  0.009769  0.033431  0.000000      4.000000
  0.019537  0.033431  0.000000      4.000000
  0.029306  0.033431  0.000000      4.000000
  0.039074  0.033431  0.000000      4.000000
  0.048843  0.033431  0.000000      4.000000
  0.058611  0.033431  0.000000      4.000000
  0.068380  0.033431  0.000000      4.000000
  0.078148  0.033431  0.000000      4.000000
  0.087917  0.033431  0.000000      4.000000
  0.097685  0.033431  0.000000      4.000000
  0.107454  0.033431  0.000000      4.000000
  0.117223  0.033431  0.000000      2.000000
  0.000000  0.044574  0.000000      2.000000
  0.009769  0.044574  0.000000      4.000000
  0.019537  0.044574  0.000000      4.000000
  0.029306  0.044574  0.000000      4.000000
  0.039074  0.044574  0.000000      4.000000
  0.048843  0.044574  0.000000      4.000000
  0.058611  0.044574  0.000000      4.000000
  0.068380  0.044574  0.000000      4.000000
[...]
  0.107454  0.189441  0.000000      4.000000
  0.117223  0.189441  0.000000      2.000000
  0.000000  0.200585  0.000000      1.000000
  0.009769  0.200585  0.000000      2.000000
  0.019537  0.200585  0.000000      2.000000
  0.029306  0.200585  0.000000      2.000000
  0.039074  0.200585  0.000000      2.000000
  0.048843  0.200585  0.000000      2.000000
  0.058611  0.200585  0.000000      2.000000
  0.068380  0.200585  0.000000      2.000000
  0.078148  0.200585  0.000000      2.000000
  0.087917  0.200585  0.000000      2.000000
  0.097685  0.200585  0.000000      2.000000
  0.107454  0.200585  0.000000      2.000000
  0.117223  0.200585  0.000000      1.000000

 I would recommend the setting:
   dimension x,y,z NGX =    62 NGY =   36 NGZ =  289
[...]
 k-point ** :   0.3333 0.2500 0.0000  plane waves:   42815
 k-point ** :   0.3750 0.2500 0.0000  plane waves:   42779
 k-point ** :   0.4167 0.2500 0.0000  plane waves:   42782
 k-point ** :   0.4583 0.2500 0.0000  plane waves:   42777
 k-point ** :   0.5000 0.2500 0.0000  plane waves:   42764
 k-point ** :   0.0000 0.2778 0.0000  plane waves:   42906
 k-point ** :   0.0417 0.2778 0.0000  plane waves:   42906
 k-point ** :   0.0833 0.2778 0.0000  plane waves:   42899
 k-point ** :   0.1250 0.2778 0.0000  plane waves:   42892
 k-point ** :   0.1667 0.2778 0.0000  plane waves:   42859
 k-point ** :   0.2083 0.2778 0.0000  plane waves:   42839
 k-point ** :   0.2500 0.2778 0.0000  plane waves:   42818
 k-point ** :   0.2917 0.2778 0.0000  plane waves:   42817
 k-point ** :   0.3333 0.2778 0.0000  plane waves:   42788
 k-point ** :   0.3750 0.2778 0.0000  plane waves:   42787
 k-point ** :   0.4167 0.2778 0.0000  plane waves:   42779
 k-point ** :   0.4583 0.2778 0.0000  plane waves:   42771
 k-point ** :   0.5000 0.2778 0.0000  plane waves:   42766
 k-point ** :   0.0000 0.3056 0.0000  plane waves:   42908
 k-point ** :   0.0417 0.3056 0.0000  plane waves:   42918
 k-point ** :   0.0833 0.3056 0.0000  plane waves:   42905
 k-point ** :   0.1250 0.3056 0.0000  plane waves:   42906
 k-point ** :   0.1667 0.3056 0.0000  plane waves:   42881
 k-point ** :   0.2083 0.3056 0.0000  plane waves:   42860
 k-point ** :   0.2500 0.3056 0.0000  plane waves:   42871
 k-point ** :   0.2917 0.3056 0.0000  plane waves:   42818
 k-point ** :   0.3333 0.3056 0.0000  plane waves:   42787
 k-point ** :   0.3750 0.3056 0.0000  plane waves:   42796
 k-point ** :   0.4167 0.3056 0.0000  plane waves:   42803
 k-point ** :   0.4583 0.3056 0.0000  plane waves:   42786
 k-point ** :   0.5000 0.3056 0.0000  plane waves:   42796
 k-point ** :   0.0000 0.3333 0.0000  plane waves:   42934
 k-point ** :   0.0417 0.3333 0.0000  plane waves:   42901
 k-point ** :   0.0833 0.3333 0.0000  plane waves:   42903
[...]
 k-point ** :   0.4583 0.4722 0.0000  plane waves:   42824
 k-point ** :   0.5000 0.4722 0.0000  plane waves:   42832
 k-point ** :   0.0000 0.5000 0.0000  plane waves:   42842
 k-point ** :   0.0417 0.5000 0.0000  plane waves:   42874
 k-point ** :   0.0833 0.5000 0.0000  plane waves:   42916
 k-point ** :   0.1250 0.5000 0.0000  plane waves:   42920
 k-point ** :   0.1667 0.5000 0.0000  plane waves:   42906
 k-point ** :   0.2083 0.5000 0.0000  plane waves:   42906
 k-point ** :   0.2500 0.5000 0.0000  plane waves:   42908
 k-point ** :   0.2917 0.5000 0.0000  plane waves:   42920
 k-point ** :   0.3333 0.5000 0.0000  plane waves:   42860
 k-point ** :   0.3750 0.5000 0.0000  plane waves:   42848
 k-point ** :   0.4167 0.5000 0.0000  plane waves:   42834
 k-point ** :   0.4583 0.5000 0.0000  plane waves:   42818
 k-point ** :   0.5000 0.5000 0.0000  plane waves:   42800

 maximum and minimum number of plane-waves per node :     21503    21276

 maximum number of plane-waves:     42936
 maximum index in each direction:
   IXMAX=   15   IYMAX=    9   IZMAX=   72
   IXMIN=  -16   IYMIN=   -9   IZMIN=  -72

 NGX is ok and might be reduce to  64
 WARNING: aliasing errors must be expected set NGY to  38 to avoid them
 NGZ is ok and might be reduce to 290
 aliasing errors are usually negligible using standard VASP settings
 and one can safely disregard these warnings

 parallel 3D FFT for wavefunctions:
    minimum data exchange during FFTs selected (reduces bandwidth)
 parallel 3D FFT for charge:
    minimum data exchange during FFTs selected (reduces bandwidth)

 Broyden mixing: mesh for mixing (old mesh)
   NGX = 31   NGY = 19   NGZ =145
  (NGX  =128   NGY  = 72   NGZ  =588)
  gives a total of  85405 points

 initial charge density was supplied:
 charge density of overlapping atoms calculated
 number of electron      16.0000000 magnetization
 keeping initial charge density in first step

 Maximum index for augmentation-charges         4665 (set IRDMAX)

 First call to EWALD:  gamma=   0.298
 Maximum number of real-space cells 4x 6x 1
 Maximum number of reciprocal cells 2x 1x 8

 FEWALD executed in parallel

----------------------------------------- Iteration    1(   1)  ---------------------------------------

 eigenvalue-minimisations  :  5928
 total energy-change (2. order) : 0.1881100E+03  (-0.1055152E+04)
 number of electron      16.0000000 magnetization
 augmentation part       16.0000000 magnetization

 Free energy of the ion-electron system (eV)
  alpha Z        PSCENC =         6.18334092
  Ewald energy   TEWEN  =      2529.37422580
  -Hartree energ DENC   =     -2956.47412277
  -exchange      EXHF   =         0.00000000
  -V(xc)+E(xc)   XCENC  =        54.98134092
  PAW double counting   =       151.32577238     -155.92769107
  entropy T*S    EENTRO =        -0.00111121
  eigenvalues    EBANDS =       -29.97532746
  atomic energy  EATOM  =       588.62352690
  free energy    TOTEN  =       188.10995442 eV

  energy without entropy =      188.11106562  energy(sigma->0) =      188.11051002

[...]

 eigenvalue-minimisations  : 10420
 total energy-change (2. order) :-0.1977473E+03  (-0.1762928E+03)
 number of electron      16.0000000 magnetization
 augmentation part       16.0000000 magnetization

[...]

 Broyden mixing:
  rms(total) = 0.72574E+00    rms(broyden)= 0.72574E+00
  rms(prec ) = 0.78982E+00
  weight for this iteration     100.00

[...]

 eigenvalues of (default mixing * dielectric matrix)
  average eigenvalue GAMMA=   2.3094
  2.3094

[...]

 average (electrostatic) potential at core
  the test charge radii are     0.6991
  (the norm of the test charge is              1.0000)
       1 -58.2410       2 -58.2410       3 -58.2410       4 -58.2410

 E-fermi :  -2.7834     XC(G=0):  -2.1566     alpha+bet : -1.9046

 k-point     1 :       0.0000    0.0000    0.0000
  band No.  band energies     occupation
      1     -22.1824      2.00000
      2     -16.8884      2.00000
      3     -15.9275      2.00000
      4     -10.3039      2.00000
      5      -9.2960      2.00000
      6      -5.8768      2.00000
      7      -5.7638      2.00000
      8      -5.0240      2.00000
      9      -1.1006      0.00000
     10       0.5324      0.00000
     11       1.3323      0.00000
     12       1.7194      0.00000

[...]

 soft charge-density along one line, spin component           1
         0         1         2         3         4         5         6         7         8         9
 total charge-density along one line

------------------------ aborting loop because EDIFF is reached ----------------------------------------

  FORCE on cell =-STRESS in cart. coord.  units (eV):
  Direction    XX          YY          ZZ          XY          YZ          ZX
  Alpha Z     6.18334     6.18334     6.18334
  Ewald    3065.26146  3063.93326 -3599.82074     0.00000     0.00000     0.00000
  Hartree  3000.83470  3000.39607 -2977.76843     0.00000    -0.00000    -0.00000
  E(xc)     -58.19430   -58.18207   -60.51990    -0.00000    -0.00000    -0.00000
  Local   -6238.77156 -6237.24445  6371.80677    -0.00000    -0.00000    -0.00000
  n-local   -13.90091   -13.55528   -12.64932     0.06987    -0.00000     0.00000
  augment    -1.51650    -1.51503    -1.39676     0.00000    -0.00000    -0.00000
  Kinetic   240.10623   237.71858   274.16370    -4.61956     0.00000    -0.00000
  Fock        0.00000     0.00000     0.00000     0.00000     0.00000     0.00000
  Total       0.00245    -2.26558    -0.00134     0.00000     0.00000     0.00000
  in kB       0.01864   -17.21638    -0.01021     0.00000     0.00000     0.00000

 VOLUME and BASIS-vectors are now :
  energy-cutoff  :     2000.00
  volume of cell :      210.84
      direct lattice vectors                 reciprocal lattice vectors
     4.265390823  0.000000000  0.000000000     0.234445105  0.000000000  0.000000000
     0.000000000  2.492713718  0.000000000     0.000000000  0.401169213  0.000000000
     0.000000000  0.000000000 19.829759674     0.000000000  0.000000000  0.050429255

[...]

 FORCES acting on ions
    electron-ion (+dipol)            ewald-force                    non-local-force                 convergence-correction
   -.224E+01 0.122E-15 0.520E-09   0.225E+01 0.284E-14 -.990E-18   -.365E-04 -.347E-17 0.000E+00   -.304E-07 -.747E-15 0.192E-12
   0.224E+01 0.183E-12 -.398E-08   -.225E+01 0.207E-15 0.139E-33   0.365E-04 -.347E-17 -.103E-24   0.304E-07 0.366E-15 0.192E-12
   -.224E+01 -.154E-12 0.520E-09   0.225E+01 -.756E-15 0.990E-18   -.365E-04 0.173E-16 0.000E+00   -.304E-07 -.643E-15 0.192E-12
   0.224E+01 0.990E-17 -.399E-08   -.225E+01 -.339E-14 -.144E-33   0.365E-04 0.173E-16 0.000E+00   0.304E-07 0.314E-15 0.192E-12
   -.239E-06 0.288E-13 -.693E-08   0.888E-15 -.110E-14 0.481E-34   -.678E-20 0.278E-16 -.103E-24   -.234E-13 -.710E-15 0.768E-12

 POSITION                                       TOTAL-FORCE (eV/Angst)
      0.00112      0.00000      0.00000         0.003037      0.000000      0.000000
      0.70978      1.24636      0.00000        -0.003037     -0.000000     -0.000000
      2.13382      1.24636      0.00000         0.003037     -0.000000      0.000000
      2.84247      0.00000      0.00000        -0.003037      0.000000     -0.000000
    total drift:                               -0.000000      0.000000     -0.000000

  FREE ENERGIE OF THE ION-ELECTRON SYSTEM (eV)
  free  energy   TOTEN  =       -36.91382832 eV

  energy  without entropy=      -36.91380245  energy(sigma->0) =      -36.91381538

 Quasi-Newton relaxation of ions (Broydens 2nd method)
  g(Force)  = 0.178E-05   g(Stress)= 0.000E+00

 Reset! Starting new Quasi-Newton update for ions

[...]

 d Force =-0.2738787E-05[-0.726E-05, 0.178E-05]  d Energy =-0.2757081E-05 0.183E-07
 d Force = 0.1302160E-02[ 0.129E-02, 0.132E-02]  d Ewald  = 0.1302157E-02 0.249E-08

[...]

 retain information from N=  1 steps
 eigenvalues of (default step * inverse Hessian matrix)
  average eigenvalue of G=   0.1970
 eigenvalue spectrum of G is  0.1970

[...]

WARNING in EDDRMM: call to ZHEGV failed, returncode =   6  3  1
WARNING in EDDRMM: call to ZHEGV failed, returncode =   6  3  1

[...]

 d Force = 0.2914933E-05[ 0.172E-08, 0.583E-05]  d Energy = 0.2929298E-05-0.144E-07
 d Force =-0.1043309E-02[-0.105E-02,-0.103E-02]  d Ewald  =-0.1043308E-02-0.129E-08

[...]

 FEWALD executed in parallel

[...]

 eigenvalue-minimisations  :  4876
 total energy-change (2. order) : 0.6492655E-09  ( 0.5695503E-09)
 number of electron      16.0000000 magnetization
 augmentation part        0.3780183 magnetization

[...]

 eigenvalue-minimisations  :  1656
 total energy-change (2. order) :-0.5859420E-09  ( 0.1302436E-12)
 number of electron      16.0000000 magnetization
 augmentation part        0.3780183 magnetization

[...]

 eigenvalue-minimisations  :  1564
 total energy-change (2. order) : 0.9811174E-10  (-0.4821657E-13)
 number of electron      16.0000000 magnetization
 augmentation part        0.3780183 magnetization

 Broyden mixing:
  rms(total) = 0.13902E-08    rms(broyden)= 0.13902E-08
  rms(prec ) = 0.26943E-08
  weight for this iteration     100.00

 eigenvalues of (default mixing * dielectric matrix)
  average eigenvalue GAMMA=   1.6416
  2.6039  1.7794  0.5414

[...]

----------------------------------------- Iteration    4(   5)  ---------------------------------------

 eigenvalue-minimisations  :  1535
 total energy-change (2. order) :-0.6764367E-10  (-0.9348900E-13)
 number of electron      16.0000000 magnetization
 augmentation part        0.3780183 magnetization

 Free energy of the ion-electron system (eV)
  alpha Z        PSCENC =         6.18334092
  Ewald energy   TEWEN  =      2529.37396726
  -Hartree energ DENC   =     -3023.46210734
  -exchange      EXHF   =         0.00000000
  -V(xc)+E(xc)   XCENC  =        57.36472354
  PAW double counting   =       273.62204592     -278.75519431
  entropy T*S    EENTRO =        -0.00002637
  eigenvalues    EBANDS =      -189.86410500
  atomic energy  EATOM  =       588.62352690
  free energy    TOTEN  =       -36.91382849 eV

  energy without entropy =      -36.91380211  energy(sigma->0) =      -36.91381530

 average (electrostatic) potential at core
  the test charge radii are     0.6991
  (the norm of the test charge is              1.0000)
       1 -58.2410       2 -58.2410       3 -58.2410       4 -58.2410

 E-fermi :  -2.7834     XC(G=0):  -2.1567     alpha+bet : -1.9046

[...]

 k-point   247 :       0.5000    0.5000    0.0000
  band No.  band energies     occupation
      1     -17.0645      2.00000
      2     -17.0645      2.00000
      3     -15.9201      2.00000
      4     -15.9201      2.00000
      5      -9.0797      2.00000
      6      -9.0797      2.00000
      7      -5.1605      2.00000
      8      -5.1605      2.00000
      9      -1.1171      0.00000
     10      -1.1171      0.00000
     11       4.6030      0.00000
     12       4.6030      0.00000

 soft charge-density along one line, spin component           1
         0         1         2         3         4         5         6         7         8         9
 total charge-density along one line

------------------------ aborting loop because EDIFF is reached ----------------------------------------

  FORCE on cell =-STRESS in cart. coord.  units (eV):
  Direction    XX          YY          ZZ          XY          YZ          ZX
  Alpha Z     6.18334     6.18334     6.18334
  Ewald    3065.23635  3063.95812 -3599.82074     0.00000     0.00000     0.00000
  Hartree  3000.83119  3000.39937 -2977.76845    -0.00000    -0.00000    -0.00000
  E(xc)     -58.19438   -58.18196   -60.51989    -0.00000    -0.00000    -0.00000
  Local   -6238.74783 -6237.26787  6371.80685     0.00000    -0.00000    -0.00000
  n-local   -13.90112   -13.55507   -12.64932     0.06991     0.00000     0.00000
  augment    -1.51646    -1.51507    -1.39676    -0.00000     0.00000     0.00000
  Kinetic   240.10995   237.71470   274.16362    -4.61969    -0.00000    -0.00000
  Fock        0.00000     0.00000     0.00000     0.00000     0.00000     0.00000
  Total       0.00105    -2.26444    -0.00134     0.00000     0.00000     0.00000
  in kB       0.00796   -17.20769    -0.01020     0.00000     0.00000     0.00000

 VOLUME and BASIS-vectors are now :
  energy-cutoff  :     2000.00
  volume of cell :      210.84
      direct lattice vectors                 reciprocal lattice vectors
     4.265390823  0.000000000  0.000000000     0.234445105  0.000000000  0.000000000
     0.000000000  2.492713718  0.000000000     0.000000000  0.401169213  0.000000000
     0.000000000  0.000000000 19.829759674     0.000000000  0.000000000  0.050429255

  length of vectors
     4.265390823  2.492713718 19.829759674     0.234445105  0.401169213  0.050429255

 FORCES acting on ions
    electron-ion (+dipol)            ewald-force                    non-local-force                 convergence-correction
   -.224E+01 -.382E-17 0.530E-09   0.224E+01 0.270E-14 -.745E-18   -.111E-02 0.208E-16 0.000E+00   -.202E-07 -.792E-15 0.406E-11
   0.224E+01 -.366E-14 -.397E-08   -.224E+01 -.173E-14 0.745E-18   0.111E-02 0.173E-16 -.323E-26   0.202E-07 -.177E-14 0.406E-11
   -.224E+01 0.592E-12 0.533E-09   0.224E+01 0.118E-14 -.543E-18   -.111E-02 0.139E-16 0.000E+00   -.202E-07 -.552E-14 0.408E-11
   0.224E+01 0.264E-15 -.398E-08   -.224E+01 -.325E-14 0.543E-18   0.111E-02 -.347E-17 0.000E+00   0.202E-07 0.275E-14 0.409E-11
   -.238E-06 0.589E-12 -.688E-08   0.888E-15 -.110E-14 0.000E+00   0.000E+00 0.486E-16 -.323E-26   0.303E-13 -.534E-14 0.163E-10

 POSITION                                       TOTAL-FORCE (eV/Angst)
      0.00115      0.00000      0.00000         0.000000      0.000000      0.000000
      0.70975      1.24636     -0.00000        -0.000000     -0.000000     -0.000000
      2.13385      1.24636      0.00000         0.000000     -0.000000      0.000000
      2.84244      0.00000     -0.00000        -0.000000      0.000000     -0.000000
    total drift:                               -0.000000      0.000000     -0.000000

  FREE ENERGIE OF THE ION-ELECTRON SYSTEM (eV)
  free  energy   TOTEN  =       -36.91382849 eV

  energy  without entropy=      -36.91380211  energy(sigma->0) =      -36.91381530

 d Force = 0.2259331E-12[-0.577E-13, 0.510E-12]  d Energy =-0.3740297E-10 0.376E-10
 d Force =-0.3114122E-06[-0.311E-06,-0.311E-06]  d Ewald  =-0.3114119E-06-0.455E-12

 Quasi-Newton relaxation of ions (Broydens 2nd method)
  g(Force)  = 0.331E-13   g(Stress)= 0.000E+00

 retain information from N=  1 steps
 eigenvalues of (default step * inverse Hessian matrix)
  average eigenvalue of G=   0.1770
 eigenvalue spectrum of G is  0.1770

 reached required accuracy - stopping structural energy minimisation