 vasp.5.3.5 31Mar14 (build Mar 02 2015 18:14:16) complex

 executed on             LinuxIFC date 2018.08.09  21:00:42

 INCAR:
 POTCAR:   PAW_PBE C 08Apr2002
 POTCAR:   PAW_PBE C 08Apr2002
   VRHFIN =C: s2p2

   TITEL  = PAW_PBE C 08Apr2002
   POMASS =   12.011; ZVAL   =    4.000    mass and valenz
   ENMAX  =  400.000; ENMIN  =  300.000 eV
   QCUT   =   -5.516; QGAM   =   11.032    optimization parameters

   Description
     l     E      TYP  RCUT    TYP  RCUT
     0   .000     23  1.200
     0   .000     23  1.200
     1   .000     23  1.500
     1  2.500     23  1.500
     2   .000      7  1.500

 PAW_PBE C 08Apr2002                    :

 POSCAR: MD-kMC export data
  positions in direct lattice
  velocities in cartesian coordinates
 exchange correlation table for  LEXCH =        8
   RHO(1)=    0.500       N(1)  =     2000
   RHO(2)=  100.500       N(2)  =     4000

 ion  position               nearest neighbor table
   1  0.001  0.000  0.000-   4 1.42   2 1.45   2 1.45
   2  0.166  0.500  0.000-   3 1.42   1 1.45   1 1.45
   3  0.501  0.500  0.000-   2 1.42   4 1.45   4 1.45
   4  0.666  0.000  0.000-   1 1.42   3 1.45   3 1.45

  LATTYP: Found a simple orthorhombic cell.
 ALAT       =     2.5286147173
 B/A-ratio  =     1.6828556879
 C/A-ratio  =     7.7491456857

  Lattice vectors:

 A1 = (   0.0000000000,  -2.5286147173,   0.0000000000)
 A2 = (  -4.2552936595,   0.0000000000,   0.0000000000)
 A3 = (   0.0000000000,   0.0000000000, -19.5946038275)

Analysis of symmetry for initial positions (statically):
 Subroutine PRICEL returns following result:

  LATTYP: Found a base centered orthorhombic cell.
 ALAT       =     2.5286147173
 B/A-ratio  =     1.6828556879
 C/A-ratio  =     7.7491456857

[...]

   2 primitive cells build up your supercell.

 Routine SETGRP: Setting up the symmetry group for a
 simple orthorhombic supercell.

 Subroutine GETGRP returns: Found  8 space group operations
 (whereof  4 operations were pure point group operations)
 out of a pool of  8 trial point group operations.

The static configuration has the point symmetry C_2v.
 The point group associated with its full space group is D_2h.

Analysis of symmetry for dynamics (positions and initial velocities):
 Subroutine PRICEL returns following result:

  LATTYP: Found a base centered orthorhombic cell.
 ALAT       =     2.5286147173
 B/A-ratio  =     1.6828556879
 C/A-ratio  =     7.7491456857

  Lattice vectors:

 A1 = (   2.1276468298,  -1.2643073587,   0.0000000000)
 A2 = (  -2.1276468298,  -1.2643073587,   0.0000000000)
 A3 = (   0.0000000000,   0.0000000000, -19.5946038275)

   2 primitive cells build up your supercell.

 Routine SETGRP: Setting up the symmetry group for a
 simple orthorhombic supercell.

 Subroutine GETGRP returns: Found  8 space group operations
 (whereof  4 operations were pure point group operations)
 out of a pool of  8 trial point group operations.

The dynamic configuration has the point symmetry C_2v.
 The point group associated with its full space group is D_2h.

 KPOINTS: Automatic mesh

Automatic generation of k-mesh.
Space group operators:
 irot       det(A)        alpha          n_x          n_y          n_z        tau_x        tau_y        tau_z
    1     1.000000     0.000000     1.000000     0.000000     0.000000     0.000000     0.000000     0.000000
    2    -1.000000   180.000000     0.000000     0.000000     1.000000     0.000000     0.000000     0.000000
    3     1.000000   179.999999     1.000000     0.000000     0.000000     0.000000     0.000000     0.000000
    4    -1.000000   180.000000     0.000000     1.000000     0.000000     0.000000     0.000000     0.000000
    5    -1.000000     0.000000     1.000000     0.000000     0.000000     0.166667    -0.500000     0.000000
    6     1.000000   180.000000     0.000000     0.000000     1.000000     0.166667    -0.500000     0.000000
    7    -1.000000   179.999999     1.000000     0.000000     0.000000     0.166667    -0.500000     0.000000
    8     1.000000   180.000000     0.000000     1.000000     0.000000     0.166667    -0.500000     0.000000

 Subroutine IBZKPT returns following result:

 Found    247 irreducible k-points:

 Following reciprocal coordinates:
            Coordinates               Weight
  0.000000  0.000000  0.000000      1.000000
  0.041667  0.000000  0.000000      2.000000
  0.083333  0.000000  0.000000      2.000000
  0.125000  0.000000  0.000000      2.000000
  0.166667  0.000000  0.000000      2.000000
  0.208333  0.000000  0.000000      2.000000
  0.250000  0.000000  0.000000      2.000000
  0.291667  0.000000  0.000000      2.000000
  0.333333  0.000000  0.000000      2.000000
  0.375000  0.000000  0.000000      2.000000
  0.416667  0.000000  0.000000      2.000000
  0.458333  0.000000  0.000000      2.000000
  0.500000  0.000000  0.000000      1.000000
  0.000000  0.027778  0.000000      2.000000
  0.041667  0.027778  0.000000      4.000000
  0.083333  0.027778  0.000000      4.000000
  0.125000  0.027778  0.000000      4.000000
  0.166667  0.027778  0.000000      4.000000
  0.208333  0.027778  0.000000      4.000000
  0.250000  0.027778  0.000000      4.000000
  0.291667  0.027778  0.000000      4.000000
  0.333333  0.027778  0.000000      4.000000
  0.375000  0.027778  0.000000      4.000000
  0.416667  0.027778  0.000000      4.000000
  0.458333  0.027778  0.000000      4.000000
  0.500000  0.027778  0.000000      2.000000
  0.000000  0.055556  0.000000      2.000000
  0.041667  0.055556  0.000000      4.000000
  0.083333  0.055556  0.000000      4.000000
  0.125000  0.055556  0.000000      4.000000
  0.166667  0.055556  0.000000      4.000000
  0.208333  0.055556  0.000000      4.000000
  0.250000  0.055556  0.000000      4.000000
  0.291667  0.055556  0.000000      4.000000
  0.333333  0.055556  0.000000      4.000000
  0.375000  0.055556  0.000000      4.000000
  0.416667  0.055556  0.000000      4.000000
  0.458333  0.055556  0.000000      4.000000
  0.500000  0.055556  0.000000      2.000000
  0.000000  0.083333  0.000000      2.000000
  0.041667  0.083333  0.000000      4.000000
  0.083333  0.083333  0.000000      4.000000
  0.125000  0.083333  0.000000      4.000000
  0.166667  0.083333  0.000000      4.000000
  0.208333  0.083333  0.000000      4.000000
  0.250000  0.083333  0.000000      4.000000
  0.291667  0.083333  0.000000      4.000000
  0.333333  0.083333  0.000000      4.000000
  0.375000  0.083333  0.000000      4.000000
  0.416667  0.083333  0.000000      4.000000
  0.458333  0.083333  0.000000      4.000000
  0.500000  0.083333  0.000000      2.000000
  0.000000  0.111111  0.000000      2.000000
  0.041667  0.111111  0.000000      4.000000
  0.083333  0.111111  0.000000      4.000000
  0.125000  0.111111  0.000000      4.000000
  0.166667  0.111111  0.000000      4.000000
  0.208333  0.111111  0.000000      4.000000
  0.250000  0.111111  0.000000      4.000000
  0.291667  0.111111  0.000000      4.000000
[...]
  0.458333  0.472222  0.000000      4.000000
  0.500000  0.472222  0.000000      2.000000
  0.000000  0.500000  0.000000      1.000000
  0.041667  0.500000  0.000000      2.000000
  0.083333  0.500000  0.000000      2.000000
  0.125000  0.500000  0.000000      2.000000
  0.166667  0.500000  0.000000      2.000000
  0.208333  0.500000  0.000000      2.000000
  0.250000  0.500000  0.000000      2.000000
  0.291667  0.500000  0.000000      2.000000
  0.333333  0.500000  0.000000      2.000000
  0.375000  0.500000  0.000000      2.000000
  0.416667  0.500000  0.000000      2.000000
  0.458333  0.500000  0.000000      2.000000
  0.500000  0.500000  0.000000      1.000000

 Following cartesian coordinates:
            Coordinates               Weight
  0.000000  0.000000  0.000000      1.000000
  0.009792  0.000000  0.000000      2.000000
  0.019583  0.000000  0.000000      2.000000
  0.029375  0.000000  0.000000      2.000000
  0.039167  0.000000  0.000000      2.000000
  0.048959  0.000000  0.000000      2.000000
  0.058750  0.000000  0.000000      2.000000
  0.068542  0.000000  0.000000      2.000000
  0.078334  0.000000  0.000000      2.000000
  0.088126  0.000000  0.000000      2.000000
  0.097917  0.000000  0.000000      2.000000
  0.107709  0.000000  0.000000      2.000000
  0.117501  0.000000  0.000000      1.000000
  0.000000  0.010985  0.000000      2.000000
  0.009792  0.010985  0.000000      4.000000
  0.019583  0.010985  0.000000      4.000000
  0.029375  0.010985  0.000000      4.000000
  0.039167  0.010985  0.000000      4.000000
  0.048959  0.010985  0.000000      4.000000
  0.058750  0.010985  0.000000      4.000000
  0.068542  0.010985  0.000000      4.000000
  0.078334  0.010985  0.000000      4.000000
  0.088126  0.010985  0.000000      4.000000
  0.097917  0.010985  0.000000      4.000000
  0.107709  0.010985  0.000000      4.000000
  0.117501  0.010985  0.000000      2.000000
  0.000000  0.021971  0.000000      2.000000
  0.009792  0.021971  0.000000      4.000000
  0.019583  0.021971  0.000000      4.000000
  0.029375  0.021971  0.000000      4.000000
  0.039167  0.021971  0.000000      4.000000
  0.048959  0.021971  0.000000      4.000000
  0.058750  0.021971  0.000000      4.000000
  0.068542  0.021971  0.000000      4.000000
  0.078334  0.021971  0.000000      4.000000
  0.088126  0.021971  0.000000      4.000000
  0.097917  0.021971  0.000000      4.000000
  0.107709  0.021971  0.000000      4.000000
  0.117501  0.021971  0.000000      2.000000
  0.000000  0.032956  0.000000      2.000000
  0.009792  0.032956  0.000000      4.000000
  0.019583  0.032956  0.000000      4.000000
  0.029375  0.032956  0.000000      4.000000
  0.039167  0.032956  0.000000      4.000000
  0.048959  0.032956  0.000000      4.000000
  0.058750  0.032956  0.000000      4.000000
  0.068542  0.032956  0.000000      4.000000
  0.078334  0.032956  0.000000      4.000000
  0.088126  0.032956  0.000000      4.000000
  0.097917  0.032956  0.000000      4.000000
  0.107709  0.032956  0.000000      4.000000
  0.117501  0.032956  0.000000      2.000000
  0.000000  0.043941  0.000000      2.000000
  0.009792  0.043941  0.000000      4.000000
  0.019583  0.043941  0.000000      4.000000
  0.029375  0.043941  0.000000      4.000000
  0.039167  0.043941  0.000000      4.000000
  0.048959  0.043941  0.000000      4.000000
  0.058750  0.043941  0.000000      4.000000
  0.068542  0.043941  0.000000      4.000000
[...]
  0.107709  0.186751  0.000000      4.000000
  0.117501  0.186751  0.000000      2.000000
  0.000000  0.197737  0.000000      1.000000
  0.009792  0.197737  0.000000      2.000000
  0.019583  0.197737  0.000000      2.000000
  0.029375  0.197737  0.000000      2.000000
  0.039167  0.197737  0.000000      2.000000
  0.048959  0.197737  0.000000      2.000000
  0.058750  0.197737  0.000000      2.000000
  0.068542  0.197737  0.000000      2.000000
  0.078334  0.197737  0.000000      2.000000
  0.088126  0.197737  0.000000      2.000000
  0.097917  0.197737  0.000000      2.000000
  0.107709  0.197737  0.000000      2.000000
  0.117501  0.197737  0.000000      1.000000

 I would recommend the setting:
   dimension x,y,z NGX =    62 NGY =   37 NGZ =  286
[...]
 k-point ** :   0.3333 0.2500 0.0000  plane waves:   42790
 k-point ** :   0.3750 0.2500 0.0000  plane waves:   42791
 k-point ** :   0.4167 0.2500 0.0000  plane waves:   42768
 k-point ** :   0.4583 0.2500 0.0000  plane waves:   42781
 k-point ** :   0.5000 0.2500 0.0000  plane waves:   42752
 k-point ** :   0.0000 0.2778 0.0000  plane waves:   42838
 k-point ** :   0.0417 0.2778 0.0000  plane waves:   42838
 k-point ** :   0.0833 0.2778 0.0000  plane waves:   42850
 k-point ** :   0.1250 0.2778 0.0000  plane waves:   42826
 k-point ** :   0.1667 0.2778 0.0000  plane waves:   42829
 k-point ** :   0.2083 0.2778 0.0000  plane waves:   42842
 k-point ** :   0.2500 0.2778 0.0000  plane waves:   42811
 k-point ** :   0.2917 0.2778 0.0000  plane waves:   42817
 k-point ** :   0.3333 0.2778 0.0000  plane waves:   42808
 k-point ** :   0.3750 0.2778 0.0000  plane waves:   42788
 k-point ** :   0.4167 0.2778 0.0000  plane waves:   42785
 k-point ** :   0.4583 0.2778 0.0000  plane waves:   42749
 k-point ** :   0.5000 0.2778 0.0000  plane waves:   42768
 k-point ** :   0.0000 0.3056 0.0000  plane waves:   42880
 k-point ** :   0.0417 0.3056 0.0000  plane waves:   42885
 k-point ** :   0.0833 0.3056 0.0000  plane waves:   42867
 k-point ** :   0.1250 0.3056 0.0000  plane waves:   42857
 k-point ** :   0.1667 0.3056 0.0000  plane waves:   42847
 k-point ** :   0.2083 0.3056 0.0000  plane waves:   42834
 k-point ** :   0.2500 0.3056 0.0000  plane waves:   42835
 k-point ** :   0.2917 0.3056 0.0000  plane waves:   42806
 k-point ** :   0.3333 0.3056 0.0000  plane waves:   42811
 k-point ** :   0.3750 0.3056 0.0000  plane waves:   42791
 k-point ** :   0.4167 0.3056 0.0000  plane waves:   42783
 k-point ** :   0.4583 0.3056 0.0000  plane waves:   42778
 k-point ** :   0.5000 0.3056 0.0000  plane waves:   42774
 k-point ** :   0.0000 0.3333 0.0000  plane waves:   42902
 k-point ** :   0.0417 0.3333 0.0000  plane waves:   42897
 k-point ** :   0.0833 0.3333 0.0000  plane waves:   42875
[...]
 k-point ** :   0.4583 0.4722 0.0000  plane waves:   42786
 k-point ** :   0.5000 0.4722 0.0000  plane waves:   42768
 k-point ** :   0.0000 0.5000 0.0000  plane waves:   42846
 k-point ** :   0.0417 0.5000 0.0000  plane waves:   42840
 k-point ** :   0.0833 0.5000 0.0000  plane waves:   42850
 k-point ** :   0.1250 0.5000 0.0000  plane waves:   42866
 k-point ** :   0.1667 0.5000 0.0000  plane waves:   42878
 k-point ** :   0.2083 0.5000 0.0000  plane waves:   42902
 k-point ** :   0.2500 0.5000 0.0000  plane waves:   42894
 k-point ** :   0.2917 0.5000 0.0000  plane waves:   42874
 k-point ** :   0.3333 0.5000 0.0000  plane waves:   42860
 k-point ** :   0.3750 0.5000 0.0000  plane waves:   42822
 k-point ** :   0.4167 0.5000 0.0000  plane waves:   42818
 k-point ** :   0.4583 0.5000 0.0000  plane waves:   42778
 k-point ** :   0.5000 0.5000 0.0000  plane waves:   42764

 maximum and minimum number of plane-waves per node :     21473    21357

 maximum number of plane-waves:     42920
 maximum index in each direction:
   IXMAX=   15   IYMAX=    9   IZMAX=   71
   IXMIN=  -16   IYMIN=   -9   IZMIN=  -71

 NGX is ok and might be reduce to  64
 NGY is ok and might be reduce to  38
 NGZ is ok and might be reduce to 286

 parallel 3D FFT for wavefunctions:
    minimum data exchange during FFTs selected (reduces bandwidth)
 parallel 3D FFT for charge:
    minimum data exchange during FFTs selected (reduces bandwidth)

 Broyden mixing: mesh for mixing (old mesh)
   NGX = 31   NGY = 19   NGZ =143
  (NGX  =128   NGY  = 80   NGZ  =576)
  gives a total of  84227 points

 initial charge density was supplied:
 charge density of overlapping atoms calculated
 number of electron      16.0000000 magnetization
 keeping initial charge density in first step

 Maximum index for augmentation-charges         5075 (set IRDMAX)

 First call to EWALD:  gamma=   0.298
 Maximum number of real-space cells 4x 6x 1
 Maximum number of reciprocal cells 2x 1x 8

 FEWALD executed in parallel

----------------------------------------- Iteration    1(   1)  ---------------------------------------

 eigenvalue-minimisations  :  5928
 total energy-change (2. order) : 0.1862245E+03  (-0.1052973E+04)
 number of electron      16.0000000 magnetization
 augmentation part       16.0000000 magnetization

 Free energy of the ion-electron system (eV)
  alpha Z        PSCENC =         6.18334092
  Ewald energy   TEWEN  =      2450.86251044
  -Hartree energ DENC   =     -2880.31743276
  -exchange      EXHF   =         0.00000000
  -V(xc)+E(xc)   XCENC  =        54.81987969
  PAW double counting   =       151.32577238     -155.92769107
  entropy T*S    EENTRO =        -0.00167759
  eigenvalues    EBANDS =       -29.34369973
  atomic energy  EATOM  =       588.62352690
  free energy    TOTEN  =       186.22452919 eV

  energy without entropy =      186.22620678  energy(sigma->0) =      186.22536799

[...]

 eigenvalue-minimisations  : 10272
 total energy-change (2. order) :-0.1951565E+03  (-0.1729986E+03)
 number of electron      16.0000000 magnetization
 augmentation part       16.0000000 magnetization

[...]

 Broyden mixing:
  rms(total) = 0.70790E+00    rms(broyden)= 0.70790E+00
  rms(prec ) = 0.77132E+00
  weight for this iteration     100.00

[...]

 eigenvalues of (default mixing * dielectric matrix)
  average eigenvalue GAMMA=   2.3193
  2.3193

[...]

WARNING in EDDRMM: call to ZHEGV failed, returncode =   6  3  1
WARNING in EDDRMM: call to ZHEGV failed, returncode =   6  3  1
WARNING in EDDRMM: call to ZHEGV failed, returncode =   6  3  1

[...]

 average (electrostatic) potential at core
  the test charge radii are     0.6991
  (the norm of the test charge is              1.0000)
       1 -58.3135       2 -58.3135       3 -58.3135       4 -58.3135

 E-fermi :  -2.8234     XC(G=0):  -2.1772     alpha+bet : -1.9046

 k-point     1 :       0.0000    0.0000    0.0000
  band No.  band energies     occupation
      1     -22.0826      2.00000
      2     -16.7068      2.00000
      3     -15.8649      2.00000
      4     -10.2269      2.00000
      5      -9.4723      2.00000
      6      -5.9905      2.00000
      7      -5.7418      2.00000
      8      -4.9065      2.00000
      9      -1.1420      0.00000
     10       0.5445      0.00000
     11       1.3427      0.00000
     12       3.3999      0.00000

[...]

 soft charge-density along one line, spin component           1
         0         1         2         3         4         5         6         7         8         9
 total charge-density along one line

------------------------ aborting loop because EDIFF is reached ----------------------------------------

  FORCE on cell =-STRESS in cart. coord.  units (eV):
  Direction    XX          YY          ZZ          XY          YZ          ZX
  Alpha Z     6.18334     6.18334     6.18334
  Ewald    2984.48874  2981.32192 -3514.94836    -0.00000     0.00000     0.00000
  Hartree  2922.52626  2921.53185 -2898.91343    -0.00000    -0.00000    -0.00000
  E(xc)     -57.99067   -57.96087   -60.29739     0.00000    -0.00000    -0.00000
  Local   -6079.97642 -6076.41182  6208.60132    -0.00000     0.00000    -0.00000
  n-local   -13.82076   -13.01736   -12.48300     0.08811     0.00000    -0.00000
  augment    -1.48162    -1.47829    -1.37205     0.00000     0.00000    -0.00000
  Kinetic   240.06926   234.47993   273.22823    -4.64048    -0.00000     0.00000
  Fock        0.00000     0.00000     0.00000     0.00000     0.00000     0.00000
  Total      -0.00187    -5.35130    -0.00134     0.00000     0.00000     0.00000
  in kB      -0.01425   -40.66504    -0.01019     0.00000     0.00000     0.00000

 VOLUME and BASIS-vectors are now :
  energy-cutoff  :     2000.00
  volume of cell :      210.84
      direct lattice vectors                 reciprocal lattice vectors
     4.255293660  0.000000000  0.000000000     0.235001408  0.000000000  0.000000000
     0.000000000  2.528614717  0.000000000     0.000000000  0.395473456  0.000000000
     0.000000000  0.000000000 19.594603828     0.000000000  0.000000000  0.051034459

[...]

 FORCES acting on ions
    electron-ion (+dipol)            ewald-force                    non-local-force                 convergence-correction
   -.527E+01 -.105E-14 0.796E-09   0.526E+01 0.365E-14 0.608E-18   0.722E-02 0.104E-16 0.000E+00   0.641E-07 -.400E-15 -.807E-13
   0.527E+01 -.505E-14 -.224E-08   -.526E+01 -.590E-14 -.977E-18   -.722E-02 -.139E-16 0.000E+00   -.641E-07 -.866E-15 -.813E-13
   -.527E+01 -.202E-12 0.805E-09   0.526E+01 0.596E-14 0.246E-18   0.722E-02 -.104E-16 0.000E+00   0.641E-07 0.813E-15 -.808E-13
   0.527E+01 0.787E-17 -.222E-08   -.526E+01 -.359E-14 0.122E-18   -.722E-02 0.139E-16 0.000E+00   -.641E-07 -.208E-14 -.812E-13
   -.260E-06 -.208E-12 -.285E-08   0.888E-15 0.119E-15 -.963E-34   -.173E-17 0.000E+00 0.000E+00   -.425E-13 -.253E-14 -.324E-12

 POSITION                                       TOTAL-FORCE (eV/Angst)
      0.00271      0.00000      0.00000        -0.002062     -0.000000      0.000000
      0.70650      1.26431      0.00000         0.002062      0.000000      0.000000
      2.13036      1.26431      0.00000        -0.002062     -0.000000      0.000000
      2.83415      0.00000      0.00000         0.002062      0.000000      0.000000
    total drift:                               -0.000000     -0.000000     -0.000000

  FREE ENERGIE OF THE ION-ELECTRON SYSTEM (eV)
  free  energy   TOTEN  =       -36.85924553 eV

  energy  without entropy=      -36.85924552  energy(sigma->0) =      -36.85924553

 Quasi-Newton relaxation of ions (Broydens 2nd method)
  g(Force)  = 0.820E-06   g(Stress)= 0.000E+00

 Reset! Starting new Quasi-Newton update for ions

[...]

 d Force =-0.1227922E-05[-0.328E-05, 0.820E-06]  d Energy =-0.1207671E-05-0.203E-07
 d Force =-0.2100169E-02[-0.211E-02,-0.209E-02]  d Ewald  =-0.2100168E-02-0.771E-09

[...]

 retain information from N=  1 steps
 eigenvalues of (default step * inverse Hessian matrix)
  average eigenvalue of G=   0.2003
 eigenvalue spectrum of G is  0.2003

[...]

WARNING in EDDRMM: call to ZHEGV failed, returncode =   6  3  1

[...]

 eigenvalue-minimisations  :  2754
 total energy-change (2. order) : 0.1751914E-09  (-0.1948606E-12)
 number of electron      16.0000000 magnetization
 augmentation part        0.3726618 magnetization

[...]

 d Force = 0.1310326E-05[ 0.537E-09, 0.262E-05]  d Energy = 0.1293953E-05 0.164E-07
 d Force = 0.1680706E-02[ 0.168E-02, 0.169E-02]  d Ewald  = 0.1680706E-02 0.394E-09

[...]

 FEWALD executed in parallel

[...]

 eigenvalue-minimisations  :  4564
 total energy-change (2. order) : 0.4079084E-09  ( 0.5979038E-09)
 number of electron      16.0000000 magnetization
 augmentation part        0.3726618 magnetization

[...]

 eigenvalue-minimisations  :  1462
 total energy-change (2. order) : 0.2133902E-09  ( 0.2132451E-13)
 number of electron      16.0000000 magnetization
 augmentation part        0.3726618 magnetization

 Broyden mixing:
  rms(total) = 0.72799E-09    rms(broyden)= 0.72797E-09
  rms(prec ) = 0.11660E-08
  weight for this iteration     100.00

 eigenvalues of (default mixing * dielectric matrix)
  average eigenvalue GAMMA=   1.9809
  3.2211  2.5452  1.2827  0.8747

[...]

----------------------------------------- Iteration    4(   6)  ---------------------------------------

 eigenvalue-minimisations  :  1425
 total energy-change (2. order) :-0.5366019E-10  (-0.4658414E-13)
 number of electron      16.0000000 magnetization
 augmentation part        0.3726618 magnetization

 Free energy of the ion-electron system (eV)
  alpha Z        PSCENC =         6.18334092
  Ewald energy   TEWEN  =      2450.86292956
  -Hartree energ DENC   =     -2945.14503724
  -exchange      EXHF   =         0.00000000
  -V(xc)+E(xc)   XCENC  =        57.14541432
  PAW double counting   =       268.89986965     -274.01172245
  entropy T*S    EENTRO =        -0.00000002
  eigenvalues    EBANDS =      -189.41756728
  atomic energy  EATOM  =       588.62352690
  free energy    TOTEN  =       -36.85924562 eV

  energy without entropy =      -36.85924560  energy(sigma->0) =      -36.85924561

 average (electrostatic) potential at core
  the test charge radii are     0.6991
  (the norm of the test charge is              1.0000)
       1 -58.3135       2 -58.3135       3 -58.3135       4 -58.3135

 E-fermi :  -2.8234     XC(G=0):  -2.1768     alpha+bet : -1.9046

[...]

 k-point   247 :       0.5000    0.5000    0.0000
  band No.  band energies     occupation
      1     -17.1209      2.00000
      2     -17.1209      2.00000
      3     -15.8432      2.00000
      4     -15.8432      2.00000
      5      -8.9695      2.00000
      6      -8.9695      2.00000
      7      -5.2262      2.00000
      8      -5.2262      2.00000
      9      -1.1724      0.00000
     10      -1.1724      0.00000
     11       4.5911      0.00000
     12       4.5911      0.00000

 soft charge-density along one line, spin component           1
         0         1         2         3         4         5         6         7         8         9
 total charge-density along one line

------------------------ aborting loop because EDIFF is reached ----------------------------------------

  FORCE on cell =-STRESS in cart. coord.  units (eV):
  Direction    XX          YY          ZZ          XY          YZ          ZX
  Alpha Z     6.18334     6.18334     6.18334
  Ewald    2984.50592  2981.30515 -3514.94836     0.00000     0.00000    -0.00000
  Hartree  2922.52873  2921.52971 -2898.91341    -0.00000    -0.00000    -0.00000
  E(xc)     -57.99063   -57.96095   -60.29741     0.00000     0.00000    -0.00000
  Local   -6079.99270 -6076.39606  6208.60119    -0.00000    -0.00000    -0.00000
  n-local   -13.82062   -13.01751   -12.48301     0.08809     0.00000    -0.00000
  augment    -1.48165    -1.47827    -1.37206    -0.00000    -0.00000     0.00000
  Kinetic   240.06682   234.48263   273.22837    -4.64038    -0.00000     0.00000
  Fock        0.00000     0.00000     0.00000     0.00000     0.00000     0.00000
  Total      -0.00079    -5.35195    -0.00134     0.00000     0.00000     0.00000
  in kB      -0.00602   -40.66997    -0.01018     0.00000     0.00000     0.00000

 VOLUME and BASIS-vectors are now :
  energy-cutoff  :     2000.00
  volume of cell :      210.84
      direct lattice vectors                 reciprocal lattice vectors
     4.255293660  0.000000000  0.000000000     0.235001408  0.000000000  0.000000000
     0.000000000  2.528614717  0.000000000     0.000000000  0.395473456  0.000000000
     0.000000000  0.000000000 19.594603828     0.000000000  0.000000000  0.051034459

  length of vectors
     4.255293660  2.528614717 19.594603828     0.235001408  0.395473456  0.051034459

 FORCES acting on ions
    electron-ion (+dipol)            ewald-force                    non-local-force                 convergence-correction
   -.528E+01 -.289E-15 0.796E-09   0.527E+01 -.625E-14 -.296E-18   0.794E-02 0.139E-16 -.226E-25   0.965E-09 -.262E-14 -.643E-13
   0.528E+01 0.194E-12 -.225E-08   -.527E+01 0.326E-14 -.123E-18   -.794E-02 -.139E-16 -.129E-25   -.965E-09 0.613E-15 -.640E-13
   -.528E+01 -.200E-12 0.803E-09   0.527E+01 -.320E-14 0.730E-18   0.794E-02 0.694E-17 -.258E-25   0.965E-09 0.275E-14 -.629E-13
   0.528E+01 -.140E-15 -.228E-08   -.527E+01 0.631E-14 -.311E-18   -.794E-02 0.000E+00 0.194E-25   -.965E-09 -.472E-14 -.625E-13
   -.259E-06 -.649E-14 -.293E-08   0.888E-15 0.119E-15 0.481E-34   -.173E-17 0.694E-17 -.420E-25   0.229E-14 -.398E-14 -.254E-12

 POSITION                                       TOTAL-FORCE (eV/Angst)
      0.00269     -0.00000     -0.00000        -0.000001      0.000000      0.000000
      0.70652      1.26431      0.00000         0.000001     -0.000000     -0.000000
      2.13034      1.26431     -0.00000        -0.000001     -0.000000      0.000000
      2.83417      0.00000      0.00000         0.000001      0.000000     -0.000000
    total drift:                               -0.000000     -0.000000     -0.000000

  FREE ENERGIE OF THE ION-ELECTRON SYSTEM (eV)
  free  energy   TOTEN  =       -36.85924562 eV

  energy  without entropy=      -36.85924560  energy(sigma->0) =      -36.85924561

 d Force = 0.2572184E-13[-0.585E-13, 0.110E-12]  d Energy = 0.1242597E-09-0.124E-09
 d Force = 0.3433824E-06[ 0.343E-06, 0.343E-06]  d Ewald  = 0.3433820E-06 0.455E-12

 Quasi-Newton relaxation of ions (Broydens 2nd method)
  g(Force)  = 0.155E-12   g(Stress)= 0.000E+00

 retain information from N=  1 steps
 eigenvalues of (default step * inverse Hessian matrix)
  average eigenvalue of G=   0.1307
 eigenvalue spectrum of G is  0.1307

 reached required accuracy - stopping structural energy minimisation