 vasp.5.3.5 31Mar14 (build Mar 02 2015 18:14:16) complex

 executed on             LinuxIFC date 2018.08.10  14:37:55

 INCAR:
 POTCAR:   PAW_PBE C 08Apr2002
 POTCAR:   PAW_PBE C 08Apr2002
   VRHFIN =C: s2p2

   TITEL  = PAW_PBE C 08Apr2002
   POMASS =   12.011; ZVAL   =    4.000    mass and valenz
   ENMAX  =  400.000; ENMIN  =  300.000 eV
   QCUT   =   -5.516; QGAM   =   11.032    optimization parameters

   Description
     l     E      TYP  RCUT    TYP  RCUT
     0   .000     23  1.200
     0   .000     23  1.200
     1   .000     23  1.500
     1  2.500     23  1.500
     2   .000      7  1.500

 PAW_PBE C 08Apr2002                    :

 POSCAR: MD-kMC export data
  positions in direct lattice
  velocities in cartesian coordinates
 exchange correlation table for  LEXCH =        8
   RHO(1)=    0.500       N(1)  =     2000
   RHO(2)=  100.500       N(2)  =     4000

 ion  position               nearest neighbor table
   1  0.999  0.000  0.000-   2 1.43   2 1.43   4 1.46
   2  0.167  0.500  0.000-   1 1.43   1 1.43   3 1.46
   3  0.499  0.500  0.000-   4 1.43   4 1.43   2 1.46
   4  0.667  0.000  0.000-   3 1.43   3 1.43   1 1.46

  LATTYP: Found a simple orthorhombic cell.
 ALAT       =     2.4553003260
 B/A-ratio  =     1.7932474968
 C/A-ratio  =     7.9431833445

  Lattice vectors:

 A1 = (   0.0000000000,  -2.4553003260,   0.0000000000)
 A2 = (  -4.4029611635,   0.0000000000,   0.0000000000)
 A3 = (   0.0000000000,   0.0000000000, -19.5029006549)

Analysis of symmetry for initial positions (statically):
 Subroutine PRICEL returns following result:

  LATTYP: Found a base centered orthorhombic cell.
 ALAT       =     2.4553003260
 B/A-ratio  =     1.7932474968
 C/A-ratio  =     7.9431833445

[...]

   2 primitive cells build up your supercell.

 Routine SETGRP: Setting up the symmetry group for a
 simple orthorhombic supercell.

 Subroutine GETGRP returns: Found  8 space group operations
 (whereof  4 operations were pure point group operations)
 out of a pool of  8 trial point group operations.

The static configuration has the point symmetry C_2v.
 The point group associated with its full space group is D_2h.

Analysis of symmetry for dynamics (positions and initial velocities):
 Subroutine PRICEL returns following result:

  LATTYP: Found a base centered orthorhombic cell.
 ALAT       =     2.4553003260
 B/A-ratio  =     1.7932474968
 C/A-ratio  =     7.9431833445

  Lattice vectors:

 A1 = (   2.2014805817,  -1.2276501630,   0.0000000000)
 A2 = (  -2.2014805817,  -1.2276501630,   0.0000000000)
 A3 = (   0.0000000000,   0.0000000000, -19.5029006549)

   2 primitive cells build up your supercell.

 Routine SETGRP: Setting up the symmetry group for a
 simple orthorhombic supercell.

 Subroutine GETGRP returns: Found  8 space group operations
 (whereof  4 operations were pure point group operations)
 out of a pool of  8 trial point group operations.

The dynamic configuration has the point symmetry C_2v.
 The point group associated with its full space group is D_2h.

 KPOINTS: Automatic mesh

Automatic generation of k-mesh.
Space group operators:
 irot       det(A)        alpha          n_x          n_y          n_z        tau_x        tau_y        tau_z
    1     1.000000     0.000000     1.000000     0.000000     0.000000     0.000000     0.000000     0.000000
    2    -1.000000   180.000000     0.000000     0.000000     1.000000     0.000000     0.000000     0.000000
    3     1.000000   180.000000     1.000000     0.000000     0.000000     0.000000     0.000000     0.000000
    4    -1.000000   180.000000     0.000000     1.000000     0.000000     0.000000     0.000000     0.000000
    5    -1.000000     0.000000     1.000000     0.000000     0.000000     0.166667    -0.500000     0.000000
    6     1.000000   180.000000     0.000000     0.000000     1.000000     0.166667    -0.500000     0.000000
    7    -1.000000   180.000000     1.000000     0.000000     0.000000     0.166667    -0.500000     0.000000
    8     1.000000   180.000000     0.000000     1.000000     0.000000     0.166667    -0.500000     0.000000

 Subroutine IBZKPT returns following result:

 Found    247 irreducible k-points:

 Following reciprocal coordinates:
            Coordinates               Weight
  0.000000  0.000000  0.000000      1.000000
  0.041667  0.000000  0.000000      2.000000
  0.083333  0.000000  0.000000      2.000000
  0.125000  0.000000  0.000000      2.000000
  0.166667  0.000000  0.000000      2.000000
  0.208333  0.000000  0.000000      2.000000
  0.250000  0.000000  0.000000      2.000000
  0.291667  0.000000  0.000000      2.000000
  0.333333  0.000000  0.000000      2.000000
  0.375000  0.000000  0.000000      2.000000
  0.416667  0.000000  0.000000      2.000000
  0.458333  0.000000  0.000000      2.000000
  0.500000  0.000000  0.000000      1.000000
  0.000000  0.027778  0.000000      2.000000
  0.041667  0.027778  0.000000      4.000000
  0.083333  0.027778  0.000000      4.000000
  0.125000  0.027778  0.000000      4.000000
  0.166667  0.027778  0.000000      4.000000
  0.208333  0.027778  0.000000      4.000000
  0.250000  0.027778  0.000000      4.000000
  0.291667  0.027778  0.000000      4.000000
  0.333333  0.027778  0.000000      4.000000
  0.375000  0.027778  0.000000      4.000000
  0.416667  0.027778  0.000000      4.000000
  0.458333  0.027778  0.000000      4.000000
  0.500000  0.027778  0.000000      2.000000
  0.000000  0.055556  0.000000      2.000000
  0.041667  0.055556  0.000000      4.000000
  0.083333  0.055556  0.000000      4.000000
  0.125000  0.055556  0.000000      4.000000
  0.166667  0.055556  0.000000      4.000000
  0.208333  0.055556  0.000000      4.000000
  0.250000  0.055556  0.000000      4.000000
  0.291667  0.055556  0.000000      4.000000
  0.333333  0.055556  0.000000      4.000000
  0.375000  0.055556  0.000000      4.000000
  0.416667  0.055556  0.000000      4.000000
  0.458333  0.055556  0.000000      4.000000
  0.500000  0.055556  0.000000      2.000000
  0.000000  0.083333  0.000000      2.000000
  0.041667  0.083333  0.000000      4.000000
  0.083333  0.083333  0.000000      4.000000
  0.125000  0.083333  0.000000      4.000000
  0.166667  0.083333  0.000000      4.000000
  0.208333  0.083333  0.000000      4.000000
  0.250000  0.083333  0.000000      4.000000
  0.291667  0.083333  0.000000      4.000000
  0.333333  0.083333  0.000000      4.000000
  0.375000  0.083333  0.000000      4.000000
  0.416667  0.083333  0.000000      4.000000
  0.458333  0.083333  0.000000      4.000000
  0.500000  0.083333  0.000000      2.000000
  0.000000  0.111111  0.000000      2.000000
  0.041667  0.111111  0.000000      4.000000
  0.083333  0.111111  0.000000      4.000000
  0.125000  0.111111  0.000000      4.000000
  0.166667  0.111111  0.000000      4.000000
  0.208333  0.111111  0.000000      4.000000
  0.250000  0.111111  0.000000      4.000000
  0.291667  0.111111  0.000000      4.000000
[...]
  0.458333  0.472222  0.000000      4.000000
  0.500000  0.472222  0.000000      2.000000
  0.000000  0.500000  0.000000      1.000000
  0.041667  0.500000  0.000000      2.000000
  0.083333  0.500000  0.000000      2.000000
  0.125000  0.500000  0.000000      2.000000
  0.166667  0.500000  0.000000      2.000000
  0.208333  0.500000  0.000000      2.000000
  0.250000  0.500000  0.000000      2.000000
  0.291667  0.500000  0.000000      2.000000
  0.333333  0.500000  0.000000      2.000000
  0.375000  0.500000  0.000000      2.000000
  0.416667  0.500000  0.000000      2.000000
  0.458333  0.500000  0.000000      2.000000
  0.500000  0.500000  0.000000      1.000000

 Following cartesian coordinates:
            Coordinates               Weight
  0.000000  0.000000  0.000000      1.000000
  0.009463  0.000000  0.000000      2.000000
  0.018927  0.000000  0.000000      2.000000
  0.028390  0.000000  0.000000      2.000000
  0.037853  0.000000  0.000000      2.000000
  0.047317  0.000000  0.000000      2.000000
  0.056780  0.000000  0.000000      2.000000
  0.066243  0.000000  0.000000      2.000000
  0.075707  0.000000  0.000000      2.000000
  0.085170  0.000000  0.000000      2.000000
  0.094633  0.000000  0.000000      2.000000
  0.104097  0.000000  0.000000      2.000000
  0.113560  0.000000  0.000000      1.000000
  0.000000  0.011313  0.000000      2.000000
  0.009463  0.011313  0.000000      4.000000
  0.018927  0.011313  0.000000      4.000000
  0.028390  0.011313  0.000000      4.000000
  0.037853  0.011313  0.000000      4.000000
  0.047317  0.011313  0.000000      4.000000
  0.056780  0.011313  0.000000      4.000000
  0.066243  0.011313  0.000000      4.000000
  0.075707  0.011313  0.000000      4.000000
  0.085170  0.011313  0.000000      4.000000
  0.094633  0.011313  0.000000      4.000000
  0.104097  0.011313  0.000000      4.000000
  0.113560  0.011313  0.000000      2.000000
  0.000000  0.022627  0.000000      2.000000
  0.009463  0.022627  0.000000      4.000000
  0.018927  0.022627  0.000000      4.000000
  0.028390  0.022627  0.000000      4.000000
  0.037853  0.022627  0.000000      4.000000
  0.047317  0.022627  0.000000      4.000000
  0.056780  0.022627  0.000000      4.000000
  0.066243  0.022627  0.000000      4.000000
  0.075707  0.022627  0.000000      4.000000
  0.085170  0.022627  0.000000      4.000000
  0.094633  0.022627  0.000000      4.000000
  0.104097  0.022627  0.000000      4.000000
  0.113560  0.022627  0.000000      2.000000
  0.000000  0.033940  0.000000      2.000000
  0.009463  0.033940  0.000000      4.000000
  0.018927  0.033940  0.000000      4.000000
  0.028390  0.033940  0.000000      4.000000
  0.037853  0.033940  0.000000      4.000000
  0.047317  0.033940  0.000000      4.000000
  0.056780  0.033940  0.000000      4.000000
  0.066243  0.033940  0.000000      4.000000
  0.075707  0.033940  0.000000      4.000000
  0.085170  0.033940  0.000000      4.000000
  0.094633  0.033940  0.000000      4.000000
  0.104097  0.033940  0.000000      4.000000
  0.113560  0.033940  0.000000      2.000000
  0.000000  0.045254  0.000000      2.000000
  0.009463  0.045254  0.000000      4.000000
  0.018927  0.045254  0.000000      4.000000
  0.028390  0.045254  0.000000      4.000000
  0.037853  0.045254  0.000000      4.000000
  0.047317  0.045254  0.000000      4.000000
  0.056780  0.045254  0.000000      4.000000
  0.066243  0.045254  0.000000      4.000000
[...]
  0.104097  0.192328  0.000000      4.000000
  0.113560  0.192328  0.000000      2.000000
  0.000000  0.203641  0.000000      1.000000
  0.009463  0.203641  0.000000      2.000000
  0.018927  0.203641  0.000000      2.000000
  0.028390  0.203641  0.000000      2.000000
  0.037853  0.203641  0.000000      2.000000
  0.047317  0.203641  0.000000      2.000000
  0.056780  0.203641  0.000000      2.000000
  0.066243  0.203641  0.000000      2.000000
  0.075707  0.203641  0.000000      2.000000
  0.085170  0.203641  0.000000      2.000000
  0.094633  0.203641  0.000000      2.000000
  0.104097  0.203641  0.000000      2.000000
  0.113560  0.203641  0.000000      1.000000

 I would recommend the setting:
   dimension x,y,z NGX =    64 NGY =   36 NGZ =  284
[...]
 k-point ** :   0.5000 0.2778 0.0000  plane waves:   42874
 k-point ** :   0.0000 0.3056 0.0000  plane waves:   42820
 k-point ** :   0.0417 0.3056 0.0000  plane waves:   42812
 k-point ** :   0.0833 0.3056 0.0000  plane waves:   42828
 k-point ** :   0.1250 0.3056 0.0000  plane waves:   42867
 k-point ** :   0.1667 0.3056 0.0000  plane waves:   42875
 k-point ** :   0.2083 0.3056 0.0000  plane waves:   42864
 k-point ** :   0.2500 0.3056 0.0000  plane waves:   42844
 k-point ** :   0.2917 0.3056 0.0000  plane waves:   42849
 k-point ** :   0.3333 0.3056 0.0000  plane waves:   42853
 k-point ** :   0.3750 0.3056 0.0000  plane waves:   42856
 k-point ** :   0.4167 0.3056 0.0000  plane waves:   42865
 k-point ** :   0.4583 0.3056 0.0000  plane waves:   42879
 k-point ** :   0.5000 0.3056 0.0000  plane waves:   42898
 k-point ** :   0.0000 0.3333 0.0000  plane waves:   42832
 k-point ** :   0.0417 0.3333 0.0000  plane waves:   42836
 k-point ** :   0.0833 0.3333 0.0000  plane waves:   42824
[...]
 k-point ** :   0.4583 0.4722 0.0000  plane waves:   42958
 k-point ** :   0.5000 0.4722 0.0000  plane waves:   42968
 k-point ** :   0.0000 0.5000 0.0000  plane waves:   42746
 k-point ** :   0.0417 0.5000 0.0000  plane waves:   42746
 k-point ** :   0.0833 0.5000 0.0000  plane waves:   42804
 k-point ** :   0.1250 0.5000 0.0000  plane waves:   42806
 k-point ** :   0.1667 0.5000 0.0000  plane waves:   42838
 k-point ** :   0.2083 0.5000 0.0000  plane waves:   42860
 k-point ** :   0.2500 0.5000 0.0000  plane waves:   42888
 k-point ** :   0.2917 0.5000 0.0000  plane waves:   42948
 k-point ** :   0.3333 0.5000 0.0000  plane waves:   42966
 k-point ** :   0.3750 0.5000 0.0000  plane waves:   42974
 k-point ** :   0.4167 0.5000 0.0000  plane waves:   42928
 k-point ** :   0.4583 0.5000 0.0000  plane waves:   42960
 k-point ** :   0.5000 0.5000 0.0000  plane waves:   43008

 maximum and minimum number of plane-waves per node :     21525    21308

 maximum number of plane-waves:     43008
 maximum index in each direction:
   IXMAX=   16   IYMAX=    8   IZMAX=   71
   IXMIN=  -16   IYMIN=   -9   IZMIN=  -71

 WARNING: aliasing errors must be expected set NGX to  66 to avoid them
 NGY is ok and might be reduce to  36
 NGZ is ok and might be reduce to 286
 aliasing errors are usually negligible using standard VASP settings
 and one can safely disregard these warnings

 parallel 3D FFT for wavefunctions:
    minimum data exchange during FFTs selected (reduces bandwidth)
 parallel 3D FFT for charge:
    minimum data exchange during FFTs selected (reduces bandwidth)

 Broyden mixing: mesh for mixing (old mesh)
   NGX = 33   NGY = 17   NGZ =143
  (NGX  =128   NGY  = 72   NGZ  =576)
  gives a total of  80223 points

 initial charge density was supplied:
 charge density of overlapping atoms calculated
 number of electron      16.0000000 magnetization
 keeping initial charge density in first step

 Maximum index for augmentation-charges         4575 (set IRDMAX)

 First call to EWALD:  gamma=   0.298
 Maximum number of real-space cells 4x 6x 1
 Maximum number of reciprocal cells 2x 1x 8

 FEWALD executed in parallel

----------------------------------------- Iteration    1(   1)  ---------------------------------------

 eigenvalue-minimisations  :  5928
 total energy-change (2. order) : 0.1867090E+03  (-0.1061539E+04)
 number of electron      16.0000000 magnetization
 augmentation part       16.0000000 magnetization

 Free energy of the ion-electron system (eV)
  alpha Z        PSCENC =         6.18334092
  Ewald energy   TEWEN  =      2420.54306042
  -Hartree energ DENC   =     -2850.90200367
  -exchange      EXHF   =         0.00000000
  -V(xc)+E(xc)   XCENC  =        54.75700746
  PAW double counting   =       151.32577238     -155.92769107
  entropy T*S    EENTRO =        -0.00177549
  eigenvalues    EBANDS =       -27.89223814
  atomic energy  EATOM  =       588.62352690
  free energy    TOTEN  =       186.70899972 eV

  energy without entropy =      186.71077521  energy(sigma->0) =      186.70988747

[...]

 eigenvalue-minimisations  : 10272
 total energy-change (2. order) :-0.1958982E+03  (-0.1735061E+03)
 number of electron      16.0000000 magnetization
 augmentation part       16.0000000 magnetization

[...]

 Broyden mixing:
  rms(total) = 0.70330E+00    rms(broyden)= 0.70330E+00
  rms(prec ) = 0.76683E+00
  weight for this iteration     100.00

[...]

 eigenvalues of (default mixing * dielectric matrix)
  average eigenvalue GAMMA=   2.3105
  2.3105

[...]

WARNING in EDDRMM: call to ZHEGV failed, returncode =   6  3  1
WARNING in EDDRMM: call to ZHEGV failed, returncode =   6  3  1
WARNING in EDDRMM: call to ZHEGV failed, returncode =   6  3  1
WARNING in EDDRMM: call to ZHEGV failed, returncode =   6  3  1
WARNING in EDDRMM: call to ZHEGV failed, returncode =   6  3  1
WARNING in EDDRMM: call to ZHEGV failed, returncode =   6  3  1
WARNING in EDDRMM: call to ZHEGV failed, returncode =   6  3  1

[...]

 average (electrostatic) potential at core
  the test charge radii are     0.6991
  (the norm of the test charge is              1.0000)
       1 -58.3418       2 -58.3418       3 -58.3418       4 -58.3418

 E-fermi :  -2.8382     XC(G=0):  -2.1875     alpha+bet : -1.9046

 k-point     1 :       0.0000    0.0000    0.0000
  band No.  band energies     occupation
      1     -22.0437      2.00000
      2     -17.3049      2.00000
      3     -15.7991      2.00000
      4     -10.1968      2.00000
      5      -8.7334      2.00000
      6      -6.0484      2.00000
      7      -5.7176      2.00000
      8      -5.3821      2.00000
      9      -1.2058      0.00000
     10       0.5493      0.00000
     11       1.3462      0.00000
     12       1.7368      0.00000

[...]

 soft charge-density along one line, spin component           1
         0         1         2         3         4         5         6         7         8         9
 total charge-density along one line

------------------------ aborting loop because EDIFF is reached ----------------------------------------

  FORCE on cell =-STRESS in cart. coord.  units (eV):
  Direction    XX          YY          ZZ          XY          YZ          ZX
  Alpha Z     6.18334     6.18334     6.18334
  Ewald    2949.13218  2953.53588 -3482.12526     0.00000     0.00000     0.00000
  Hartree  2890.93139  2892.40614 -2868.43910    -0.00000    -0.00000    -0.00000
  E(xc)     -57.87676   -57.90954   -60.21084    -0.00000    -0.00000    -0.00000
  Local   -6013.83359 -6019.03807  6145.50499    -0.00000    -0.00000     0.00000
  n-local   -12.81499   -13.78405   -12.41883     0.07061     0.00000     0.00000
  augment    -1.46492    -1.46762    -1.36251     0.00000    -0.00000     0.00000
  Kinetic   233.21627   240.07576   272.86686    -4.42430    -0.00000    -0.00000
  Fock        0.00000     0.00000     0.00000     0.00000     0.00000     0.00000
  Total      -6.52707     0.00183    -0.00136     0.00000     0.00000     0.00000
  in kB     -49.59986     0.01393    -0.01035     0.00000     0.00000     0.00000

 VOLUME and BASIS-vectors are now :
  energy-cutoff  :     2000.00
  volume of cell :      210.84
      direct lattice vectors                 reciprocal lattice vectors
     4.402961163  0.000000000  0.000000000     0.227119877  0.000000000  0.000000000
     0.000000000  2.455300326  0.000000000     0.000000000  0.407282152  0.000000000
     0.000000000  0.000000000 19.502900655     0.000000000  0.000000000  0.051274424

[...]

 FORCES acting on ions
    electron-ion (+dipol)            ewald-force                    non-local-force                 convergence-correction
   0.649E+01 0.744E-16 -.304E-08   -.648E+01 0.599E-15 0.206E-17   -.107E-01 0.000E+00 0.827E-24   -.367E-06 0.992E-15 -.801E-13
   -.649E+01 0.769E-14 -.121E-07   0.648E+01 -.712E-14 -.225E-17   0.107E-01 0.347E-17 -.827E-24   0.367E-06 -.799E-15 -.792E-13
   0.649E+01 -.211E-12 -.307E-08   -.648E+01 0.385E-14 0.317E-17   -.107E-01 0.000E+00 0.827E-24   -.367E-06 0.944E-15 -.802E-13
   -.649E+01 0.383E-15 -.121E-07   0.648E+01 -.387E-14 -.298E-17   0.107E-01 0.347E-17 -.103E-23   0.367E-06 -.714E-15 -.793E-13
   -.733E-06 -.203E-12 -.303E-07   -.178E-14 -.654E-14 0.000E+00   -.173E-17 0.694E-17 -.207E-24   -.165E-12 0.423E-15 -.319E-12

 POSITION                                       TOTAL-FORCE (eV/Angst)
      4.40027      0.00000      0.00000        -0.001340     -0.000000      0.000000
      0.73651      1.22765      0.00000         0.001340      0.000000     -0.000000
      2.19879      1.22765      0.00000        -0.001340      0.000000      0.000000
      2.93799      0.00000      0.00000         0.001340     -0.000000     -0.000000
    total drift:                               -0.000001     -0.000000     -0.000000

  FREE ENERGIE OF THE ION-ELECTRON SYSTEM (eV)
  free  energy   TOTEN  =       -36.82731579 eV

  energy  without entropy=      -36.82731579  energy(sigma->0) =      -36.82731579

 Quasi-Newton relaxation of ions (Broydens 2nd method)
  g(Force)  = 0.347E-06   g(Stress)= 0.000E+00

 Reset! Starting new Quasi-Newton update for ions

[...]

WARNING in EDDRMM: call to ZHEGV failed, returncode =   6  3  1

[...]

 d Force =-0.4466973E-06[-0.124E-05, 0.347E-06]  d Energy =-0.4650780E-06 0.184E-07
 d Force = 0.1673489E-02[ 0.167E-02, 0.168E-02]  d Ewald  = 0.1673489E-02-0.201E-09

[...]

 retain information from N=  1 steps
 eigenvalues of (default step * inverse Hessian matrix)
  average eigenvalue of G=   0.2185
 eigenvalue spectrum of G is  0.2185

[...]

 d Force = 0.4856171E-06[ 0.211E-08, 0.969E-06]  d Energy = 0.4993796E-06-0.138E-07
 d Force =-0.1307407E-02[-0.131E-02,-0.131E-02]  d Ewald  =-0.1307407E-02 0.969E-10

[...]

 eigenvalue-minimisations  :  5176
 total energy-change (2. order) : 0.6214123E-09  ( 0.5194530E-09)
 number of electron      16.0000000 magnetization
 augmentation part        0.3705922 magnetization

[...]

 eigenvalue-minimisations  :  2925
 total energy-change (2. order) :-0.5347829E-09  ( 0.2449810E-12)
 number of electron      16.0000000 magnetization
 augmentation part        0.3705922 magnetization

[...]

 eigenvalue-minimisations  :  2365
 total energy-change (2. order) : 0.9208634E-11  (-0.1726500E-12)
 number of electron      16.0000000 magnetization
 augmentation part        0.3705922 magnetization

[...]

 d Force =-0.7007393E-12[-0.603E-11, 0.463E-11]  d Energy =-0.1955414E-10 0.189E-10
 d Force =-0.2863083E-05[-0.286E-05,-0.286E-05]  d Ewald  =-0.2863082E-05-0.136E-11

[...]

 FEWALD executed in parallel

[...]

 eigenvalue-minimisations  :  4948
 total energy-change (2. order) : 0.5320544E-09  ( 0.5266178E-09)
 number of electron      16.0000000 magnetization
 augmentation part        0.3705922 magnetization

[...]

 eigenvalue-minimisations  :  1503
 total energy-change (2. order) :-0.9322321E-11  (-0.1114972E-12)
 number of electron      16.0000000 magnetization
 augmentation part        0.3705922 magnetization

 Broyden mixing:
  rms(total) = 0.22812E-08    rms(broyden)= 0.22812E-08
  rms(prec ) = 0.30755E-08
  weight for this iteration     100.00

 eigenvalues of (default mixing * dielectric matrix)
  average eigenvalue GAMMA=   1.2782
  2.5783  1.1925  0.0638

[...]

----------------------------------------- Iteration    5(   5)  ---------------------------------------

 eigenvalue-minimisations  :  1466
 total energy-change (2. order) :-0.3410605E-12  ( 0.2036848E-13)
 number of electron      16.0000000 magnetization
 augmentation part        0.3705922 magnetization

 Free energy of the ion-electron system (eV)
  alpha Z        PSCENC =         6.18334092
  Ewald energy   TEWEN  =      2420.54269558
  -Hartree energ DENC   =     -2914.89814280
  -exchange      EXHF   =         0.00000000
  -V(xc)+E(xc)   XCENC  =        57.06003868
  PAW double counting   =       267.09014479     -272.19388525
  entropy T*S    EENTRO =        -0.00000000
  eigenvalues    EBANDS =      -189.23503465
  atomic energy  EATOM  =       588.62352690
  free energy    TOTEN  =       -36.82731583 eV

  energy without entropy =      -36.82731583  energy(sigma->0) =      -36.82731583

 average (electrostatic) potential at core
  the test charge radii are     0.6991
  (the norm of the test charge is              1.0000)
       1 -58.3418       2 -58.3418       3 -58.3418       4 -58.3418

 E-fermi :  -2.8384     XC(G=0):  -2.1851     alpha+bet : -1.9046

[...]

 k-point   247 :       0.5000    0.5000    0.0000
  band No.  band energies     occupation
      1     -16.8079      2.00000
      2     -16.8079      2.00000
      3     -15.8338      2.00000
      4     -15.8338      2.00000
      5      -9.3277      2.00000
      6      -9.3277      2.00000
      7      -4.9903      2.00000
      8      -4.9903      2.00000
      9      -1.1702      0.00000
     10      -1.1702      0.00000
     11       3.7492      0.00000
     12       3.7492      0.00000

 soft charge-density along one line, spin component           1
         0         1         2         3         4         5         6         7         8         9
 total charge-density along one line

------------------------ aborting loop because EDIFF is reached ----------------------------------------

  FORCE on cell =-STRESS in cart. coord.  units (eV):
  Direction    XX          YY          ZZ          XY          YZ          ZX
  Alpha Z     6.18334     6.18334     6.18334
  Ewald    2949.14411  2953.52359 -3482.12526     0.00000     0.00000    -0.00000
  Hartree  2890.93303  2892.40425 -2868.43914    -0.00000    -0.00000    -0.00000
  E(xc)     -57.87670   -57.90957   -60.21083    -0.00000    -0.00000    -0.00000
  Local   -6013.84509 -6019.02617  6145.50513    -0.00000    -0.00000     0.00000
  n-local   -12.81488   -13.78415   -12.41883     0.07060     0.00000    -0.00000
  augment    -1.46493    -1.46760    -1.36251    -0.00000    -0.00000    -0.00000
  Kinetic   233.21426   240.07756   272.86676    -4.42425    -0.00000     0.00000
  Fock        0.00000     0.00000     0.00000     0.00000     0.00000     0.00000
  Total      -6.52686     0.00126    -0.00134     0.00000     0.00000     0.00000
  in kB     -49.59824     0.00954    -0.01015     0.00000     0.00000     0.00000

 VOLUME and BASIS-vectors are now :
  energy-cutoff  :     2000.00
  volume of cell :      210.84
      direct lattice vectors                 reciprocal lattice vectors
     4.402961163  0.000000000  0.000000000     0.227119877  0.000000000  0.000000000
     0.000000000  2.455300326  0.000000000     0.000000000  0.407282152  0.000000000
     0.000000000  0.000000000 19.502900655     0.000000000  0.000000000  0.051274424

  length of vectors
     4.402961163  2.455300326 19.502900655     0.227119877  0.407282152  0.051274424

 FORCES acting on ions
    electron-ion (+dipol)            ewald-force                    non-local-force                 convergence-correction
   0.649E+01 0.568E-16 -.307E-08   -.648E+01 0.697E-15 0.137E-18   -.103E-01 -.347E-17 0.000E+00   0.104E-07 -.832E-15 0.916E-12
   -.649E+01 0.121E-13 -.121E-07   0.648E+01 -.577E-14 0.144E-17   0.103E-01 0.347E-17 0.000E+00   -.104E-07 -.146E-15 0.925E-12
   0.649E+01 -.301E-12 -.308E-08   -.648E+01 0.249E-14 -.144E-17   -.103E-01 -.347E-17 0.323E-26   0.104E-07 -.334E-15 0.995E-12
   -.649E+01 0.208E-15 -.121E-07   0.648E+01 -.397E-14 -.137E-18   0.103E-01 0.347E-17 0.808E-27   -.104E-07 -.573E-15 0.990E-12
   -.733E-06 -.289E-12 -.304E-07   -.888E-15 -.654E-14 0.481E-34   0.347E-17 0.000E+00 0.404E-26   -.225E-14 -.189E-14 0.383E-11

 POSITION                                       TOTAL-FORCE (eV/Angst)
      4.40026      0.00000      0.00000        -0.000001      0.000000      0.000000
      0.73653      1.22765     -0.00000         0.000001     -0.000000     -0.000000
      2.19878      1.22765      0.00000        -0.000001      0.000000      0.000000
      2.93801      0.00000     -0.00000         0.000001     -0.000000     -0.000000
    total drift:                               -0.000001     -0.000000     -0.000000

  FREE ENERGIE OF THE ION-ELECTRON SYSTEM (eV)
  free  energy   TOTEN  =       -36.82731583 eV

  energy  without entropy=      -36.82731583  energy(sigma->0) =      -36.82731583

 d Force = 0.1805609E-11[ 0.201E-12, 0.341E-11]  d Energy =-0.2171419E-10 0.235E-10
 d Force = 0.1619898E-05[ 0.162E-05, 0.162E-05]  d Ewald  = 0.1619897E-05 0.455E-12

 Quasi-Newton relaxation of ions (Broydens 2nd method)
  g(Force)  = 0.125E-12   g(Stress)= 0.000E+00

 retain information from N=  1 steps
 eigenvalues of (default step * inverse Hessian matrix)
  average eigenvalue of G=   0.1010
 eigenvalue spectrum of G is  0.1010

 reached required accuracy - stopping structural energy minimisation