 vasp.5.3.5 31Mar14 (build Mar 02 2015 18:14:16) complex

 executed on             LinuxIFC date 2018.08.10  14:32:29

 INCAR:
 POTCAR:   PAW_PBE C 08Apr2002
 POTCAR:   PAW_PBE C 08Apr2002
   VRHFIN =C: s2p2

   TITEL  = PAW_PBE C 08Apr2002
   POMASS =   12.011; ZVAL   =    4.000    mass and valenz
   ENMAX  =  400.000; ENMIN  =  300.000 eV
   QCUT   =   -5.516; QGAM   =   11.032    optimization parameters

   Description
     l     E      TYP  RCUT    TYP  RCUT
     0   .000     23  1.200
     0   .000     23  1.200
     1   .000     23  1.500
     1  2.500     23  1.500
     2   .000      7  1.500

 PAW_PBE C 08Apr2002                    :

 POSCAR: MD-kMC export data
  positions in direct lattice
  velocities in cartesian coordinates
 exchange correlation table for  LEXCH =        8
   RHO(1)=    0.500       N(1)  =     2000
   RHO(2)=  100.500       N(2)  =     4000

 ion  position               nearest neighbor table
   1  0.999  0.000  0.000-   2 1.43   2 1.43   4 1.46
   2  0.167  0.500  0.000-   1 1.43   1 1.43   3 1.46
   3  0.499  0.500  0.000-   4 1.43   4 1.43   2 1.46
   4  0.667  0.000  0.000-   3 1.43   3 1.43   1 1.46

  LATTYP: Found a simple orthorhombic cell.
 ALAT       =     2.4554806578
 B/A-ratio  =     1.7923325897
 C/A-ratio  =     7.9454871706

  Lattice vectors:

 A1 = (   0.0000000000,  -2.4554806578,   0.0000000000)
 A2 = (  -4.4010380065,   0.0000000000,   0.0000000000)
 A3 = (   0.0000000000,   0.0000000000, -19.5099900646)

Analysis of symmetry for initial positions (statically):
 Subroutine PRICEL returns following result:

  LATTYP: Found a base centered orthorhombic cell.
 ALAT       =     2.4554806578
 B/A-ratio  =     1.7923325897
 C/A-ratio  =     7.9454871706

[...]

   2 primitive cells build up your supercell.

 Routine SETGRP: Setting up the symmetry group for a
 simple orthorhombic supercell.

 Subroutine GETGRP returns: Found  8 space group operations
 (whereof  4 operations were pure point group operations)
 out of a pool of  8 trial point group operations.

The static configuration has the point symmetry C_2v.
 The point group associated with its full space group is D_2h.

Analysis of symmetry for dynamics (positions and initial velocities):
 Subroutine PRICEL returns following result:

  LATTYP: Found a base centered orthorhombic cell.
 ALAT       =     2.4554806578
 B/A-ratio  =     1.7923325897
 C/A-ratio  =     7.9454871706

  Lattice vectors:

 A1 = (   2.2005190032,  -1.2277403289,   0.0000000000)
 A2 = (  -2.2005190032,  -1.2277403289,   0.0000000000)
 A3 = (   0.0000000000,   0.0000000000, -19.5099900646)

   2 primitive cells build up your supercell.

 Routine SETGRP: Setting up the symmetry group for a
 simple orthorhombic supercell.

 Subroutine GETGRP returns: Found  8 space group operations
 (whereof  4 operations were pure point group operations)
 out of a pool of  8 trial point group operations.

The dynamic configuration has the point symmetry C_2v.
 The point group associated with its full space group is D_2h.

 KPOINTS: Automatic mesh

Automatic generation of k-mesh.
Space group operators:
 irot       det(A)        alpha          n_x          n_y          n_z        tau_x        tau_y        tau_z
    1     1.000000     0.000000     1.000000     0.000000     0.000000     0.000000     0.000000     0.000000
    2    -1.000000   180.000000     0.000000     0.000000     1.000000     0.000000     0.000000     0.000000
    3     1.000000   180.000000     1.000000     0.000000     0.000000     0.000000     0.000000     0.000000
    4    -1.000000   180.000000     0.000000     1.000000     0.000000     0.000000     0.000000     0.000000
    5    -1.000000     0.000000     1.000000     0.000000     0.000000     0.166667    -0.500000     0.000000
    6     1.000000   180.000000     0.000000     0.000000     1.000000     0.166667    -0.500000     0.000000
    7    -1.000000   180.000000     1.000000     0.000000     0.000000     0.166667    -0.500000     0.000000
    8     1.000000   180.000000     0.000000     1.000000     0.000000     0.166667    -0.500000     0.000000

 Subroutine IBZKPT returns following result:

 Found    247 irreducible k-points:

 Following reciprocal coordinates:
            Coordinates               Weight
  0.000000  0.000000  0.000000      1.000000
  0.041667  0.000000  0.000000      2.000000
  0.083333  0.000000  0.000000      2.000000
  0.125000  0.000000  0.000000      2.000000
  0.166667  0.000000  0.000000      2.000000
  0.208333  0.000000  0.000000      2.000000
  0.250000  0.000000  0.000000      2.000000
  0.291667  0.000000  0.000000      2.000000
  0.333333  0.000000  0.000000      2.000000
  0.375000  0.000000  0.000000      2.000000
  0.416667  0.000000  0.000000      2.000000
  0.458333  0.000000  0.000000      2.000000
  0.500000  0.000000  0.000000      1.000000
  0.000000  0.027778  0.000000      2.000000
  0.041667  0.027778  0.000000      4.000000
  0.083333  0.027778  0.000000      4.000000
  0.125000  0.027778  0.000000      4.000000
  0.166667  0.027778  0.000000      4.000000
  0.208333  0.027778  0.000000      4.000000
  0.250000  0.027778  0.000000      4.000000
  0.291667  0.027778  0.000000      4.000000
  0.333333  0.027778  0.000000      4.000000
  0.375000  0.027778  0.000000      4.000000
  0.416667  0.027778  0.000000      4.000000
  0.458333  0.027778  0.000000      4.000000
  0.500000  0.027778  0.000000      2.000000
  0.000000  0.055556  0.000000      2.000000
  0.041667  0.055556  0.000000      4.000000
  0.083333  0.055556  0.000000      4.000000
  0.125000  0.055556  0.000000      4.000000
  0.166667  0.055556  0.000000      4.000000
  0.208333  0.055556  0.000000      4.000000
  0.250000  0.055556  0.000000      4.000000
  0.291667  0.055556  0.000000      4.000000
  0.333333  0.055556  0.000000      4.000000
  0.375000  0.055556  0.000000      4.000000
  0.416667  0.055556  0.000000      4.000000
  0.458333  0.055556  0.000000      4.000000
  0.500000  0.055556  0.000000      2.000000
  0.000000  0.083333  0.000000      2.000000
  0.041667  0.083333  0.000000      4.000000
  0.083333  0.083333  0.000000      4.000000
  0.125000  0.083333  0.000000      4.000000
  0.166667  0.083333  0.000000      4.000000
  0.208333  0.083333  0.000000      4.000000
  0.250000  0.083333  0.000000      4.000000
  0.291667  0.083333  0.000000      4.000000
  0.333333  0.083333  0.000000      4.000000
  0.375000  0.083333  0.000000      4.000000
  0.416667  0.083333  0.000000      4.000000
  0.458333  0.083333  0.000000      4.000000
  0.500000  0.083333  0.000000      2.000000
  0.000000  0.111111  0.000000      2.000000
  0.041667  0.111111  0.000000      4.000000
  0.083333  0.111111  0.000000      4.000000
  0.125000  0.111111  0.000000      4.000000
  0.166667  0.111111  0.000000      4.000000
  0.208333  0.111111  0.000000      4.000000
  0.250000  0.111111  0.000000      4.000000
  0.291667  0.111111  0.000000      4.000000
[...]
  0.458333  0.472222  0.000000      4.000000
  0.500000  0.472222  0.000000      2.000000
  0.000000  0.500000  0.000000      1.000000
  0.041667  0.500000  0.000000      2.000000
  0.083333  0.500000  0.000000      2.000000
  0.125000  0.500000  0.000000      2.000000
  0.166667  0.500000  0.000000      2.000000
  0.208333  0.500000  0.000000      2.000000
  0.250000  0.500000  0.000000      2.000000
  0.291667  0.500000  0.000000      2.000000
  0.333333  0.500000  0.000000      2.000000
  0.375000  0.500000  0.000000      2.000000
  0.416667  0.500000  0.000000      2.000000
  0.458333  0.500000  0.000000      2.000000
  0.500000  0.500000  0.000000      1.000000

 Following cartesian coordinates:
            Coordinates               Weight
  0.000000  0.000000  0.000000      1.000000
  0.009467  0.000000  0.000000      2.000000
  0.018935  0.000000  0.000000      2.000000
  0.028402  0.000000  0.000000      2.000000
  0.037870  0.000000  0.000000      2.000000
  0.047337  0.000000  0.000000      2.000000
  0.056805  0.000000  0.000000      2.000000
  0.066272  0.000000  0.000000      2.000000
  0.075740  0.000000  0.000000      2.000000
  0.085207  0.000000  0.000000      2.000000
  0.094675  0.000000  0.000000      2.000000
  0.104142  0.000000  0.000000      2.000000
  0.113610  0.000000  0.000000      1.000000
  0.000000  0.011313  0.000000      2.000000
  0.009467  0.011313  0.000000      4.000000
  0.018935  0.011313  0.000000      4.000000
  0.028402  0.011313  0.000000      4.000000
  0.037870  0.011313  0.000000      4.000000
  0.047337  0.011313  0.000000      4.000000
  0.056805  0.011313  0.000000      4.000000
  0.066272  0.011313  0.000000      4.000000
  0.075740  0.011313  0.000000      4.000000
  0.085207  0.011313  0.000000      4.000000
  0.094675  0.011313  0.000000      4.000000
  0.104142  0.011313  0.000000      4.000000
  0.113610  0.011313  0.000000      2.000000
  0.000000  0.022625  0.000000      2.000000
  0.009467  0.022625  0.000000      4.000000
  0.018935  0.022625  0.000000      4.000000
  0.028402  0.022625  0.000000      4.000000
  0.037870  0.022625  0.000000      4.000000
  0.047337  0.022625  0.000000      4.000000
  0.056805  0.022625  0.000000      4.000000
  0.066272  0.022625  0.000000      4.000000
  0.075740  0.022625  0.000000      4.000000
  0.085207  0.022625  0.000000      4.000000
  0.094675  0.022625  0.000000      4.000000
  0.104142  0.022625  0.000000      4.000000
  0.113610  0.022625  0.000000      2.000000
  0.000000  0.033938  0.000000      2.000000
  0.009467  0.033938  0.000000      4.000000
  0.018935  0.033938  0.000000      4.000000
  0.028402  0.033938  0.000000      4.000000
  0.037870  0.033938  0.000000      4.000000
  0.047337  0.033938  0.000000      4.000000
  0.056805  0.033938  0.000000      4.000000
  0.066272  0.033938  0.000000      4.000000
  0.075740  0.033938  0.000000      4.000000
  0.085207  0.033938  0.000000      4.000000
  0.094675  0.033938  0.000000      4.000000
  0.104142  0.033938  0.000000      4.000000
  0.113610  0.033938  0.000000      2.000000
  0.000000  0.045250  0.000000      2.000000
  0.009467  0.045250  0.000000      4.000000
  0.018935  0.045250  0.000000      4.000000
  0.028402  0.045250  0.000000      4.000000
  0.037870  0.045250  0.000000      4.000000
  0.047337  0.045250  0.000000      4.000000
  0.056805  0.045250  0.000000      4.000000
  0.066272  0.045250  0.000000      4.000000
[...]
  0.104142  0.192314  0.000000      4.000000
  0.113610  0.192314  0.000000      2.000000
  0.000000  0.203626  0.000000      1.000000
  0.009467  0.203626  0.000000      2.000000
  0.018935  0.203626  0.000000      2.000000
  0.028402  0.203626  0.000000      2.000000
  0.037870  0.203626  0.000000      2.000000
  0.047337  0.203626  0.000000      2.000000
  0.056805  0.203626  0.000000      2.000000
  0.066272  0.203626  0.000000      2.000000
  0.075740  0.203626  0.000000      2.000000
  0.085207  0.203626  0.000000      2.000000
  0.094675  0.203626  0.000000      2.000000
  0.104142  0.203626  0.000000      2.000000
  0.113610  0.203626  0.000000      1.000000

 I would recommend the setting:
   dimension x,y,z NGX =    64 NGY =   36 NGZ =  285
[...]
 k-point ** :   0.5000 0.2778 0.0000  plane waves:   42874
 k-point ** :   0.0000 0.3056 0.0000  plane waves:   42806
 k-point ** :   0.0417 0.3056 0.0000  plane waves:   42815
 k-point ** :   0.0833 0.3056 0.0000  plane waves:   42825
 k-point ** :   0.1250 0.3056 0.0000  plane waves:   42863
 k-point ** :   0.1667 0.3056 0.0000  plane waves:   42870
 k-point ** :   0.2083 0.3056 0.0000  plane waves:   42869
 k-point ** :   0.2500 0.3056 0.0000  plane waves:   42846
 k-point ** :   0.2917 0.3056 0.0000  plane waves:   42857
 k-point ** :   0.3333 0.3056 0.0000  plane waves:   42854
 k-point ** :   0.3750 0.3056 0.0000  plane waves:   42860
 k-point ** :   0.4167 0.3056 0.0000  plane waves:   42865
 k-point ** :   0.4583 0.3056 0.0000  plane waves:   42879
 k-point ** :   0.5000 0.3056 0.0000  plane waves:   42906
 k-point ** :   0.0000 0.3333 0.0000  plane waves:   42828
 k-point ** :   0.0417 0.3333 0.0000  plane waves:   42825
 k-point ** :   0.0833 0.3333 0.0000  plane waves:   42826
[...]
 k-point ** :   0.4583 0.4722 0.0000  plane waves:   42948
 k-point ** :   0.5000 0.4722 0.0000  plane waves:   42952
 k-point ** :   0.0000 0.5000 0.0000  plane waves:   42738
 k-point ** :   0.0417 0.5000 0.0000  plane waves:   42750
 k-point ** :   0.0833 0.5000 0.0000  plane waves:   42788
 k-point ** :   0.1250 0.5000 0.0000  plane waves:   42816
 k-point ** :   0.1667 0.5000 0.0000  plane waves:   42838
 k-point ** :   0.2083 0.5000 0.0000  plane waves:   42880
 k-point ** :   0.2500 0.5000 0.0000  plane waves:   42904
 k-point ** :   0.2917 0.5000 0.0000  plane waves:   42956
 k-point ** :   0.3333 0.5000 0.0000  plane waves:   42956
 k-point ** :   0.3750 0.5000 0.0000  plane waves:   42970
 k-point ** :   0.4167 0.5000 0.0000  plane waves:   42936
 k-point ** :   0.4583 0.5000 0.0000  plane waves:   42964
 k-point ** :   0.5000 0.5000 0.0000  plane waves:   42992

 maximum and minimum number of plane-waves per node :     21496    21300

 maximum number of plane-waves:     42992
 maximum index in each direction:
   IXMAX=   16   IYMAX=    8   IZMAX=   71
   IXMIN=  -16   IYMIN=   -9   IZMIN=  -71

 WARNING: aliasing errors must be expected set NGX to  66 to avoid them
 NGY is ok and might be reduce to  36
 NGZ is ok and might be reduce to 286
 aliasing errors are usually negligible using standard VASP settings
 and one can safely disregard these warnings

 parallel 3D FFT for wavefunctions:
    minimum data exchange during FFTs selected (reduces bandwidth)
 parallel 3D FFT for charge:
    minimum data exchange during FFTs selected (reduces bandwidth)

 Broyden mixing: mesh for mixing (old mesh)
   NGX = 33   NGY = 17   NGZ =143
  (NGX  =128   NGY  = 72   NGZ  =576)
  gives a total of  80223 points

 initial charge density was supplied:
 charge density of overlapping atoms calculated
 number of electron      16.0000000 magnetization
 keeping initial charge density in first step

 Maximum index for augmentation-charges         4575 (set IRDMAX)

 First call to EWALD:  gamma=   0.298
 Maximum number of real-space cells 4x 6x 1
 Maximum number of reciprocal cells 2x 1x 8

 FEWALD executed in parallel

----------------------------------------- Iteration    1(   1)  ---------------------------------------

 eigenvalue-minimisations  :  5928
 total energy-change (2. order) : 0.1860446E+03  (-0.1058920E+04)
 number of electron      16.0000000 magnetization
 augmentation part       16.0000000 magnetization

 Free energy of the ion-electron system (eV)
  alpha Z        PSCENC =         6.18334092
  Ewald energy   TEWEN  =      2422.88102989
  -Hartree energ DENC   =     -2853.17046822
  -exchange      EXHF   =         0.00000000
  -V(xc)+E(xc)   XCENC  =        54.76186995
  PAW double counting   =       151.32577238     -155.92769107
  entropy T*S    EENTRO =        -0.00102379
  eigenvalues    EBANDS =       -28.63176173
  atomic energy  EATOM  =       588.62352690
  free energy    TOTEN  =       186.04459524 eV

  energy without entropy =      186.04561903  energy(sigma->0) =      186.04510714

[...]

 eigenvalue-minimisations  : 10496
 total energy-change (2. order) :-0.1959999E+03  (-0.1743718E+03)
 number of electron      16.0000000 magnetization
 augmentation part       16.0000000 magnetization

[...]

 Broyden mixing:
  rms(total) = 0.70457E+00    rms(broyden)= 0.70457E+00
  rms(prec ) = 0.76824E+00
  weight for this iteration     100.00

[...]

 eigenvalues of (default mixing * dielectric matrix)
  average eigenvalue GAMMA=   2.3112
  2.3112

[...]

WARNING in EDDRMM: call to ZHEGV failed, returncode =   6  3  1
WARNING in EDDRMM: call to ZHEGV failed, returncode =   6  3  1
WARNING in EDDRMM: call to ZHEGV failed, returncode =   6  3  1
WARNING in EDDRMM: call to ZHEGV failed, returncode =   6  3  1
WARNING in EDDRMM: call to ZHEGV failed, returncode =   6  3  1
WARNING in EDDRMM: call to ZHEGV failed, returncode =   6  3  1
WARNING in EDDRMM: call to ZHEGV failed, returncode =   6  3  1

[...]

 average (electrostatic) potential at core
  the test charge radii are     0.6991
  (the norm of the test charge is              1.0000)
       1 -58.3396       2 -58.3396       3 -58.3396       4 -58.3396

 E-fermi :  -2.8373     XC(G=0):  -2.1849     alpha+bet : -1.9046

 k-point     1 :       0.0000    0.0000    0.0000
  band No.  band energies     occupation
      1     -22.0467      2.00000
      2     -17.3007      2.00000
      3     -15.8023      2.00000
      4     -10.1992      2.00000
      5      -8.7392      2.00000
      6      -6.0456      2.00000
      7      -5.7178      2.00000
      8      -5.3778      2.00000
      9      -1.2047      0.00000
     10       0.5490      0.00000
     11       1.3464      0.00000
     12       1.7407      0.00000

[...]

 soft charge-density along one line, spin component           1
         0         1         2         3         4         5         6         7         8         9
 total charge-density along one line

------------------------ aborting loop because EDIFF is reached ----------------------------------------

  FORCE on cell =-STRESS in cart. coord.  units (eV):
  Direction    XX          YY          ZZ          XY          YZ          ZX
  Alpha Z     6.18334     6.18334     6.18334
  Ewald    2951.63104  2955.90706 -3484.65726    -0.00000     0.00000     0.00000
  Hartree  2893.28903  2894.73138 -2870.78957     0.00000    -0.00000    -0.00000
  E(xc)     -57.88326   -57.91580   -60.21753     0.00000    -0.00000    -0.00000
  Local   -6018.66728 -6023.73109  6150.37210    -0.00000    -0.00000     0.00000
  n-local   -12.83099   -13.78667   -12.42384     0.07036    -0.00000     0.00000
  augment    -1.46601    -1.46863    -1.36325     0.00000    -0.00000     0.00000
  Kinetic   233.31001   240.07863   272.89468    -4.42659     0.00000    -0.00000
  Fock        0.00000     0.00000     0.00000     0.00000     0.00000     0.00000
  Total      -6.43412    -0.00177    -0.00134     0.00000     0.00000     0.00000
  in kB     -48.89350    -0.01347    -0.01015     0.00000     0.00000     0.00000

 VOLUME and BASIS-vectors are now :
  energy-cutoff  :     2000.00
  volume of cell :      210.84
      direct lattice vectors                 reciprocal lattice vectors
     4.401038006  0.000000000  0.000000000     0.227219124  0.000000000  0.000000000
     0.000000000  2.455480658  0.000000000     0.000000000  0.407252241  0.000000000
     0.000000000  0.000000000 19.509990065     0.000000000  0.000000000  0.051255792

[...]

 FORCES acting on ions
    electron-ion (+dipol)            ewald-force                    non-local-force                 convergence-correction
   0.639E+01 0.690E-15 -.302E-08   -.638E+01 -.550E-14 -.141E-17   -.937E-02 0.347E-17 0.472E-24   -.720E-07 0.182E-15 -.800E-13
   -.639E+01 0.586E-14 -.120E-07   0.638E+01 0.319E-14 -.779E-19   0.937E-02 -.139E-16 -.310E-24   0.720E-07 -.743E-16 -.805E-13
   0.639E+01 -.214E-12 -.306E-08   -.638E+01 -.814E-14 0.144E-17   -.937E-02 0.347E-17 0.207E-24   -.720E-07 -.809E-18 -.799E-13
   -.639E+01 0.549E-16 -.120E-07   0.638E+01 0.561E-15 0.508E-19   0.937E-02 -.139E-16 -.207E-24   0.720E-07 0.109E-15 -.804E-13
   -.745E-06 -.207E-12 -.301E-07   -.178E-14 -.989E-14 0.000E+00   0.000E+00 -.208E-16 0.162E-24   -.624E-14 0.216E-15 -.321E-12

 POSITION                                       TOTAL-FORCE (eV/Angst)
      4.39835      0.00000      0.00000         0.001078      0.000000      0.000000
      0.73619      1.22774      0.00000        -0.001078     -0.000000     -0.000000
      2.19783      1.22774      0.00000         0.001078      0.000000      0.000000
      2.93671      0.00000      0.00000        -0.001078     -0.000000     -0.000000
    total drift:                               -0.000001     -0.000000     -0.000000

  FREE ENERGIE OF THE ION-ELECTRON SYSTEM (eV)
  free  energy   TOTEN  =       -36.83014497 eV

  energy  without entropy=      -36.83014497  energy(sigma->0) =      -36.83014497

 Quasi-Newton relaxation of ions (Broydens 2nd method)
  g(Force)  = 0.224E-06   g(Stress)= 0.000E+00

 Reset! Starting new Quasi-Newton update for ions

[...]

 d Force =-0.2905802E-06[-0.805E-06, 0.224E-06]  d Energy =-0.2765046E-06-0.141E-07
 d Force =-0.1327561E-02[-0.133E-02,-0.133E-02]  d Ewald  =-0.1327561E-02 0.105E-09

[...]

 retain information from N=  1 steps
 eigenvalues of (default step * inverse Hessian matrix)
  average eigenvalue of G=   0.2177
 eigenvalue spectrum of G is  0.2177

[...]

WARNING in EDDRMM: call to ZHEGV failed, returncode =   6  3  2

[...]

 d Force = 0.3154782E-06[ 0.103E-08, 0.630E-06]  d Energy = 0.3039264E-06 0.116E-07
 d Force = 0.1038894E-02[ 0.104E-02, 0.104E-02]  d Ewald  = 0.1038894E-02-0.496E-10

[...]

 eigenvalue-minimisations  :  4788
 total energy-change (2. order) : 0.4038156E-09  ( 0.5262427E-09)
 number of electron      16.0000000 magnetization
 augmentation part        0.3707530 magnetization

[...]

 eigenvalue-minimisations  :  2509
 total energy-change (2. order) :-0.4704361E-09  ( 0.2554952E-13)
 number of electron      16.0000000 magnetization
 augmentation part        0.3707530 magnetization

[...]

 d Force =-0.8353548E-12[-0.335E-11, 0.168E-11]  d Energy = 0.5945822E-10-0.603E-10
 d Force = 0.1693665E-05[ 0.169E-05, 0.169E-05]  d Ewald  = 0.1693666E-05-0.909E-12

[...]

 FEWALD executed in parallel

[...]

 eigenvalue-minimisations  :  1443
 total energy-change (2. order) :-0.5006768E-09  ( 0.3287083E-13)
 number of electron      16.0000000 magnetization
 augmentation part        0.3707530 magnetization

[...]

 eigenvalue-minimisations  :  1423
 total energy-change (2. order) : 0.3615241E-10  ( 0.7944263E-14)
 number of electron      16.0000000 magnetization
 augmentation part        0.3707530 magnetization

[...]

 eigenvalue-minimisations  :  1387
 total energy-change (2. order) : 0.1000444E-10  (-0.2262799E-13)
 number of electron      16.0000000 magnetization
 augmentation part        0.3707530 magnetization

 Broyden mixing:
  rms(total) = 0.13043E-08    rms(broyden)= 0.13043E-08
  rms(prec ) = 0.23496E-08
  weight for this iteration     100.00

 eigenvalues of (default mixing * dielectric matrix)
  average eigenvalue GAMMA=   1.7302
  2.4754  1.0103  1.7050

[...]

----------------------------------------- Iteration    5(   5)  ---------------------------------------

 eigenvalue-minimisations  :  1375
 total energy-change (2. order) :-0.2614797E-11  (-0.4456929E-13)
 number of electron      16.0000000 magnetization
 augmentation part        0.3707530 magnetization

 Free energy of the ion-electron system (eV)
  alpha Z        PSCENC =         6.18334092
  Ewald energy   TEWEN  =      2422.88131799
  -Hartree energ DENC   =     -2917.23108956
  -exchange      EXHF   =         0.00000000
  -V(xc)+E(xc)   XCENC  =        57.06665917
  PAW double counting   =       267.22991953     -272.33428485
  entropy T*S    EENTRO =        -0.00000000
  eigenvalues    EBANDS =      -189.24953510
  atomic energy  EATOM  =       588.62352690
  free energy    TOTEN  =       -36.83014499 eV

  energy without entropy =      -36.83014499  energy(sigma->0) =      -36.83014499

 average (electrostatic) potential at core
  the test charge radii are     0.6991
  (the norm of the test charge is              1.0000)
       1 -58.3396       2 -58.3396       3 -58.3396       4 -58.3396

 E-fermi :  -2.8375     XC(G=0):  -2.1842     alpha+bet : -1.9046

[...]

 k-point   247 :       0.5000    0.5000    0.0000
  band No.  band energies     occupation
      1     -16.8111      2.00000
      2     -16.8111      2.00000
      3     -15.8357      2.00000
      4     -15.8357      2.00000
      5      -9.3256      2.00000
      6      -9.3256      2.00000
      7      -4.9922      2.00000
      8      -4.9922      2.00000
      9      -1.1687      0.00000
     10      -1.1687      0.00000
     11       3.7613      0.00000
     12       3.7613      0.00000

 soft charge-density along one line, spin component           1
         0         1         2         3         4         5         6         7         8         9
 total charge-density along one line

------------------------ aborting loop because EDIFF is reached ----------------------------------------

  FORCE on cell =-STRESS in cart. coord.  units (eV):
  Direction    XX          YY          ZZ          XY          YZ          ZX
  Alpha Z     6.18334     6.18334     6.18334
  Ewald    2951.62147  2955.91692 -3484.65726    -0.00000     0.00000    -0.00000
  Hartree  2893.28773  2894.73291 -2870.78955    -0.00000    -0.00000    -0.00000
  E(xc)     -57.88331   -57.91578   -60.21754    -0.00000    -0.00000    -0.00000
  Local   -6018.65807 -6023.74065  6150.37201    -0.00000     0.00000    -0.00000
  n-local   -12.83107   -13.78659   -12.42385     0.07037    -0.00000     0.00000
  augment    -1.46600    -1.46864    -1.36325    -0.00000     0.00000     0.00000
  Kinetic   233.31162   240.07719   272.89477    -4.42663     0.00000    -0.00000
  Fock        0.00000     0.00000     0.00000     0.00000     0.00000     0.00000
  Total      -6.43430    -0.00130    -0.00133     0.00000     0.00000     0.00000
  in kB     -48.89483    -0.00989    -0.01012     0.00000     0.00000     0.00000

 VOLUME and BASIS-vectors are now :
  energy-cutoff  :     2000.00
  volume of cell :      210.84
      direct lattice vectors                 reciprocal lattice vectors
     4.401038006  0.000000000  0.000000000     0.227219124  0.000000000  0.000000000
     0.000000000  2.455480658  0.000000000     0.000000000  0.407252241  0.000000000
     0.000000000  0.000000000 19.509990065     0.000000000  0.000000000  0.051255792

  length of vectors
     4.401038006  2.455480658 19.509990065     0.227219124  0.407252241  0.051255792

 FORCES acting on ions
    electron-ion (+dipol)            ewald-force                    non-local-force                 convergence-correction
   0.639E+01 0.377E-15 -.299E-08   -.638E+01 -.589E-14 0.759E-18   -.975E-02 0.104E-16 0.000E+00   0.892E-09 -.819E-15 -.127E-11
   -.639E+01 0.173E-13 -.120E-07   0.638E+01 0.591E-14 0.810E-18   0.975E-02 0.104E-16 0.000E+00   -.892E-09 -.697E-15 -.127E-11
   0.639E+01 -.132E-12 -.302E-08   -.638E+01 -.109E-13 -.106E-17   -.975E-02 0.104E-16 -.646E-26   0.892E-09 -.870E-15 -.119E-11
   -.639E+01 0.736E-16 -.121E-07   0.638E+01 0.943E-15 -.512E-18   0.975E-02 -.104E-16 0.757E-26   -.892E-09 -.640E-15 -.118E-11
   -.745E-06 -.114E-12 -.301E-07   -.178E-14 -.989E-14 0.000E+00   0.347E-17 0.208E-16 0.111E-26   0.120E-15 -.303E-14 -.490E-11

 POSITION                                       TOTAL-FORCE (eV/Angst)
      4.39836      0.00000      0.00000         0.000001     -0.000000     -0.000000
      0.73618      1.22774     -0.00000        -0.000001      0.000000      0.000000
      2.19784      1.22774      0.00000         0.000001      0.000000     -0.000000
      2.93670      0.00000     -0.00000        -0.000001     -0.000000      0.000000
    total drift:                               -0.000001     -0.000000     -0.000000

  FREE ENERGIE OF THE ION-ELECTRON SYSTEM (eV)
  free  energy   TOTEN  =       -36.83014499 eV

  energy  without entropy=      -36.83014499  energy(sigma->0) =      -36.83014499

 d Force = 0.1178475E-11[ 0.127E-12, 0.223E-11]  d Energy =-0.1531362E-09 0.154E-09
 d Force =-0.1128616E-05[-0.113E-05,-0.113E-05]  d Ewald  =-0.1128617E-05 0.909E-12

 Quasi-Newton relaxation of ions (Broydens 2nd method)
  g(Force)  = 0.100E-12   g(Stress)= 0.000E+00

 retain information from N=  1 steps
 eigenvalues of (default step * inverse Hessian matrix)
  average eigenvalue of G=   0.0771
 eigenvalue spectrum of G is  0.0771

 reached required accuracy - stopping structural energy minimisation