 vasp.5.3.5 31Mar14 (build Mar 02 2015 18:14:16) complex

 executed on             LinuxIFC date 2018.08.09  14:20:42

 INCAR:
 POTCAR:   PAW_PBE C 08Apr2002
 POTCAR:   PAW_PBE C 08Apr2002
   VRHFIN =C: s2p2

   TITEL  = PAW_PBE C 08Apr2002
   POMASS =   12.011; ZVAL   =    4.000    mass and valenz
   ENMAX  =  400.000; ENMIN  =  300.000 eV
   QCUT   =   -5.516; QGAM   =   11.032    optimization parameters

   Description
     l     E      TYP  RCUT    TYP  RCUT
     0   .000     23  1.200
     0   .000     23  1.200
     1   .000     23  1.500
     1  2.500     23  1.500
     2   .000      7  1.500

 PAW_PBE C 08Apr2002                    :

 POSCAR: MD-kMC export data
  positions in direct lattice
  velocities in cartesian coordinates
 exchange correlation table for  LEXCH =        8
   RHO(1)=    0.500       N(1)  =     2000
   RHO(2)=  100.500       N(2)  =     4000

 ion  position               nearest neighbor table
   1  0.999  0.000  0.000-   2 1.43   2 1.43   4 1.46
   2  0.167  0.500  0.000-   1 1.43   1 1.43   3 1.46
   3  0.499  0.500  0.000-   4 1.43   4 1.43   2 1.46
   4  0.667  0.000  0.000-   3 1.43   3 1.43   1 1.46

  LATTYP: Found a simple orthorhombic cell.
 ALAT       =     2.4570748514
 B/A-ratio  =     1.7830817736
 C/A-ratio  =     7.9711735254

  Lattice vectors:

 A1 = (   0.0000000000,  -2.4570748514,   0.0000000000)
 A2 = (  -4.3811653839,   0.0000000000,   0.0000000000)
 A3 = (   0.0000000000,   0.0000000000, -19.5857700055)

Analysis of symmetry for initial positions (statically):
 Subroutine PRICEL returns following result:

  LATTYP: Found a base centered orthorhombic cell.
 ALAT       =     2.4570748514
 B/A-ratio  =     1.7830817736
 C/A-ratio  =     7.9711735254

[...]

   2 primitive cells build up your supercell.

 Routine SETGRP: Setting up the symmetry group for a
 simple orthorhombic supercell.

 Subroutine GETGRP returns: Found  8 space group operations
 (whereof  4 operations were pure point group operations)
 out of a pool of  8 trial point group operations.

The static configuration has the point symmetry C_2v.
 The point group associated with its full space group is D_2h.

Analysis of symmetry for dynamics (positions and initial velocities):
 Subroutine PRICEL returns following result:

  LATTYP: Found a base centered orthorhombic cell.
 ALAT       =     2.4570748514
 B/A-ratio  =     1.7830817736
 C/A-ratio  =     7.9711735254

  Lattice vectors:

 A1 = (   2.1905826919,  -1.2285374257,   0.0000000000)
 A2 = (  -2.1905826919,  -1.2285374257,   0.0000000000)
 A3 = (   0.0000000000,   0.0000000000, -19.5857700055)

   2 primitive cells build up your supercell.

 Routine SETGRP: Setting up the symmetry group for a
 simple orthorhombic supercell.

 Subroutine GETGRP returns: Found  8 space group operations
 (whereof  4 operations were pure point group operations)
 out of a pool of  8 trial point group operations.

The dynamic configuration has the point symmetry C_2v.
 The point group associated with its full space group is D_2h.

 KPOINTS: Automatic mesh

Automatic generation of k-mesh.
Space group operators:
 irot       det(A)        alpha          n_x          n_y          n_z        tau_x        tau_y        tau_z
    1     1.000000     0.000000     1.000000     0.000000     0.000000     0.000000     0.000000     0.000000
    2    -1.000000   180.000000     0.000000     0.000000     1.000000     0.000000     0.000000     0.000000
    3     1.000000   180.000000     1.000000     0.000000     0.000000     0.000000     0.000000     0.000000
    4    -1.000000   180.000000     0.000000     1.000000     0.000000     0.000000     0.000000     0.000000
    5    -1.000000     0.000000     1.000000     0.000000     0.000000     0.166667    -0.500000     0.000000
    6     1.000000   180.000000     0.000000     0.000000     1.000000     0.166667    -0.500000     0.000000
    7    -1.000000   180.000000     1.000000     0.000000     0.000000     0.166667    -0.500000     0.000000
    8     1.000000   180.000000     0.000000     1.000000     0.000000     0.166667    -0.500000     0.000000

 Subroutine IBZKPT returns following result:

 Found    247 irreducible k-points:

 Following reciprocal coordinates:
            Coordinates               Weight
  0.000000  0.000000  0.000000      1.000000
  0.041667  0.000000  0.000000      2.000000
  0.083333  0.000000  0.000000      2.000000
  0.125000  0.000000  0.000000      2.000000
  0.166667  0.000000  0.000000      2.000000
  0.208333  0.000000  0.000000      2.000000
  0.250000  0.000000  0.000000      2.000000
  0.291667  0.000000  0.000000      2.000000
  0.333333  0.000000  0.000000      2.000000
  0.375000  0.000000  0.000000      2.000000
  0.416667  0.000000  0.000000      2.000000
  0.458333  0.000000  0.000000      2.000000
  0.500000  0.000000  0.000000      1.000000
  0.000000  0.027778  0.000000      2.000000
  0.041667  0.027778  0.000000      4.000000
  0.083333  0.027778  0.000000      4.000000
  0.125000  0.027778  0.000000      4.000000
  0.166667  0.027778  0.000000      4.000000
  0.208333  0.027778  0.000000      4.000000
  0.250000  0.027778  0.000000      4.000000
  0.291667  0.027778  0.000000      4.000000
  0.333333  0.027778  0.000000      4.000000
  0.375000  0.027778  0.000000      4.000000
  0.416667  0.027778  0.000000      4.000000
  0.458333  0.027778  0.000000      4.000000
  0.500000  0.027778  0.000000      2.000000
  0.000000  0.055556  0.000000      2.000000
  0.041667  0.055556  0.000000      4.000000
  0.083333  0.055556  0.000000      4.000000
  0.125000  0.055556  0.000000      4.000000
  0.166667  0.055556  0.000000      4.000000
  0.208333  0.055556  0.000000      4.000000
  0.250000  0.055556  0.000000      4.000000
  0.291667  0.055556  0.000000      4.000000
  0.333333  0.055556  0.000000      4.000000
  0.375000  0.055556  0.000000      4.000000
  0.416667  0.055556  0.000000      4.000000
  0.458333  0.055556  0.000000      4.000000
  0.500000  0.055556  0.000000      2.000000
  0.000000  0.083333  0.000000      2.000000
  0.041667  0.083333  0.000000      4.000000
  0.083333  0.083333  0.000000      4.000000
  0.125000  0.083333  0.000000      4.000000
  0.166667  0.083333  0.000000      4.000000
  0.208333  0.083333  0.000000      4.000000
  0.250000  0.083333  0.000000      4.000000
  0.291667  0.083333  0.000000      4.000000
  0.333333  0.083333  0.000000      4.000000
  0.375000  0.083333  0.000000      4.000000
  0.416667  0.083333  0.000000      4.000000
  0.458333  0.083333  0.000000      4.000000
  0.500000  0.083333  0.000000      2.000000
  0.000000  0.111111  0.000000      2.000000
  0.041667  0.111111  0.000000      4.000000
  0.083333  0.111111  0.000000      4.000000
  0.125000  0.111111  0.000000      4.000000
  0.166667  0.111111  0.000000      4.000000
  0.208333  0.111111  0.000000      4.000000
  0.250000  0.111111  0.000000      4.000000
  0.291667  0.111111  0.000000      4.000000
[...]
  0.458333  0.472222  0.000000      4.000000
  0.500000  0.472222  0.000000      2.000000
  0.000000  0.500000  0.000000      1.000000
  0.041667  0.500000  0.000000      2.000000
  0.083333  0.500000  0.000000      2.000000
  0.125000  0.500000  0.000000      2.000000
  0.166667  0.500000  0.000000      2.000000
  0.208333  0.500000  0.000000      2.000000
  0.250000  0.500000  0.000000      2.000000
  0.291667  0.500000  0.000000      2.000000
  0.333333  0.500000  0.000000      2.000000
  0.375000  0.500000  0.000000      2.000000
  0.416667  0.500000  0.000000      2.000000
  0.458333  0.500000  0.000000      2.000000
  0.500000  0.500000  0.000000      1.000000

 Following cartesian coordinates:
            Coordinates               Weight
  0.000000  0.000000  0.000000      1.000000
  0.009510  0.000000  0.000000      2.000000
  0.019021  0.000000  0.000000      2.000000
  0.028531  0.000000  0.000000      2.000000
  0.038042  0.000000  0.000000      2.000000
  0.047552  0.000000  0.000000      2.000000
  0.057062  0.000000  0.000000      2.000000
  0.066573  0.000000  0.000000      2.000000
  0.076083  0.000000  0.000000      2.000000
  0.085594  0.000000  0.000000      2.000000
  0.095104  0.000000  0.000000      2.000000
  0.104614  0.000000  0.000000      2.000000
  0.114125  0.000000  0.000000      1.000000
  0.000000  0.011305  0.000000      2.000000
  0.009510  0.011305  0.000000      4.000000
  0.019021  0.011305  0.000000      4.000000
  0.028531  0.011305  0.000000      4.000000
  0.038042  0.011305  0.000000      4.000000
  0.047552  0.011305  0.000000      4.000000
  0.057062  0.011305  0.000000      4.000000
  0.066573  0.011305  0.000000      4.000000
  0.076083  0.011305  0.000000      4.000000
  0.085594  0.011305  0.000000      4.000000
  0.095104  0.011305  0.000000      4.000000
  0.104614  0.011305  0.000000      4.000000
  0.114125  0.011305  0.000000      2.000000
  0.000000  0.022610  0.000000      2.000000
  0.009510  0.022610  0.000000      4.000000
  0.019021  0.022610  0.000000      4.000000
  0.028531  0.022610  0.000000      4.000000
  0.038042  0.022610  0.000000      4.000000
  0.047552  0.022610  0.000000      4.000000
  0.057062  0.022610  0.000000      4.000000
  0.066573  0.022610  0.000000      4.000000
  0.076083  0.022610  0.000000      4.000000
  0.085594  0.022610  0.000000      4.000000
  0.095104  0.022610  0.000000      4.000000
  0.104614  0.022610  0.000000      4.000000
  0.114125  0.022610  0.000000      2.000000
  0.000000  0.033916  0.000000      2.000000
  0.009510  0.033916  0.000000      4.000000
  0.019021  0.033916  0.000000      4.000000
  0.028531  0.033916  0.000000      4.000000
  0.038042  0.033916  0.000000      4.000000
  0.047552  0.033916  0.000000      4.000000
  0.057062  0.033916  0.000000      4.000000
  0.066573  0.033916  0.000000      4.000000
  0.076083  0.033916  0.000000      4.000000
  0.085594  0.033916  0.000000      4.000000
  0.095104  0.033916  0.000000      4.000000
  0.104614  0.033916  0.000000      4.000000
  0.114125  0.033916  0.000000      2.000000
  0.000000  0.045221  0.000000      2.000000
  0.009510  0.045221  0.000000      4.000000
  0.019021  0.045221  0.000000      4.000000
  0.028531  0.045221  0.000000      4.000000
  0.038042  0.045221  0.000000      4.000000
  0.047552  0.045221  0.000000      4.000000
  0.057062  0.045221  0.000000      4.000000
  0.066573  0.045221  0.000000      4.000000
[...]
  0.104614  0.192189  0.000000      4.000000
  0.114125  0.192189  0.000000      2.000000
  0.000000  0.203494  0.000000      1.000000
  0.009510  0.203494  0.000000      2.000000
  0.019021  0.203494  0.000000      2.000000
  0.028531  0.203494  0.000000      2.000000
  0.038042  0.203494  0.000000      2.000000
  0.047552  0.203494  0.000000      2.000000
  0.057062  0.203494  0.000000      2.000000
  0.066573  0.203494  0.000000      2.000000
  0.076083  0.203494  0.000000      2.000000
  0.085594  0.203494  0.000000      2.000000
  0.095104  0.203494  0.000000      2.000000
  0.104614  0.203494  0.000000      2.000000
  0.114125  0.203494  0.000000      1.000000

 I would recommend the setting:
   dimension x,y,z NGX =    64 NGY =   36 NGZ =  286
[...]
 k-point ** :   0.2500 0.3056 0.0000  plane waves:   42857
 k-point ** :   0.2917 0.3056 0.0000  plane waves:   42867
 k-point ** :   0.3333 0.3056 0.0000  plane waves:   42864
 k-point ** :   0.3750 0.3056 0.0000  plane waves:   42876
 k-point ** :   0.4167 0.3056 0.0000  plane waves:   42886
 k-point ** :   0.4583 0.3056 0.0000  plane waves:   42882
 k-point ** :   0.5000 0.3056 0.0000  plane waves:   42888
 k-point ** :   0.0000 0.3333 0.0000  plane waves:   42810
 k-point ** :   0.0417 0.3333 0.0000  plane waves:   42822
 k-point ** :   0.0833 0.3333 0.0000  plane waves:   42838
[...]
 k-point ** :   0.4583 0.4722 0.0000  plane waves:   42968
 k-point ** :   0.5000 0.4722 0.0000  plane waves:   42948
 k-point ** :   0.0000 0.5000 0.0000  plane waves:   42834
 k-point ** :   0.0417 0.5000 0.0000  plane waves:   42820
 k-point ** :   0.0833 0.5000 0.0000  plane waves:   42828
 k-point ** :   0.1250 0.5000 0.0000  plane waves:   42860
 k-point ** :   0.1667 0.5000 0.0000  plane waves:   42860
 k-point ** :   0.2083 0.5000 0.0000  plane waves:   42890
 k-point ** :   0.2500 0.5000 0.0000  plane waves:   42876
 k-point ** :   0.2917 0.5000 0.0000  plane waves:   42922
 k-point ** :   0.3333 0.5000 0.0000  plane waves:   42928
 k-point ** :   0.3750 0.5000 0.0000  plane waves:   42910
 k-point ** :   0.4167 0.5000 0.0000  plane waves:   42940
 k-point ** :   0.4583 0.5000 0.0000  plane waves:   42952
 k-point ** :   0.5000 0.5000 0.0000  plane waves:   42968

 maximum and minimum number of plane-waves per node :     21495    21318

 maximum number of plane-waves:     42968
 maximum index in each direction:
   IXMAX=   15   IYMAX=    8   IZMAX=   71
   IXMIN=  -16   IYMIN=   -9   IZMIN=  -71

 NGX is ok and might be reduce to  64
 NGY is ok and might be reduce to  36
 NGZ is ok and might be reduce to 286

 parallel 3D FFT for wavefunctions:
    minimum data exchange during FFTs selected (reduces bandwidth)
 parallel 3D FFT for charge:
    minimum data exchange during FFTs selected (reduces bandwidth)

 Broyden mixing: mesh for mixing (old mesh)
   NGX = 31   NGY = 17   NGZ =143
  (NGX  =128   NGY  = 72   NGZ  =576)
  gives a total of  75361 points

 initial charge density was supplied:
 charge density of overlapping atoms calculated
 number of electron      16.0000000 magnetization
 keeping initial charge density in first step

 Maximum index for augmentation-charges         4569 (set IRDMAX)

 First call to EWALD:  gamma=   0.298
 Maximum number of real-space cells 4x 6x 1
 Maximum number of reciprocal cells 2x 1x 8

 FEWALD executed in parallel

----------------------------------------- Iteration    1(   1)  ---------------------------------------

 eigenvalue-minimisations  :  5928
 total energy-change (2. order) : 0.1867988E+03  (-0.1065876E+04)
 number of electron      16.0000000 magnetization
 augmentation part       16.0000000 magnetization

 Free energy of the ion-electron system (eV)
  alpha Z        PSCENC =         6.18334092
  Ewald energy   TEWEN  =      2447.94055214
  -Hartree energ DENC   =     -2877.47962753
  -exchange      EXHF   =         0.00000000
  -V(xc)+E(xc)   XCENC  =        54.81397287
  PAW double counting   =       151.32577238     -155.92769107
  entropy T*S    EENTRO =        -0.00156794
  eigenvalues    EBANDS =       -28.67946318
  atomic energy  EATOM  =       588.62352690
  free energy    TOTEN  =       186.79881548 eV

  energy without entropy =      186.80038343  energy(sigma->0) =      186.79959946

[...]

 eigenvalue-minimisations  : 10408
 total energy-change (2. order) :-0.1962056E+03  (-0.1744064E+03)
 number of electron      16.0000000 magnetization
 augmentation part       16.0000000 magnetization

[...]

 Broyden mixing:
  rms(total) = 0.70850E+00    rms(broyden)= 0.70850E+00
  rms(prec ) = 0.77200E+00
  weight for this iteration     100.00

[...]

 eigenvalues of (default mixing * dielectric matrix)
  average eigenvalue GAMMA=   2.3151
  2.3151

[...]

WARNING in EDDRMM: call to ZHEGV failed, returncode =   6  3  1
WARNING in EDDRMM: call to ZHEGV failed, returncode =   6  3  1
WARNING in EDDRMM: call to ZHEGV failed, returncode =   6  3  1
WARNING in EDDRMM: call to ZHEGV failed, returncode =   6  3  1
WARNING in EDDRMM: call to ZHEGV failed, returncode =   6  3  1
WARNING in EDDRMM: call to ZHEGV failed, returncode =   6  3  1
WARNING in EDDRMM: call to ZHEGV failed, returncode =   6  3  1
WARNING in EDDRMM: call to ZHEGV failed, returncode =   6  3  1
WARNING in EDDRMM: call to ZHEGV failed, returncode =   6  3  1
WARNING in EDDRMM: call to ZHEGV failed, returncode =   6  3  1
WARNING in EDDRMM: call to ZHEGV failed, returncode =   6  3  1
WARNING in EDDRMM: call to ZHEGV failed, returncode =   6  3  1
WARNING in EDDRMM: call to ZHEGV failed, returncode =   6  3  1
WARNING in EDDRMM: call to ZHEGV failed, returncode =   6  3  1
WARNING in EDDRMM: call to ZHEGV failed, returncode =   6  3  1

[...]

 average (electrostatic) potential at core
  the test charge radii are     0.6991
  (the norm of the test charge is              1.0000)
       1 -58.3162       2 -58.3162       3 -58.3162       4 -58.3162

 E-fermi :  -2.8249     XC(G=0):  -2.1803     alpha+bet : -1.9046

 k-point     1 :       0.0000    0.0000    0.0000
  band No.  band energies     occupation
      1     -22.0789      2.00000
      2     -17.2599      2.00000
      3     -15.8309      2.00000
      4     -10.2240      2.00000
      5      -8.8013      2.00000
      6      -6.0083      2.00000
      7      -5.7269      2.00000
      8      -5.3378      2.00000
      9      -1.1867      0.00000
     10       0.5449      0.00000
     11       1.3424      0.00000
     12       1.7306      0.00000

[...]

 soft charge-density along one line, spin component           1
         0         1         2         3         4         5         6         7         8         9
 total charge-density along one line

------------------------ aborting loop because EDIFF is reached ----------------------------------------

  FORCE on cell =-STRESS in cart. coord.  units (eV):
  Direction    XX          YY          ZZ          XY          YZ          ZX
  Alpha Z     6.18334     6.18334     6.18334
  Ewald    2978.11192  2981.60821 -3511.77978     0.00000     0.00000    -0.00000
  Hartree  2918.50431  2919.69600 -2895.97100    -0.00000    -0.00000    -0.00000
  E(xc)     -57.95403   -57.98211   -60.28929     0.00000    -0.00000    -0.00000
  Local   -6070.16600 -6074.30680  6202.50937    -0.00000     0.00000     0.00000
  n-local   -13.00074   -13.81614   -12.47751     0.06788     0.00000     0.00000
  augment    -1.47748    -1.47984    -1.37119     0.00000    -0.00000     0.00000
  Kinetic   234.33227   240.09842   273.19471    -4.45149    -0.00000    -0.00000
  Fock        0.00000     0.00000     0.00000     0.00000     0.00000     0.00000
  Total      -5.46641     0.00107    -0.00136     0.00000     0.00000     0.00000
  in kB     -41.53974     0.00813    -0.01031     0.00000     0.00000     0.00000

 VOLUME and BASIS-vectors are now :
  energy-cutoff  :     2000.00
  volume of cell :      210.84
      direct lattice vectors                 reciprocal lattice vectors
     4.381165384  0.000000000  0.000000000     0.228249772  0.000000000  0.000000000
     0.000000000  2.457074851  0.000000000     0.000000000  0.406988008  0.000000000
     0.000000000  0.000000000 19.585770005     0.000000000  0.000000000  0.051057477

[...]

 FORCES acting on ions
    electron-ion (+dipol)            ewald-force                    non-local-force                 convergence-correction
   0.541E+01 0.129E-15 -.249E-08   -.540E+01 -.231E-14 0.508E-19   -.547E-02 0.000E+00 0.000E+00   -.383E-06 -.779E-15 -.787E-13
   -.541E+01 -.169E-14 -.109E-07   0.540E+01 -.153E-15 0.101E-32   0.547E-02 -.347E-17 0.414E-24   0.383E-06 -.127E-14 -.792E-13
   0.541E+01 -.155E-12 -.248E-08   -.540E+01 -.529E-14 -.508E-19   -.547E-02 0.139E-16 -.414E-24   -.383E-06 -.915E-15 -.787E-13
   -.541E+01 0.653E-15 -.109E-07   0.540E+01 -.314E-14 -.101E-32   0.547E-02 -.104E-16 0.414E-24   0.383E-06 -.115E-14 -.790E-13
   -.941E-06 -.156E-12 -.268E-07   0.000E+00 -.109E-13 -.602E-35   0.867E-18 0.000E+00 0.414E-24   -.179E-12 -.412E-14 -.316E-12

 POSITION                                       TOTAL-FORCE (eV/Angst)
      4.37879      0.00000      0.00000        -0.001000      0.000000      0.000000
      0.73257      1.22854      0.00000         0.001000      0.000000      0.000000
      2.18821      1.22854      0.00000        -0.001000      0.000000      0.000000
      2.92315      0.00000      0.00000         0.001000     -0.000000      0.000000
    total drift:                               -0.000001     -0.000000     -0.000000

  FREE ENERGIE OF THE ION-ELECTRON SYSTEM (eV)
  free  energy   TOTEN  =       -36.85707749 eV

  energy  without entropy=      -36.85707748  energy(sigma->0) =      -36.85707748

 Quasi-Newton relaxation of ions (Broydens 2nd method)
  g(Force)  = 0.193E-06   g(Stress)= 0.000E+00

 Reset! Starting new Quasi-Newton update for ions

[...]

 d Force =-0.2587203E-06[-0.710E-06, 0.193E-06]  d Energy =-0.2701787E-06 0.115E-07
 d Force = 0.1040966E-02[ 0.104E-02, 0.104E-02]  d Ewald  = 0.1040966E-02-0.855E-10

[...]

 retain information from N=  1 steps
 eigenvalues of (default step * inverse Hessian matrix)
  average eigenvalue of G=   0.2136
 eigenvalue spectrum of G is  0.2136

[...]

WARNING in EDDRMM: call to ZHEGV failed, returncode =   6  3  1
WARNING in EDDRMM: call to ZHEGV failed, returncode =   6  3  1

[...]

 d Force = 0.2799327E-06[ 0.120E-08, 0.559E-06]  d Energy = 0.2888410E-06-0.891E-08
 d Force =-0.8183254E-03[-0.819E-03,-0.817E-03]  d Ewald  =-0.8183254E-03 0.418E-10

[...]

 eigenvalue-minimisations  :  4784
 total energy-change (2. order) : 0.4138201E-09  ( 0.5299437E-09)
 number of electron      16.0000000 magnetization
 augmentation part        0.3724736 magnetization

[...]

 eigenvalue-minimisations  :  2941
 total energy-change (2. order) :-0.4191634E-09  ( 0.6196484E-13)
 number of electron      16.0000000 magnetization
 augmentation part        0.3724736 magnetization

[...]

 eigenvalue-minimisations  :  2231
 total energy-change (2. order) : 0.1114131E-10  (-0.1780263E-13)
 number of electron      16.0000000 magnetization
 augmentation part        0.3724736 magnetization

[...]

 d Force =-0.2730883E-12[-0.312E-11, 0.257E-11]  d Energy =-0.2955858E-11 0.269E-11
 d Force =-0.1760802E-05[-0.176E-05,-0.176E-05]  d Ewald  =-0.1760802E-05 0.000E+00

[...]

 FEWALD executed in parallel

[...]

 eigenvalue-minimisations  :  1371
 total energy-change (2. order) : 0.9902124E-10  ( 0.4534644E-13)
 number of electron      16.0000000 magnetization
 augmentation part        0.3724736 magnetization

[...]

 eigenvalue-minimisations  :  1364
 total energy-change (2. order) :-0.1513172E-09  (-0.4246809E-13)
 number of electron      16.0000000 magnetization
 augmentation part        0.3724736 magnetization

 Broyden mixing:
  rms(total) = 0.15445E-08    rms(broyden)= 0.15445E-08
  rms(prec ) = 0.36647E-08
  weight for this iteration     100.00

 eigenvalues of (default mixing * dielectric matrix)
  average eigenvalue GAMMA=   2.3426
  1.0498  2.5789  3.3990

[...]

----------------------------------------- Iteration    5(   5)  ---------------------------------------

 eigenvalue-minimisations  :  1355
 total energy-change (2. order) :-0.7435119E-10  ( 0.1389424E-13)
 number of electron      16.0000000 magnetization
 augmentation part        0.3724736 magnetization

 Free energy of the ion-electron system (eV)
  alpha Z        PSCENC =         6.18334092
  Ewald energy   TEWEN  =      2447.94033029
  -Hartree energ DENC   =     -2942.22913332
  -exchange      EXHF   =         0.00000000
  -V(xc)+E(xc)   XCENC  =        57.13740203
  PAW double counting   =       268.72972341     -273.84081274
  entropy T*S    EENTRO =        -0.00000002
  eigenvalues    EBANDS =      -189.40145500
  atomic energy  EATOM  =       588.62352690
  free energy    TOTEN  =       -36.85707751 eV

  energy without entropy =      -36.85707749  energy(sigma->0) =      -36.85707750

 average (electrostatic) potential at core
  the test charge radii are     0.6991
  (the norm of the test charge is              1.0000)
       1 -58.3162       2 -58.3162       3 -58.3162       4 -58.3162

 E-fermi :  -2.8249     XC(G=0):  -2.1777     alpha+bet : -1.9046

[...]

 k-point   247 :       0.5000    0.5000    0.0000
  band No.  band energies     occupation
      1     -16.8434      2.00000
      2     -16.8434      2.00000
      3     -15.8563      2.00000
      4     -15.8563      2.00000
      5      -9.3040      2.00000
      6      -9.3040      2.00000
      7      -5.0109      2.00000
      8      -5.0109      2.00000
      9      -1.1527      0.00000
     10      -1.1527      0.00000
     11       3.8885      0.00000
     12       3.8885      0.00000

 soft charge-density along one line, spin component           1
         0         1         2         3         4         5         6         7         8         9
 total charge-density along one line

------------------------ aborting loop because EDIFF is reached ----------------------------------------

  FORCE on cell =-STRESS in cart. coord.  units (eV):
  Direction    XX          YY          ZZ          XY          YZ          ZX
  Alpha Z     6.18334     6.18334     6.18334
  Ewald    2978.12067  2981.59923 -3511.77978     0.00000     0.00000    -0.00000
  Hartree  2918.50552  2919.69465 -2895.97104    -0.00000    -0.00000    -0.00000
  E(xc)     -57.95398   -57.98214   -60.28929     0.00000    -0.00000    -0.00000
  Local   -6070.17442 -6074.29815  6202.50947    -0.00000     0.00000    -0.00000
  n-local   -13.00066   -13.81621   -12.47751     0.06787    -0.00000     0.00000
  augment    -1.47749    -1.47983    -1.37119    -0.00000     0.00000    -0.00000
  Kinetic   234.33083   240.09975   273.19466    -4.45145     0.00000    -0.00000
  Fock        0.00000     0.00000     0.00000     0.00000     0.00000     0.00000
  Total      -5.46619     0.00064    -0.00133     0.00000     0.00000     0.00000
  in kB     -41.53813     0.00485    -0.01013     0.00000     0.00000     0.00000

 VOLUME and BASIS-vectors are now :
  energy-cutoff  :     2000.00
  volume of cell :      210.84
      direct lattice vectors                 reciprocal lattice vectors
     4.381165384  0.000000000  0.000000000     0.228249772  0.000000000  0.000000000
     0.000000000  2.457074851  0.000000000     0.000000000  0.406988008  0.000000000
     0.000000000  0.000000000 19.585770005     0.000000000  0.000000000  0.051057477

  length of vectors
     4.381165384  2.457074851 19.585770005     0.228249772  0.406988008  0.051057477

 FORCES acting on ions
    electron-ion (+dipol)            ewald-force                    non-local-force                 convergence-correction
   0.540E+01 -.249E-15 -.248E-08   -.540E+01 -.541E-14 -.155E-17   -.512E-02 0.000E+00 0.129E-25   -.129E-07 0.243E-14 -.303E-12
   -.540E+01 0.403E-14 -.110E-07   0.540E+01 0.260E-14 0.124E-18   0.512E-02 0.347E-17 -.129E-25   0.129E-07 -.440E-14 -.440E-12
   0.540E+01 -.266E-12 -.249E-08   -.540E+01 -.804E-14 0.198E-17   -.512E-02 -.139E-16 0.129E-25   -.129E-07 -.216E-14 -.350E-12
   -.540E+01 0.362E-15 -.109E-07   0.540E+01 -.342E-16 -.557E-18   0.512E-02 0.104E-16 -.129E-25   0.129E-07 0.450E-15 -.208E-12
   -.940E-06 -.262E-12 -.269E-07   0.000E+00 -.109E-13 0.000E+00   0.867E-18 0.000E+00 0.000E+00   0.242E-13 -.368E-14 -.130E-11

 POSITION                                       TOTAL-FORCE (eV/Angst)
      4.37878      0.00000      0.00000        -0.000000      0.000000     -0.000000
      0.73258      1.22854     -0.00000         0.000000     -0.000000      0.000000
      2.18820      1.22854      0.00000        -0.000000     -0.000000     -0.000000
      2.92316     -0.00000     -0.00000         0.000000      0.000000      0.000000
    total drift:                               -0.000001     -0.000000     -0.000000

  FREE ENERGIE OF THE ION-ELECTRON SYSTEM (eV)
  free  energy   TOTEN  =       -36.85707751 eV

  energy  without entropy=      -36.85707749  energy(sigma->0) =      -36.85707750

 d Force = 0.8807148E-12[ 0.513E-13, 0.171E-11]  d Energy =-0.6798473E-10 0.689E-10
 d Force = 0.9648256E-06[ 0.965E-06, 0.965E-06]  d Ewald  = 0.9648261E-06-0.455E-12

 Quasi-Newton relaxation of ions (Broydens 2nd method)
  g(Force)  = 0.159E-13   g(Stress)= 0.000E+00

 retain information from N=  1 steps
 eigenvalues of (default step * inverse Hessian matrix)
  average eigenvalue of G=   0.0998
 eigenvalue spectrum of G is  0.0998

 reached required accuracy - stopping structural energy minimisation