 vasp.5.3.5 31Mar14 (build Mar 02 2015 18:14:16) complex

 executed on             LinuxIFC date 2018.08.09  21:17:57

 INCAR:
 POTCAR:   PAW_PBE C 08Apr2002
 POTCAR:   PAW_PBE C 08Apr2002
   VRHFIN =C: s2p2

   TITEL  = PAW_PBE C 08Apr2002
   POMASS =   12.011; ZVAL   =    4.000    mass and valenz
   ENMAX  =  400.000; ENMIN  =  300.000 eV
   QCUT   =   -5.516; QGAM   =   11.032    optimization parameters

   Description
     l     E      TYP  RCUT    TYP  RCUT
     0   .000     23  1.200
     0   .000     23  1.200
     1   .000     23  1.500
     1  2.500     23  1.500
     2   .000      7  1.500

 PAW_PBE C 08Apr2002                    :

 POSCAR: MD-kMC export data
  positions in direct lattice
  velocities in cartesian coordinates
 exchange correlation table for  LEXCH =        8
   RHO(1)=    0.500       N(1)  =     2000
   RHO(2)=  100.500       N(2)  =     4000

 ion  position               nearest neighbor table
   1  0.001  0.000  0.000-   4 1.42   2 1.45   2 1.45
   2  0.166  0.500  0.000-   3 1.42   1 1.45   1 1.45
   3  0.501  0.500  0.000-   2 1.42   4 1.45   4 1.45
   4  0.666  0.000  0.000-   1 1.42   3 1.45   3 1.45

  LATTYP: Found a simple orthorhombic cell.
 ALAT       =     2.5289848307
 B/A-ratio  =     1.6825654256
 C/A-ratio  =     7.7470801854

  Lattice vectors:

 A1 = (   0.0000000000,  -2.5289848307,   0.0000000000)
 A2 = (  -4.2551824381,   0.0000000000,   0.0000000000)
 A3 = (   0.0000000000,   0.0000000000, -19.5922482712)

Analysis of symmetry for initial positions (statically):
 Subroutine PRICEL returns following result:

  LATTYP: Found a base centered orthorhombic cell.
 ALAT       =     2.5289848307
 B/A-ratio  =     1.6825654256
 C/A-ratio  =     7.7470801854

[...]

   2 primitive cells build up your supercell.

 Routine SETGRP: Setting up the symmetry group for a
 simple orthorhombic supercell.

 Subroutine GETGRP returns: Found  8 space group operations
 (whereof  4 operations were pure point group operations)
 out of a pool of  8 trial point group operations.

The static configuration has the point symmetry C_2v.
 The point group associated with its full space group is D_2h.

Analysis of symmetry for dynamics (positions and initial velocities):
 Subroutine PRICEL returns following result:

  LATTYP: Found a base centered orthorhombic cell.
 ALAT       =     2.5289848307
 B/A-ratio  =     1.6825654256
 C/A-ratio  =     7.7470801854

  Lattice vectors:

 A1 = (   2.1275912190,  -1.2644924154,   0.0000000000)
 A2 = (  -2.1275912190,  -1.2644924154,   0.0000000000)
 A3 = (   0.0000000000,   0.0000000000, -19.5922482712)

   2 primitive cells build up your supercell.

 Routine SETGRP: Setting up the symmetry group for a
 simple orthorhombic supercell.

 Subroutine GETGRP returns: Found  8 space group operations
 (whereof  4 operations were pure point group operations)
 out of a pool of  8 trial point group operations.

The dynamic configuration has the point symmetry C_2v.
 The point group associated with its full space group is D_2h.

 KPOINTS: Automatic mesh

Automatic generation of k-mesh.
Space group operators:
 irot       det(A)        alpha          n_x          n_y          n_z        tau_x        tau_y        tau_z
    1     1.000000     0.000001     1.000000     0.000000     0.000000     0.000000     0.000000     0.000000
    2    -1.000000   180.000000     0.000000     0.000000     1.000000     0.000000     0.000000     0.000000
    3     1.000000   179.999999     1.000000     0.000000     0.000000     0.000000     0.000000     0.000000
    4    -1.000000   180.000000     0.000000     1.000000     0.000000     0.000000     0.000000     0.000000
    5    -1.000000     0.000001     1.000000     0.000000     0.000000     0.166667    -0.500000     0.000000
    6     1.000000   180.000000     0.000000     0.000000     1.000000     0.166667    -0.500000     0.000000
    7    -1.000000   179.999999     1.000000     0.000000     0.000000     0.166667    -0.500000     0.000000
    8     1.000000   180.000000     0.000000     1.000000     0.000000     0.166667    -0.500000     0.000000

 Subroutine IBZKPT returns following result:

 Found    247 irreducible k-points:

 Following reciprocal coordinates:
            Coordinates               Weight
  0.000000  0.000000  0.000000      1.000000
  0.041667  0.000000  0.000000      2.000000
  0.083333  0.000000  0.000000      2.000000
  0.125000  0.000000  0.000000      2.000000
  0.166667  0.000000  0.000000      2.000000
  0.208333  0.000000  0.000000      2.000000
  0.250000  0.000000  0.000000      2.000000
  0.291667  0.000000  0.000000      2.000000
  0.333333  0.000000  0.000000      2.000000
  0.375000  0.000000  0.000000      2.000000
  0.416667  0.000000  0.000000      2.000000
  0.458333  0.000000  0.000000      2.000000
  0.500000  0.000000  0.000000      1.000000
  0.000000  0.027778  0.000000      2.000000
  0.041667  0.027778  0.000000      4.000000
  0.083333  0.027778  0.000000      4.000000
  0.125000  0.027778  0.000000      4.000000
  0.166667  0.027778  0.000000      4.000000
  0.208333  0.027778  0.000000      4.000000
  0.250000  0.027778  0.000000      4.000000
  0.291667  0.027778  0.000000      4.000000
  0.333333  0.027778  0.000000      4.000000
  0.375000  0.027778  0.000000      4.000000
  0.416667  0.027778  0.000000      4.000000
  0.458333  0.027778  0.000000      4.000000
  0.500000  0.027778  0.000000      2.000000
  0.000000  0.055556  0.000000      2.000000
  0.041667  0.055556  0.000000      4.000000
  0.083333  0.055556  0.000000      4.000000
  0.125000  0.055556  0.000000      4.000000
  0.166667  0.055556  0.000000      4.000000
  0.208333  0.055556  0.000000      4.000000
  0.250000  0.055556  0.000000      4.000000
  0.291667  0.055556  0.000000      4.000000
  0.333333  0.055556  0.000000      4.000000
  0.375000  0.055556  0.000000      4.000000
  0.416667  0.055556  0.000000      4.000000
  0.458333  0.055556  0.000000      4.000000
  0.500000  0.055556  0.000000      2.000000
  0.000000  0.083333  0.000000      2.000000
  0.041667  0.083333  0.000000      4.000000
  0.083333  0.083333  0.000000      4.000000
  0.125000  0.083333  0.000000      4.000000
  0.166667  0.083333  0.000000      4.000000
  0.208333  0.083333  0.000000      4.000000
  0.250000  0.083333  0.000000      4.000000
  0.291667  0.083333  0.000000      4.000000
  0.333333  0.083333  0.000000      4.000000
  0.375000  0.083333  0.000000      4.000000
  0.416667  0.083333  0.000000      4.000000
  0.458333  0.083333  0.000000      4.000000
  0.500000  0.083333  0.000000      2.000000
  0.000000  0.111111  0.000000      2.000000
  0.041667  0.111111  0.000000      4.000000
  0.083333  0.111111  0.000000      4.000000
  0.125000  0.111111  0.000000      4.000000
  0.166667  0.111111  0.000000      4.000000
  0.208333  0.111111  0.000000      4.000000
  0.250000  0.111111  0.000000      4.000000
  0.291667  0.111111  0.000000      4.000000
[...]
  0.458333  0.472222  0.000000      4.000000
  0.500000  0.472222  0.000000      2.000000
  0.000000  0.500000  0.000000      1.000000
  0.041667  0.500000  0.000000      2.000000
  0.083333  0.500000  0.000000      2.000000
  0.125000  0.500000  0.000000      2.000000
  0.166667  0.500000  0.000000      2.000000
  0.208333  0.500000  0.000000      2.000000
  0.250000  0.500000  0.000000      2.000000
  0.291667  0.500000  0.000000      2.000000
  0.333333  0.500000  0.000000      2.000000
  0.375000  0.500000  0.000000      2.000000
  0.416667  0.500000  0.000000      2.000000
  0.458333  0.500000  0.000000      2.000000
  0.500000  0.500000  0.000000      1.000000

 Following cartesian coordinates:
            Coordinates               Weight
  0.000000  0.000000  0.000000      1.000000
  0.009792  0.000000  0.000000      2.000000
  0.019584  0.000000  0.000000      2.000000
  0.029376  0.000000  0.000000      2.000000
  0.039168  0.000000  0.000000      2.000000
  0.048960  0.000000  0.000000      2.000000
  0.058752  0.000000  0.000000      2.000000
  0.068544  0.000000  0.000000      2.000000
  0.078336  0.000000  0.000000      2.000000
  0.088128  0.000000  0.000000      2.000000
  0.097920  0.000000  0.000000      2.000000
  0.107712  0.000000  0.000000      2.000000
  0.117504  0.000000  0.000000      1.000000
  0.000000  0.010984  0.000000      2.000000
  0.009792  0.010984  0.000000      4.000000
  0.019584  0.010984  0.000000      4.000000
  0.029376  0.010984  0.000000      4.000000
  0.039168  0.010984  0.000000      4.000000
  0.048960  0.010984  0.000000      4.000000
  0.058752  0.010984  0.000000      4.000000
  0.068544  0.010984  0.000000      4.000000
  0.078336  0.010984  0.000000      4.000000
  0.088128  0.010984  0.000000      4.000000
  0.097920  0.010984  0.000000      4.000000
  0.107712  0.010984  0.000000      4.000000
  0.117504  0.010984  0.000000      2.000000
  0.000000  0.021968  0.000000      2.000000
  0.009792  0.021968  0.000000      4.000000
  0.019584  0.021968  0.000000      4.000000
  0.029376  0.021968  0.000000      4.000000
  0.039168  0.021968  0.000000      4.000000
  0.048960  0.021968  0.000000      4.000000
  0.058752  0.021968  0.000000      4.000000
  0.068544  0.021968  0.000000      4.000000
  0.078336  0.021968  0.000000      4.000000
  0.088128  0.021968  0.000000      4.000000
  0.097920  0.021968  0.000000      4.000000
  0.107712  0.021968  0.000000      4.000000
  0.117504  0.021968  0.000000      2.000000
  0.000000  0.032951  0.000000      2.000000
  0.009792  0.032951  0.000000      4.000000
  0.019584  0.032951  0.000000      4.000000
  0.029376  0.032951  0.000000      4.000000
  0.039168  0.032951  0.000000      4.000000
  0.048960  0.032951  0.000000      4.000000
  0.058752  0.032951  0.000000      4.000000
  0.068544  0.032951  0.000000      4.000000
  0.078336  0.032951  0.000000      4.000000
  0.088128  0.032951  0.000000      4.000000
  0.097920  0.032951  0.000000      4.000000
  0.107712  0.032951  0.000000      4.000000
  0.117504  0.032951  0.000000      2.000000
  0.000000  0.043935  0.000000      2.000000
  0.009792  0.043935  0.000000      4.000000
  0.019584  0.043935  0.000000      4.000000
  0.029376  0.043935  0.000000      4.000000
  0.039168  0.043935  0.000000      4.000000
  0.048960  0.043935  0.000000      4.000000
  0.058752  0.043935  0.000000      4.000000
  0.068544  0.043935  0.000000      4.000000
[...]
  0.107712  0.186724  0.000000      4.000000
  0.117504  0.186724  0.000000      2.000000
  0.000000  0.197708  0.000000      1.000000
  0.009792  0.197708  0.000000      2.000000
  0.019584  0.197708  0.000000      2.000000
  0.029376  0.197708  0.000000      2.000000
  0.039168  0.197708  0.000000      2.000000
  0.048960  0.197708  0.000000      2.000000
  0.058752  0.197708  0.000000      2.000000
  0.068544  0.197708  0.000000      2.000000
  0.078336  0.197708  0.000000      2.000000
  0.088128  0.197708  0.000000      2.000000
  0.097920  0.197708  0.000000      2.000000
  0.107712  0.197708  0.000000      2.000000
  0.117504  0.197708  0.000000      1.000000

 I would recommend the setting:
   dimension x,y,z NGX =    62 NGY =   37 NGZ =  286
[...]
 k-point ** :   0.0000 0.2500 0.0000  plane waves:   42840
 k-point ** :   0.0417 0.2500 0.0000  plane waves:   42828
 k-point ** :   0.0833 0.2500 0.0000  plane waves:   42818
 k-point ** :   0.1250 0.2500 0.0000  plane waves:   42803
 k-point ** :   0.1667 0.2500 0.0000  plane waves:   42814
 k-point ** :   0.2083 0.2500 0.0000  plane waves:   42824
 k-point ** :   0.2500 0.2500 0.0000  plane waves:   42797
 k-point ** :   0.2917 0.2500 0.0000  plane waves:   42805
 k-point ** :   0.3333 0.2500 0.0000  plane waves:   42792
 k-point ** :   0.3750 0.2500 0.0000  plane waves:   42789
 k-point ** :   0.4167 0.2500 0.0000  plane waves:   42768
 k-point ** :   0.4583 0.2500 0.0000  plane waves:   42779
 k-point ** :   0.5000 0.2500 0.0000  plane waves:   42756
 k-point ** :   0.0000 0.2778 0.0000  plane waves:   42830
 k-point ** :   0.0417 0.2778 0.0000  plane waves:   42842
 k-point ** :   0.0833 0.2778 0.0000  plane waves:   42848
 k-point ** :   0.1250 0.2778 0.0000  plane waves:   42830
 k-point ** :   0.1667 0.2778 0.0000  plane waves:   42831
 k-point ** :   0.2083 0.2778 0.0000  plane waves:   42836
 k-point ** :   0.2500 0.2778 0.0000  plane waves:   42809
 k-point ** :   0.2917 0.2778 0.0000  plane waves:   42809
 k-point ** :   0.3333 0.2778 0.0000  plane waves:   42802
 k-point ** :   0.3750 0.2778 0.0000  plane waves:   42784
 k-point ** :   0.4167 0.2778 0.0000  plane waves:   42787
 k-point ** :   0.4583 0.2778 0.0000  plane waves:   42741
 k-point ** :   0.5000 0.2778 0.0000  plane waves:   42764
 k-point ** :   0.0000 0.3056 0.0000  plane waves:   42884
 k-point ** :   0.0417 0.3056 0.0000  plane waves:   42881
 k-point ** :   0.0833 0.3056 0.0000  plane waves:   42867
 k-point ** :   0.1250 0.3056 0.0000  plane waves:   42855
 k-point ** :   0.1667 0.3056 0.0000  plane waves:   42848
 k-point ** :   0.2083 0.3056 0.0000  plane waves:   42836
 k-point ** :   0.2500 0.3056 0.0000  plane waves:   42835
 k-point ** :   0.2917 0.3056 0.0000  plane waves:   42810
 k-point ** :   0.3333 0.3056 0.0000  plane waves:   42815
 k-point ** :   0.3750 0.3056 0.0000  plane waves:   42791
 k-point ** :   0.4167 0.3056 0.0000  plane waves:   42785
 k-point ** :   0.4583 0.3056 0.0000  plane waves:   42778
 k-point ** :   0.5000 0.3056 0.0000  plane waves:   42770
 k-point ** :   0.0000 0.3333 0.0000  plane waves:   42898
 k-point ** :   0.0417 0.3333 0.0000  plane waves:   42897
 k-point ** :   0.0833 0.3333 0.0000  plane waves:   42869
[...]
 k-point ** :   0.4583 0.4722 0.0000  plane waves:   42784
 k-point ** :   0.5000 0.4722 0.0000  plane waves:   42760
 k-point ** :   0.0000 0.5000 0.0000  plane waves:   42862
 k-point ** :   0.0417 0.5000 0.0000  plane waves:   42840
 k-point ** :   0.0833 0.5000 0.0000  plane waves:   42854
 k-point ** :   0.1250 0.5000 0.0000  plane waves:   42870
 k-point ** :   0.1667 0.5000 0.0000  plane waves:   42874
 k-point ** :   0.2083 0.5000 0.0000  plane waves:   42898
 k-point ** :   0.2500 0.5000 0.0000  plane waves:   42894
 k-point ** :   0.2917 0.5000 0.0000  plane waves:   42874
 k-point ** :   0.3333 0.5000 0.0000  plane waves:   42860
 k-point ** :   0.3750 0.5000 0.0000  plane waves:   42826
 k-point ** :   0.4167 0.5000 0.0000  plane waves:   42818
 k-point ** :   0.4583 0.5000 0.0000  plane waves:   42774
 k-point ** :   0.5000 0.5000 0.0000  plane waves:   42772

 maximum and minimum number of plane-waves per node :     21494    21351

 maximum number of plane-waves:     42922
 maximum index in each direction:
   IXMAX=   15   IYMAX=    9   IZMAX=   71
   IXMIN=  -16   IYMIN=   -9   IZMIN=  -71

 NGX is ok and might be reduce to  64
 NGY is ok and might be reduce to  38
 NGZ is ok and might be reduce to 286

 parallel 3D FFT for wavefunctions:
    minimum data exchange during FFTs selected (reduces bandwidth)
 parallel 3D FFT for charge:
    minimum data exchange during FFTs selected (reduces bandwidth)

 Broyden mixing: mesh for mixing (old mesh)
   NGX = 31   NGY = 19   NGZ =143
  (NGX  =128   NGY  = 80   NGZ  =576)
  gives a total of  84227 points

 initial charge density was supplied:
 charge density of overlapping atoms calculated
 number of electron      16.0000000 magnetization
 keeping initial charge density in first step

 Maximum index for augmentation-charges         5075 (set IRDMAX)

 First call to EWALD:  gamma=   0.298
 Maximum number of real-space cells 4x 6x 1
 Maximum number of reciprocal cells 2x 1x 8

 FEWALD executed in parallel

----------------------------------------- Iteration    1(   1)  ---------------------------------------

 eigenvalue-minimisations  :  5928
 total energy-change (2. order) : 0.1878206E+03  (-0.1058734E+04)
 number of electron      16.0000000 magnetization
 augmentation part       16.0000000 magnetization

 Free energy of the ion-electron system (eV)
  alpha Z        PSCENC =         6.18334092
  Ewald energy   TEWEN  =      2450.08170183
  -Hartree energ DENC   =     -2879.55985417
  -exchange      EXHF   =         0.00000000
  -V(xc)+E(xc)   XCENC  =        54.81826457
  PAW double counting   =       151.32577238     -155.92769107
  entropy T*S    EENTRO =        -0.00185865
  eigenvalues    EBANDS =       -27.72255399
  atomic energy  EATOM  =       588.62352690
  free energy    TOTEN  =       187.82064873 eV

  energy without entropy =      187.82250738  energy(sigma->0) =      187.82157805

[...]

 eigenvalue-minimisations  : 10400
 total energy-change (2. order) :-0.1971991E+03  (-0.1765173E+03)
 number of electron      16.0000000 magnetization
 augmentation part       16.0000000 magnetization

[...]

 Broyden mixing:
  rms(total) = 0.70979E+00    rms(broyden)= 0.70979E+00
  rms(prec ) = 0.77353E+00
  weight for this iteration     100.00

[...]

 eigenvalues of (default mixing * dielectric matrix)
  average eigenvalue GAMMA=   2.3079
  2.3079

[...]

WARNING in EDDRMM: call to ZHEGV failed, returncode =   6  3  1
WARNING in EDDRMM: call to ZHEGV failed, returncode =   6  3  1

[...]

 average (electrostatic) potential at core
  the test charge radii are     0.6991
  (the norm of the test charge is              1.0000)
       1 -58.3142       2 -58.3142       3 -58.3142       4 -58.3142

 E-fermi :  -2.8238     XC(G=0):  -2.1773     alpha+bet : -1.9046

 k-point     1 :       0.0000    0.0000    0.0000
  band No.  band energies     occupation
      1     -22.0816      2.00000
      2     -16.7048      2.00000
      3     -15.8646      2.00000
      4     -10.2261      2.00000
      5      -9.4739      2.00000
      6      -5.9911      2.00000
      7      -5.7421      2.00000
      8      -4.9050      2.00000
      9      -1.1428      0.00000
     10       0.5447      0.00000
     11       1.3427      0.00000
     12       3.4887      0.00000

[...]

 soft charge-density along one line, spin component           1
         0         1         2         3         4         5         6         7         8         9
 total charge-density along one line

------------------------ aborting loop because EDIFF is reached ----------------------------------------

  FORCE on cell =-STRESS in cart. coord.  units (eV):
  Direction    XX          YY          ZZ          XY          YZ          ZX
  Alpha Z     6.18334     6.18334     6.18334
  Ewald    2983.69973  2980.48507 -3514.10331    -0.00000     0.00000    -0.00000
  Hartree  2921.74913  2920.74529 -2898.12868    -0.00000    -0.00000    -0.00000
  E(xc)     -57.98859   -57.95871   -60.29517     0.00000     0.00000    -0.00000
  Local   -6078.41008 -6074.79748  6206.97664    -0.00000    -0.00000    -0.00000
  n-local   -13.81986   -13.01205   -12.48133     0.08827     0.00000     0.00000
  augment    -1.48130    -1.47791    -1.37181     0.00000     0.00000    -0.00000
  Kinetic   240.06713   234.44973   273.21898    -4.64059    -0.00000    -0.00000
  Fock        0.00000     0.00000     0.00000     0.00000     0.00000     0.00000
  Total      -0.00051    -5.38272    -0.00134     0.00000     0.00000     0.00000
  in kB      -0.00384   -40.90378    -0.01017     0.00000     0.00000     0.00000

 VOLUME and BASIS-vectors are now :
  energy-cutoff  :     2000.00
  volume of cell :      210.84
      direct lattice vectors                 reciprocal lattice vectors
     4.255182438  0.000000000  0.000000000     0.235007550  0.000000000  0.000000000
     0.000000000  2.528984831  0.000000000     0.000000000  0.395415579  0.000000000
     0.000000000  0.000000000 19.592248271     0.000000000  0.000000000  0.051040595

[...]

 FORCES acting on ions
    electron-ion (+dipol)            ewald-force                    non-local-force                 convergence-correction
   -.531E+01 -.764E-15 0.796E-09   0.530E+01 -.434E-14 -.260E-18   0.793E-02 0.173E-16 0.000E+00   0.124E-06 -.150E-14 -.804E-13
   0.531E+01 -.587E-14 -.224E-08   -.530E+01 0.125E-14 -.847E-21   -.793E-02 0.694E-17 -.414E-24   -.124E-06 -.843E-15 -.800E-13
   -.531E+01 -.205E-12 0.805E-09   0.530E+01 -.862E-15 -.621E-18   0.793E-02 0.104E-16 0.827E-24   0.124E-06 -.485E-15 -.804E-13
   0.531E+01 -.599E-15 -.222E-08   -.530E+01 0.472E-14 0.882E-18   -.793E-02 -.694E-17 -.620E-24   -.124E-06 -.187E-14 -.800E-13
   -.259E-06 -.212E-12 -.285E-08   0.799E-14 0.771E-15 0.000E+00   0.173E-17 0.278E-16 -.207E-24   -.188E-13 -.469E-14 -.321E-12

 POSITION                                       TOTAL-FORCE (eV/Angst)
      0.00271      0.00000      0.00000        -0.000515      0.000000     -0.000000
      0.70649      1.26449      0.00000         0.000515     -0.000000      0.000000
      2.13030      1.26449      0.00000        -0.000515     -0.000000     -0.000000
      2.83408      0.00000      0.00000         0.000515      0.000000      0.000000
    total drift:                               -0.000000     -0.000000     -0.000000

  FREE ENERGIE OF THE ION-ELECTRON SYSTEM (eV)
  free  energy   TOTEN  =       -36.85846006 eV

  energy  without entropy=      -36.85846004  energy(sigma->0) =      -36.85846005

 Quasi-Newton relaxation of ions (Broydens 2nd method)
  g(Force)  = 0.512E-07   g(Stress)= 0.000E+00

 Reset! Starting new Quasi-Newton update for ions

[...]

 d Force =-0.7663474E-07[-0.204E-06, 0.512E-07]  d Energy =-0.7105621E-07-0.558E-08
 d Force =-0.5268735E-03[-0.527E-03,-0.526E-03]  d Ewald  =-0.5268734E-03-0.127E-10

[...]

 retain information from N=  1 steps
 eigenvalues of (default step * inverse Hessian matrix)
  average eigenvalue of G=   0.2002
 eigenvalue spectrum of G is  0.2002

 FEWALD executed in parallel

[...]

 eigenvalue-minimisations  :  2064
 total energy-change (2. order) :-0.3857394E-09  (-0.6225478E-13)
 number of electron      16.0000000 magnetization
 augmentation part        0.3726080 magnetization

[...]

 eigenvalue-minimisations  :  1997
 total energy-change (2. order) : 0.1446097E-09  ( 0.1439167E-14)
 number of electron      16.0000000 magnetization
 augmentation part        0.3726080 magnetization

 Broyden mixing:
  rms(total) = 0.83194E-08    rms(broyden)= 0.83194E-08
  rms(prec ) = 0.91354E-08
  weight for this iteration     100.00

 eigenvalues of (default mixing * dielectric matrix)
  average eigenvalue GAMMA=   1.9547
  7.8460  2.8454  2.8454  2.5780  2.0463  1.1037  1.1037  0.7985  0.7985  1.0063
  0.9565  0.7412  0.7412

[...]

----------------------------------------- Iteration    3(  15)  ---------------------------------------

 eigenvalue-minimisations  :  1920
 total energy-change (2. order) : 0.4706635E-10  (-0.8285143E-13)
 number of electron      16.0000000 magnetization
 augmentation part        0.3726080 magnetization

 Free energy of the ion-electron system (eV)
  alpha Z        PSCENC =         6.18334092
  Ewald energy   TEWEN  =      2450.08180723
  -Hartree energ DENC   =     -2944.36583241
  -exchange      EXHF   =         0.00000000
  -V(xc)+E(xc)   XCENC  =        57.14321144
  PAW double counting   =       268.85294963     -273.96459192
  entropy T*S    EENTRO =        -0.00000001
  eigenvalues    EBANDS =      -189.41287185
  atomic energy  EATOM  =       588.62352690
  free energy    TOTEN  =       -36.85846006 eV

  energy without entropy =      -36.85846005  energy(sigma->0) =      -36.85846005

 average (electrostatic) potential at core
  the test charge radii are     0.6991
  (the norm of the test charge is              1.0000)
       1 -58.3142       2 -58.3142       3 -58.3142       4 -58.3142

 E-fermi :  -2.8238     XC(G=0):  -2.1770     alpha+bet : -1.9046

[...]

 k-point   247 :       0.5000    0.5000    0.0000
  band No.  band energies     occupation
      1     -17.1214      2.00000
      2     -17.1214      2.00000
      3     -15.8424      2.00000
      4     -15.8424      2.00000
      5      -8.9684      2.00000
      6      -8.9684      2.00000
      7      -5.2269      2.00000
      8      -5.2269      2.00000
      9      -1.1729      0.00000
     10      -1.1729      0.00000
     11       4.5910      0.00000
     12       4.5910      0.00000

 soft charge-density along one line, spin component           1
         0         1         2         3         4         5         6         7         8         9
 total charge-density along one line

------------------------ aborting loop because EDIFF is reached ----------------------------------------

  FORCE on cell =-STRESS in cart. coord.  units (eV):
  Direction    XX          YY          ZZ          XY          YZ          ZX
  Alpha Z     6.18334     6.18334     6.18334
  Ewald    2983.70402  2980.48088 -3514.10331     0.00000     0.00000     0.00000
  Hartree  2921.74974  2920.74476 -2898.12867    -0.00000    -0.00000    -0.00000
  E(xc)     -57.98858   -57.95874   -60.29517     0.00000     0.00000    -0.00000
  Local   -6078.41414 -6074.79354  6206.97661     0.00000    -0.00000    -0.00000
  n-local   -13.81983   -13.01209   -12.48133     0.08827     0.00000     0.00000
  augment    -1.48130    -1.47790    -1.37181    -0.00000     0.00000     0.00000
  Kinetic   240.06652   234.45040   273.21901    -4.64057    -0.00000    -0.00000
  Fock        0.00000     0.00000     0.00000     0.00000     0.00000     0.00000
  Total      -0.00023    -5.38288    -0.00134     0.00000     0.00000     0.00000
  in kB      -0.00176   -40.90501    -0.01017     0.00000     0.00000     0.00000

 VOLUME and BASIS-vectors are now :
  energy-cutoff  :     2000.00
  volume of cell :      210.84
      direct lattice vectors                 reciprocal lattice vectors
     4.255182438  0.000000000  0.000000000     0.235007550  0.000000000  0.000000000
     0.000000000  2.528984831  0.000000000     0.000000000  0.395415579  0.000000000
     0.000000000  0.000000000 19.592248271     0.000000000  0.000000000  0.051040595

  length of vectors
     4.255182438  2.528984831 19.592248271     0.235007550  0.395415579  0.051040595

 FORCES acting on ions
    electron-ion (+dipol)            ewald-force                    non-local-force                 convergence-correction
   -.531E+01 -.206E-15 0.796E-09   0.530E+01 -.425E-14 -.745E-18   0.811E-02 0.694E-17 -.808E-27   0.368E-07 0.354E-15 -.519E-13
   0.531E+01 0.831E-14 -.224E-08   -.530E+01 -.114E-15 0.933E-18   -.811E-02 -.694E-17 0.000E+00   -.368E-07 -.234E-14 -.514E-13
   -.531E+01 0.704E-12 0.802E-09   0.530E+01 0.500E-15 -.990E-18   0.811E-02 0.208E-16 -.808E-27   0.368E-07 0.158E-14 -.521E-13
   0.531E+01 0.401E-15 -.225E-08   -.530E+01 0.463E-14 0.803E-18   -.811E-02 -.139E-16 0.000E+00   -.368E-07 -.355E-14 -.516E-13
   -.259E-06 0.712E-12 -.289E-08   -.622E-14 0.771E-15 0.963E-34   0.347E-17 0.694E-17 -.162E-26   0.913E-14 -.395E-14 -.207E-12

 POSITION                                       TOTAL-FORCE (eV/Angst)
      0.00271     -0.00000     -0.00000         0.000000      0.000000     -0.000000
      0.70649      1.26449      0.00000        -0.000000      0.000000      0.000000
      2.13030      1.26449     -0.00000         0.000000     -0.000000     -0.000000
      2.83408     -0.00000      0.00000        -0.000000      0.000000      0.000000
    total drift:                               -0.000000      0.000000     -0.000000

  FREE ENERGIE OF THE ION-ELECTRON SYSTEM (eV)
  free  energy   TOTEN  =       -36.85846006 eV

  energy  without entropy=      -36.85846005  energy(sigma->0) =      -36.85846005

 d Force = 0.8177002E-07[ 0.273E-10, 0.164E-06]  d Energy = 0.7717722E-07 0.459E-08
 d Force = 0.4214696E-03[ 0.421E-03, 0.422E-03]  d Ewald  = 0.4214696E-03 0.637E-11

 Quasi-Newton relaxation of ions (Broydens 2nd method)
  g(Force)  = 0.228E-13   g(Stress)= 0.000E+00

 retain information from N=  1 steps
 eigenvalues of (default step * inverse Hessian matrix)
  average eigenvalue of G=   0.2002
 eigenvalue spectrum of G is  0.2002

 reached required accuracy - stopping structural energy minimisation