 vasp.5.3.5 31Mar14 (build Mar 02 2015 18:14:16) complex

 executed on             LinuxIFC date 2018.08.09  20:11:00

 INCAR:
 POTCAR:   PAW_PBE C 08Apr2002
 POTCAR:   PAW_PBE C 08Apr2002
   VRHFIN =C: s2p2

   TITEL  = PAW_PBE C 08Apr2002
   POMASS =   12.011; ZVAL   =    4.000    mass and valenz
   ENMAX  =  400.000; ENMIN  =  300.000 eV
   QCUT   =   -5.516; QGAM   =   11.032    optimization parameters

   Description
     l     E      TYP  RCUT    TYP  RCUT
     0   .000     23  1.200
     0   .000     23  1.200
     1   .000     23  1.500
     1  2.500     23  1.500
     2   .000      7  1.500

 PAW_PBE C 08Apr2002                    :

 POSCAR: MD-kMC export data
  positions in direct lattice
  velocities in cartesian coordinates
 exchange correlation table for  LEXCH =        8
   RHO(1)=    0.500       N(1)  =     2000
   RHO(2)=  100.500       N(2)  =     4000

 ion  position               nearest neighbor table
   1  0.000  0.000  0.000-   4 1.42   2 1.44   2 1.44
   2  0.166  0.500  0.000-   3 1.42   1 1.44   1 1.44
   3  0.500  0.500  0.000-   2 1.42   4 1.44   4 1.44
   4  0.666  0.000  0.000-   1 1.42   3 1.44   3 1.44

  LATTYP: Found a simple orthorhombic cell.
 ALAT       =     2.5050508311
 B/A-ratio  =     1.7012914945
 C/A-ratio  =     7.8835227583

  Lattice vectors:

 A1 = (   0.0000000000,  -2.5050508311,   0.0000000000)
 A2 = (  -4.2618216724,   0.0000000000,   0.0000000000)
 A3 = (   0.0000000000,   0.0000000000, -19.7486252381)

Analysis of symmetry for initial positions (statically):
 Subroutine PRICEL returns following result:

  LATTYP: Found a base centered orthorhombic cell.
 ALAT       =     2.5050508311
 B/A-ratio  =     1.7012914945
 C/A-ratio  =     7.8835227583

[...]

   2 primitive cells build up your supercell.

 Routine SETGRP: Setting up the symmetry group for a
 simple orthorhombic supercell.

 Subroutine GETGRP returns: Found  8 space group operations
 (whereof  4 operations were pure point group operations)
 out of a pool of  8 trial point group operations.

The static configuration has the point symmetry C_2v.
 The point group associated with its full space group is D_2h.

Analysis of symmetry for dynamics (positions and initial velocities):
 Subroutine PRICEL returns following result:

  LATTYP: Found a base centered orthorhombic cell.
 ALAT       =     2.5050508311
 B/A-ratio  =     1.7012914945
 C/A-ratio  =     7.8835227583

  Lattice vectors:

 A1 = (   2.1309108362,  -1.2525254156,   0.0000000000)
 A2 = (  -2.1309108362,  -1.2525254156,   0.0000000000)
 A3 = (   0.0000000000,   0.0000000000, -19.7486252381)

   2 primitive cells build up your supercell.

 Routine SETGRP: Setting up the symmetry group for a
 simple orthorhombic supercell.

 Subroutine GETGRP returns: Found  8 space group operations
 (whereof  4 operations were pure point group operations)
 out of a pool of  8 trial point group operations.

The dynamic configuration has the point symmetry C_2v.
 The point group associated with its full space group is D_2h.

 KPOINTS: Automatic mesh

Automatic generation of k-mesh.
Space group operators:
 irot       det(A)        alpha          n_x          n_y          n_z        tau_x        tau_y        tau_z
    1     1.000000     0.000001     1.000000     0.000000     0.000000     0.000000     0.000000     0.000000
    2    -1.000000   180.000000     0.000000     0.000000     1.000000     0.000000     0.000000     0.000000
    3     1.000000   180.000000     1.000000     0.000000     0.000000     0.000000     0.000000     0.000000
    4    -1.000000   179.999999     0.000000     1.000000     0.000000     0.000000     0.000000     0.000000
    5    -1.000000     0.000001     1.000000     0.000000     0.000000     0.166667    -0.500000     0.000000
    6     1.000000   180.000000     0.000000     0.000000     1.000000     0.166667    -0.500000     0.000000
    7    -1.000000   180.000000     1.000000     0.000000     0.000000     0.166667    -0.500000     0.000000
    8     1.000000   179.999999     0.000000     1.000000     0.000000     0.166667    -0.500000     0.000000

 Subroutine IBZKPT returns following result:

 Found    247 irreducible k-points:

 Following reciprocal coordinates:
            Coordinates               Weight
  0.000000  0.000000  0.000000      1.000000
  0.041667  0.000000  0.000000      2.000000
  0.083333  0.000000  0.000000      2.000000
  0.125000  0.000000  0.000000      2.000000
  0.166667  0.000000  0.000000      2.000000
  0.208333  0.000000  0.000000      2.000000
  0.250000  0.000000  0.000000      2.000000
  0.291667  0.000000  0.000000      2.000000
  0.333333  0.000000  0.000000      2.000000
  0.375000  0.000000  0.000000      2.000000
  0.416667  0.000000  0.000000      2.000000
  0.458333  0.000000  0.000000      2.000000
  0.500000  0.000000  0.000000      1.000000
  0.000000  0.027778  0.000000      2.000000
  0.041667  0.027778  0.000000      4.000000
  0.083333  0.027778  0.000000      4.000000
  0.125000  0.027778  0.000000      4.000000
  0.166667  0.027778  0.000000      4.000000
  0.208333  0.027778  0.000000      4.000000
  0.250000  0.027778  0.000000      4.000000
  0.291667  0.027778  0.000000      4.000000
  0.333333  0.027778  0.000000      4.000000
  0.375000  0.027778  0.000000      4.000000
  0.416667  0.027778  0.000000      4.000000
  0.458333  0.027778  0.000000      4.000000
  0.500000  0.027778  0.000000      2.000000
  0.000000  0.055556  0.000000      2.000000
  0.041667  0.055556  0.000000      4.000000
  0.083333  0.055556  0.000000      4.000000
  0.125000  0.055556  0.000000      4.000000
  0.166667  0.055556  0.000000      4.000000
  0.208333  0.055556  0.000000      4.000000
  0.250000  0.055556  0.000000      4.000000
  0.291667  0.055556  0.000000      4.000000
  0.333333  0.055556  0.000000      4.000000
  0.375000  0.055556  0.000000      4.000000
  0.416667  0.055556  0.000000      4.000000
  0.458333  0.055556  0.000000      4.000000
  0.500000  0.055556  0.000000      2.000000
  0.000000  0.083333  0.000000      2.000000
  0.041667  0.083333  0.000000      4.000000
  0.083333  0.083333  0.000000      4.000000
  0.125000  0.083333  0.000000      4.000000
  0.166667  0.083333  0.000000      4.000000
  0.208333  0.083333  0.000000      4.000000
  0.250000  0.083333  0.000000      4.000000
  0.291667  0.083333  0.000000      4.000000
  0.333333  0.083333  0.000000      4.000000
  0.375000  0.083333  0.000000      4.000000
  0.416667  0.083333  0.000000      4.000000
  0.458333  0.083333  0.000000      4.000000
  0.500000  0.083333  0.000000      2.000000
  0.000000  0.111111  0.000000      2.000000
  0.041667  0.111111  0.000000      4.000000
  0.083333  0.111111  0.000000      4.000000
  0.125000  0.111111  0.000000      4.000000
  0.166667  0.111111  0.000000      4.000000
  0.208333  0.111111  0.000000      4.000000
  0.250000  0.111111  0.000000      4.000000
  0.291667  0.111111  0.000000      4.000000
[...]
  0.458333  0.472222  0.000000      4.000000
  0.500000  0.472222  0.000000      2.000000
  0.000000  0.500000  0.000000      1.000000
  0.041667  0.500000  0.000000      2.000000
  0.083333  0.500000  0.000000      2.000000
  0.125000  0.500000  0.000000      2.000000
  0.166667  0.500000  0.000000      2.000000
  0.208333  0.500000  0.000000      2.000000
  0.250000  0.500000  0.000000      2.000000
  0.291667  0.500000  0.000000      2.000000
  0.333333  0.500000  0.000000      2.000000
  0.375000  0.500000  0.000000      2.000000
  0.416667  0.500000  0.000000      2.000000
  0.458333  0.500000  0.000000      2.000000
  0.500000  0.500000  0.000000      1.000000

 Following cartesian coordinates:
            Coordinates               Weight
  0.000000  0.000000  0.000000      1.000000
  0.009777  0.000000  0.000000      2.000000
  0.019553  0.000000  0.000000      2.000000
  0.029330  0.000000  0.000000      2.000000
  0.039107  0.000000  0.000000      2.000000
  0.048884  0.000000  0.000000      2.000000
  0.058660  0.000000  0.000000      2.000000
  0.068437  0.000000  0.000000      2.000000
  0.078214  0.000000  0.000000      2.000000
  0.087991  0.000000  0.000000      2.000000
  0.097767  0.000000  0.000000      2.000000
  0.107544  0.000000  0.000000      2.000000
  0.117321  0.000000  0.000000      1.000000
  0.000000  0.011089  0.000000      2.000000
  0.009777  0.011089  0.000000      4.000000
  0.019553  0.011089  0.000000      4.000000
  0.029330  0.011089  0.000000      4.000000
  0.039107  0.011089  0.000000      4.000000
  0.048884  0.011089  0.000000      4.000000
  0.058660  0.011089  0.000000      4.000000
  0.068437  0.011089  0.000000      4.000000
  0.078214  0.011089  0.000000      4.000000
  0.087991  0.011089  0.000000      4.000000
  0.097767  0.011089  0.000000      4.000000
  0.107544  0.011089  0.000000      4.000000
  0.117321  0.011089  0.000000      2.000000
  0.000000  0.022177  0.000000      2.000000
  0.009777  0.022177  0.000000      4.000000
  0.019553  0.022177  0.000000      4.000000
  0.029330  0.022177  0.000000      4.000000
  0.039107  0.022177  0.000000      4.000000
  0.048884  0.022177  0.000000      4.000000
  0.058660  0.022177  0.000000      4.000000
  0.068437  0.022177  0.000000      4.000000
  0.078214  0.022177  0.000000      4.000000
  0.087991  0.022177  0.000000      4.000000
  0.097767  0.022177  0.000000      4.000000
  0.107544  0.022177  0.000000      4.000000
  0.117321  0.022177  0.000000      2.000000
  0.000000  0.033266  0.000000      2.000000
  0.009777  0.033266  0.000000      4.000000
  0.019553  0.033266  0.000000      4.000000
  0.029330  0.033266  0.000000      4.000000
  0.039107  0.033266  0.000000      4.000000
  0.048884  0.033266  0.000000      4.000000
  0.058660  0.033266  0.000000      4.000000
  0.068437  0.033266  0.000000      4.000000
  0.078214  0.033266  0.000000      4.000000
  0.087991  0.033266  0.000000      4.000000
  0.097767  0.033266  0.000000      4.000000
  0.107544  0.033266  0.000000      4.000000
  0.117321  0.033266  0.000000      2.000000
  0.000000  0.044355  0.000000      2.000000
  0.009777  0.044355  0.000000      4.000000
  0.019553  0.044355  0.000000      4.000000
  0.029330  0.044355  0.000000      4.000000
  0.039107  0.044355  0.000000      4.000000
  0.048884  0.044355  0.000000      4.000000
  0.058660  0.044355  0.000000      4.000000
  0.068437  0.044355  0.000000      4.000000
[...]
  0.107544  0.188508  0.000000      4.000000
  0.117321  0.188508  0.000000      2.000000
  0.000000  0.199597  0.000000      1.000000
  0.009777  0.199597  0.000000      2.000000
  0.019553  0.199597  0.000000      2.000000
  0.029330  0.199597  0.000000      2.000000
  0.039107  0.199597  0.000000      2.000000
  0.048884  0.199597  0.000000      2.000000
  0.058660  0.199597  0.000000      2.000000
  0.068437  0.199597  0.000000      2.000000
  0.078214  0.199597  0.000000      2.000000
  0.087991  0.199597  0.000000      2.000000
  0.097767  0.199597  0.000000      2.000000
  0.107544  0.199597  0.000000      2.000000
  0.117321  0.199597  0.000000      1.000000

 I would recommend the setting:
   dimension x,y,z NGX =    62 NGY =   37 NGZ =  288
[...]
 k-point ** :   0.2500 0.2500 0.0000  plane waves:   42806
 k-point ** :   0.2917 0.2500 0.0000  plane waves:   42799
 k-point ** :   0.3333 0.2500 0.0000  plane waves:   42802
 k-point ** :   0.3750 0.2500 0.0000  plane waves:   42793
 k-point ** :   0.4167 0.2500 0.0000  plane waves:   42764
 k-point ** :   0.4583 0.2500 0.0000  plane waves:   42757
 k-point ** :   0.5000 0.2500 0.0000  plane waves:   42726
 k-point ** :   0.0000 0.2778 0.0000  plane waves:   42924
 k-point ** :   0.0417 0.2778 0.0000  plane waves:   42890
 k-point ** :   0.0833 0.2778 0.0000  plane waves:   42909
 k-point ** :   0.1250 0.2778 0.0000  plane waves:   42892
 k-point ** :   0.1667 0.2778 0.0000  plane waves:   42869
 k-point ** :   0.2083 0.2778 0.0000  plane waves:   42844
 k-point ** :   0.2500 0.2778 0.0000  plane waves:   42846
 k-point ** :   0.2917 0.2778 0.0000  plane waves:   42805
 k-point ** :   0.3333 0.2778 0.0000  plane waves:   42792
 k-point ** :   0.3750 0.2778 0.0000  plane waves:   42772
 k-point ** :   0.4167 0.2778 0.0000  plane waves:   42773
 k-point ** :   0.4583 0.2778 0.0000  plane waves:   42758
 k-point ** :   0.5000 0.2778 0.0000  plane waves:   42738
 k-point ** :   0.0000 0.3056 0.0000  plane waves:   42900
 k-point ** :   0.0417 0.3056 0.0000  plane waves:   42893
 k-point ** :   0.0833 0.3056 0.0000  plane waves:   42905
 k-point ** :   0.1250 0.3056 0.0000  plane waves:   42893
 k-point ** :   0.1667 0.3056 0.0000  plane waves:   42877
 k-point ** :   0.2083 0.3056 0.0000  plane waves:   42851
 k-point ** :   0.2500 0.3056 0.0000  plane waves:   42832
 k-point ** :   0.2917 0.3056 0.0000  plane waves:   42805
 k-point ** :   0.3333 0.3056 0.0000  plane waves:   42786
 k-point ** :   0.3750 0.3056 0.0000  plane waves:   42781
 k-point ** :   0.4167 0.3056 0.0000  plane waves:   42781
 k-point ** :   0.4583 0.3056 0.0000  plane waves:   42754
 k-point ** :   0.5000 0.3056 0.0000  plane waves:   42750
 k-point ** :   0.0000 0.3333 0.0000  plane waves:   42908
 k-point ** :   0.0417 0.3333 0.0000  plane waves:   42885
 k-point ** :   0.0833 0.3333 0.0000  plane waves:   42895
[...]
 k-point ** :   0.4583 0.4722 0.0000  plane waves:   42837
 k-point ** :   0.5000 0.4722 0.0000  plane waves:   42818
 k-point ** :   0.0000 0.5000 0.0000  plane waves:   42854
 k-point ** :   0.0417 0.5000 0.0000  plane waves:   42850
 k-point ** :   0.0833 0.5000 0.0000  plane waves:   42874
 k-point ** :   0.1250 0.5000 0.0000  plane waves:   42870
 k-point ** :   0.1667 0.5000 0.0000  plane waves:   42904
 k-point ** :   0.2083 0.5000 0.0000  plane waves:   42876
 k-point ** :   0.2500 0.5000 0.0000  plane waves:   42888
 k-point ** :   0.2917 0.5000 0.0000  plane waves:   42884
 k-point ** :   0.3333 0.5000 0.0000  plane waves:   42904
 k-point ** :   0.3750 0.5000 0.0000  plane waves:   42878
 k-point ** :   0.4167 0.5000 0.0000  plane waves:   42864
 k-point ** :   0.4583 0.5000 0.0000  plane waves:   42872
 k-point ** :   0.5000 0.5000 0.0000  plane waves:   42776

 maximum and minimum number of plane-waves per node :     21480    21351

 maximum number of plane-waves:     42925
 maximum index in each direction:
   IXMAX=   15   IYMAX=    9   IZMAX=   72
   IXMIN=  -16   IYMIN=   -9   IZMIN=  -72

 NGX is ok and might be reduce to  64
 NGY is ok and might be reduce to  38
 WARNING: aliasing errors must be expected set NGZ to 290 to avoid them
 aliasing errors are usually negligible using standard VASP settings
 and one can safely disregard these warnings

 parallel 3D FFT for wavefunctions:
    minimum data exchange during FFTs selected (reduces bandwidth)
 parallel 3D FFT for charge:
    minimum data exchange during FFTs selected (reduces bandwidth)

 Broyden mixing: mesh for mixing (old mesh)
   NGX = 31   NGY = 19   NGZ =145
  (NGX  =128   NGY  = 80   NGZ  =576)
  gives a total of  85405 points

 initial charge density was supplied:
 charge density of overlapping atoms calculated
 number of electron      16.0000000 magnetization
 keeping initial charge density in first step

 Maximum index for augmentation-charges         5073 (set IRDMAX)

 First call to EWALD:  gamma=   0.298
 Maximum number of real-space cells 4x 6x 1
 Maximum number of reciprocal cells 2x 1x 8

 FEWALD executed in parallel

----------------------------------------- Iteration    1(   1)  ---------------------------------------

 eigenvalue-minimisations  :  5928
 total energy-change (2. order) : 0.1883675E+03  (-0.1059273E+04)
 number of electron      16.0000000 magnetization
 augmentation part       16.0000000 magnetization

 Free energy of the ion-electron system (eV)
  alpha Z        PSCENC =         6.18334092
  Ewald energy   TEWEN  =      2502.16746940
  -Hartree energ DENC   =     -2930.08264511
  -exchange      EXHF   =         0.00000000
  -V(xc)+E(xc)   XCENC  =        54.92573534
  PAW double counting   =       151.32577238     -155.92769107
  entropy T*S    EENTRO =        -0.00101145
  eigenvalues    EBANDS =       -28.84702177
  atomic energy  EATOM  =       588.62352690
  free energy    TOTEN  =       188.36747555 eV

  energy without entropy =      188.36848700  energy(sigma->0) =      188.36798128

[...]

 eigenvalue-minimisations  : 10452
 total energy-change (2. order) :-0.1979174E+03  (-0.1768581E+03)
 number of electron      16.0000000 magnetization
 augmentation part       16.0000000 magnetization

[...]

 Broyden mixing:
  rms(total) = 0.72041E+00    rms(broyden)= 0.72041E+00
  rms(prec ) = 0.78435E+00
  weight for this iteration     100.00

[...]

 eigenvalues of (default mixing * dielectric matrix)
  average eigenvalue GAMMA=   2.3082
  2.3082

[...]

 average (electrostatic) potential at core
  the test charge radii are     0.6991
  (the norm of the test charge is              1.0000)
       1 -58.2659       2 -58.2659       3 -58.2659       4 -58.2659

 E-fermi :  -2.7974     XC(G=0):  -2.1666     alpha+bet : -1.9046

 k-point     1 :       0.0000    0.0000    0.0000
  band No.  band energies     occupation
      1     -22.1481      2.00000
      2     -16.8256      2.00000
      3     -15.9057      2.00000
      4     -10.2774      2.00000
      5      -9.3588      2.00000
      6      -5.9180      2.00000
      7      -5.7548      2.00000
      8      -4.9833      2.00000
      9      -1.1139      0.00000
     10       0.5364      0.00000
     11       1.3350      0.00000
     12       3.8796      0.00000

[...]

 soft charge-density along one line, spin component           1
         0         1         2         3         4         5         6         7         8         9
 total charge-density along one line

------------------------ aborting loop because EDIFF is reached ----------------------------------------

  FORCE on cell =-STRESS in cart. coord.  units (eV):
  Direction    XX          YY          ZZ          XY          YZ          ZX
  Alpha Z     6.18334     6.18334     6.18334
  Ewald    3037.26588  3035.32468 -3570.42333    -0.00000     0.00000    -0.00000
  Hartree  2973.70118  2973.06798 -2950.44616     0.00000    -0.00000    -0.00000
  E(xc)     -58.12424   -58.10589   -60.44328    -0.00000    -0.00000    -0.00000
  Local   -6183.74649 -6181.52959  6315.26761    -0.00000     0.00000    -0.00000
  n-local   -13.87491   -13.36862   -12.59221     0.07629     0.00000    -0.00000
  augment    -1.50440    -1.50224    -1.38824    -0.00000     0.00000     0.00000
  Kinetic   240.10201   236.58716   273.84091    -4.62763    -0.00000     0.00000
  Fock        0.00000     0.00000     0.00000     0.00000     0.00000     0.00000
  Total       0.00238    -3.34318    -0.00137     0.00000     0.00000     0.00000
  in kB       0.01805   -25.40518    -0.01039     0.00000     0.00000     0.00000

 VOLUME and BASIS-vectors are now :
  energy-cutoff  :     2000.00
  volume of cell :      210.84
      direct lattice vectors                 reciprocal lattice vectors
     4.261821672  0.000000000  0.000000000     0.234641446  0.000000000  0.000000000
     0.000000000  2.505050831  0.000000000     0.000000000  0.399193496  0.000000000
     0.000000000  0.000000000 19.748625238     0.000000000  0.000000000  0.050636436

[...]

 FORCES acting on ions
    electron-ion (+dipol)            ewald-force                    non-local-force                 convergence-correction
   -.330E+01 -.271E-15 0.664E-09   0.330E+01 -.251E-14 -.557E-18   0.151E-02 -.694E-17 0.000E+00   0.103E-05 -.245E-14 -.816E-13
   0.330E+01 0.194E-12 -.327E-08   -.330E+01 0.167E-14 -.243E-33   -.151E-02 0.347E-17 0.000E+00   -.103E-05 0.667E-16 -.817E-13
   -.330E+01 -.150E-12 0.664E-09   0.330E+01 -.109E-14 0.557E-18   0.151E-02 -.139E-16 -.271E-24   0.103E-05 -.182E-14 -.814E-13
   0.330E+01 -.102E-14 -.324E-08   -.330E+01 0.309E-14 0.289E-33   -.151E-02 0.173E-16 0.207E-24   -.103E-05 -.580E-15 -.816E-13
   -.213E-06 0.423E-13 -.518E-08   -.133E-14 0.116E-14 0.000E+00   0.000E+00 0.000E+00 -.646E-25   0.377E-12 -.479E-14 -.326E-12

 POSITION                                       TOTAL-FORCE (eV/Angst)
      0.00168      0.00000      0.00000         0.002952     -0.000000     -0.000000
      0.70863      1.25253      0.00000        -0.002952      0.000000      0.000000
      2.13259      1.25253      0.00000         0.002952      0.000000     -0.000000
      2.83954      0.00000      0.00000        -0.002952     -0.000000      0.000000
    total drift:                               -0.000000      0.000000     -0.000000

  FREE ENERGIE OF THE ION-ELECTRON SYSTEM (eV)
  free  energy   TOTEN  =       -36.89998332 eV

  energy  without entropy=      -36.89997936  energy(sigma->0) =      -36.89998134

 Quasi-Newton relaxation of ions (Broydens 2nd method)
  g(Force)  = 0.168E-05   g(Stress)= 0.000E+00

 Reset! Starting new Quasi-Newton update for ions

[...]

 d Force =-0.2581925E-05[-0.685E-05, 0.168E-05]  d Energy =-0.2604256E-05 0.223E-07
 d Force = 0.1863897E-02[ 0.185E-02, 0.188E-02]  d Ewald  = 0.1863895E-02 0.227E-08

[...]

 retain information from N=  1 steps
 eigenvalues of (default step * inverse Hessian matrix)
  average eigenvalue of G=   0.1972
 eigenvalue spectrum of G is  0.1972

[...]

 d Force = 0.2748259E-05[ 0.950E-09, 0.550E-05]  d Energy = 0.2766490E-05-0.182E-07
 d Force =-0.1494039E-02[-0.150E-02,-0.148E-02]  d Ewald  =-0.1494037E-02-0.118E-08

[...]

 FEWALD executed in parallel

[...]

 eigenvalue-minimisations  :  4672
 total energy-change (2. order) : 0.1556373E-09  ( 0.6122538E-09)
 number of electron      16.0000000 magnetization
 augmentation part        0.3761718 magnetization

[...]

 eigenvalue-minimisations  :  1543
 total energy-change (2. order) :-0.4862386E-09  ( 0.6786547E-13)
 number of electron      16.0000000 magnetization
 augmentation part        0.3761718 magnetization

[...]

 eigenvalue-minimisations  :  1500
 total energy-change (2. order) :-0.5945822E-10  (-0.2620949E-13)
 number of electron      16.0000000 magnetization
 augmentation part        0.3761718 magnetization

[...]

 Broyden mixing:
  rms(total) = 0.10668E-08    rms(broyden)= 0.10668E-08
  rms(prec ) = 0.22115E-08
  weight for this iteration     100.00

 eigenvalues of (default mixing * dielectric matrix)
  average eigenvalue GAMMA=   1.9507
  1.4189  2.6168  1.8162

[...]

----------------------------------------- Iteration    4(   5)  ---------------------------------------

 eigenvalue-minimisations  :  1467
 total energy-change (2. order) : 0.6775736E-10  (-0.2500058E-13)
 number of electron      16.0000000 magnetization
 augmentation part        0.3761718 magnetization

 Free energy of the ion-electron system (eV)
  alpha Z        PSCENC =         6.18334092
  Ewald energy   TEWEN  =      2502.16709980
  -Hartree energ DENC   =     -2996.32269722
  -exchange      EXHF   =         0.00000000
  -V(xc)+E(xc)   XCENC  =        57.28919531
  PAW double counting   =       271.98462715     -277.11037017
  entropy T*S    EENTRO =        -0.00000407
  eigenvalues    EBANDS =      -189.71470210
  atomic energy  EATOM  =       588.62352690
  free energy    TOTEN  =       -36.89998349 eV

  energy without entropy =      -36.89997941  energy(sigma->0) =      -36.89998145

 average (electrostatic) potential at core
  the test charge radii are     0.6991
  (the norm of the test charge is              1.0000)
       1 -58.2659       2 -58.2659       3 -58.2659       4 -58.2659

 E-fermi :  -2.7974     XC(G=0):  -2.1637     alpha+bet : -1.9046

[...]

 k-point   247 :       0.5000    0.5000    0.0000
  band No.  band energies     occupation
      1     -17.0845      2.00000
      2     -17.0845      2.00000
      3     -15.8941      2.00000
      4     -15.8941      2.00000
      5      -9.0417      2.00000
      6      -9.0417      2.00000
      7      -5.1835      2.00000
      8      -5.1835      2.00000
      9      -1.1367      0.00000
     10      -1.1367      0.00000
     11       4.5994      0.00000
     12       4.5994      0.00000

 soft charge-density along one line, spin component           1
         0         1         2         3         4         5         6         7         8         9
 total charge-density along one line

------------------------ aborting loop because EDIFF is reached ----------------------------------------

  FORCE on cell =-STRESS in cart. coord.  units (eV):
  Direction    XX          YY          ZZ          XY          YZ          ZX
  Alpha Z     6.18334     6.18334     6.18334
  Ewald    3037.24149  3035.34870 -3570.42333     0.00000     0.00000     0.00000
  Hartree  2973.69776  2973.07113 -2950.44619    -0.00000    -0.00000    -0.00000
  E(xc)     -58.12431   -58.10578   -60.44326    -0.00000     0.00000    -0.00000
  Local   -6183.72345 -6181.55220  6315.26774    -0.00000     0.00000     0.00000
  n-local   -13.87511   -13.36841   -12.59221     0.07633    -0.00000     0.00000
  augment    -1.50436    -1.50228    -1.38824     0.00000    -0.00000    -0.00000
  Kinetic   240.10557   236.58339   273.84080    -4.62776     0.00000    -0.00000
  Fock        0.00000     0.00000     0.00000     0.00000     0.00000     0.00000
  Total       0.00093    -3.34211    -0.00136     0.00000     0.00000     0.00000
  in kB       0.00708   -25.39704    -0.01031     0.00000     0.00000     0.00000

 VOLUME and BASIS-vectors are now :
  energy-cutoff  :     2000.00
  volume of cell :      210.84
      direct lattice vectors                 reciprocal lattice vectors
     4.261821672  0.000000000  0.000000000     0.234641446  0.000000000  0.000000000
     0.000000000  2.505050831  0.000000000     0.000000000  0.399193496  0.000000000
     0.000000000  0.000000000 19.748625238     0.000000000  0.000000000  0.050636436

  length of vectors
     4.261821672  2.505050831 19.748625238     0.234641446  0.399193496  0.050636436

 FORCES acting on ions
    electron-ion (+dipol)            ewald-force                    non-local-force                 convergence-correction
   -.329E+01 -.752E-15 0.670E-09   0.329E+01 0.875E-14 -.644E-19   0.469E-03 0.000E+00 0.969E-26   -.959E-08 -.140E-14 -.403E-12
   0.329E+01 -.185E-12 -.323E-08   -.329E+01 -.390E-14 0.187E-18   -.469E-03 -.347E-17 -.727E-26   0.959E-08 -.183E-14 -.401E-12
   -.329E+01 -.291E-12 0.670E-09   0.329E+01 0.448E-14 0.485E-18   0.469E-03 0.000E+00 0.000E+00   -.959E-08 -.302E-14 -.400E-12
   0.329E+01 -.574E-15 -.324E-08   -.329E+01 -.817E-14 -.607E-18   -.469E-03 -.347E-17 0.000E+00   0.959E-08 -.332E-15 -.403E-12
   -.212E-06 -.477E-12 -.513E-08   -.133E-14 0.116E-14 0.000E+00   -.542E-19 -.694E-17 0.242E-26   -.314E-14 -.657E-14 -.161E-11

 POSITION                                       TOTAL-FORCE (eV/Angst)
      0.00171      0.00000     -0.00000         0.000001     -0.000000     -0.000000
      0.70860      1.25253      0.00000        -0.000001     -0.000000      0.000000
      2.13262      1.25253     -0.00000         0.000001     -0.000000     -0.000000
      2.83951     -0.00000      0.00000        -0.000001      0.000000      0.000000
    total drift:                               -0.000000     -0.000000     -0.000000

  FREE ENERGIE OF THE ION-ELECTRON SYSTEM (eV)
  free  energy   TOTEN  =       -36.89998349 eV

  energy  without entropy=      -36.89997941  energy(sigma->0) =      -36.89998145

 d Force = 0.6045887E-13[-0.434E-13, 0.164E-12]  d Energy = 0.2033858E-09-0.203E-09
 d Force =-0.2599791E-06[-0.260E-06,-0.260E-06]  d Ewald  =-0.2599791E-06 0.000E+00

 Quasi-Newton relaxation of ions (Broydens 2nd method)
  g(Force)  = 0.582E-13   g(Stress)= 0.000E+00

 retain information from N=  1 steps
 eigenvalues of (default step * inverse Hessian matrix)
  average eigenvalue of G=   0.1560
 eigenvalue spectrum of G is  0.1560

 reached required accuracy - stopping structural energy minimisation