 vasp.5.3.5 31Mar14 (build Mar 02 2015 18:14:16) complex

 executed on             LinuxIFC date 2018.08.08  18:31:36

 INCAR:
 POTCAR:   PAW_PBE C 08Apr2002
 POTCAR:   PAW_PBE C 08Apr2002
   VRHFIN =C: s2p2

   TITEL  = PAW_PBE C 08Apr2002
   POMASS =   12.011; ZVAL   =    4.000    mass and valenz
   ENMAX  =  400.000; ENMIN  =  300.000 eV
   QCUT   =   -5.516; QGAM   =   11.032    optimization parameters

   Description
     l     E      TYP  RCUT    TYP  RCUT
     0   .000     23  1.200
     0   .000     23  1.200
     1   .000     23  1.500
     1  2.500     23  1.500
     2   .000      7  1.500

 PAW_PBE C 08Apr2002                    :

 POSCAR: MD-kMC export data
  positions in direct lattice
  velocities in cartesian coordinates
 exchange correlation table for  LEXCH =        8
   RHO(1)=    0.500       N(1)  =     2000
   RHO(2)=  100.500       N(2)  =     4000

 ion  position               nearest neighbor table
   1  1.000  0.000  0.000-   2 1.43   2 1.43   4 1.44
   2  0.167  0.500  0.000-   1 1.43   1 1.43   3 1.44
   3  0.500  0.500  0.000-   4 1.43   4 1.43   2 1.44
   4  0.667  0.000  0.000-   3 1.43   3 1.43   1 1.44

  LATTYP: Found a simple orthorhombic cell.
 ALAT       =     2.4607638819
 B/A-ratio  =     1.7630413845
 C/A-ratio  =     8.0255784942

  Lattice vectors:

 A1 = (   0.0000000000,  -2.4607638819,   0.0000000000)
 A2 = (  -4.3384285611,   0.0000000000,   0.0000000000)
 A3 = (   0.0000000000,   0.0000000000, -19.7490536896)

Analysis of symmetry for initial positions (statically):
 Subroutine PRICEL returns following result:

  LATTYP: Found a base centered orthorhombic cell.
 ALAT       =     2.4607638819
 B/A-ratio  =     1.7630413845
 C/A-ratio  =     8.0255784942

[...]

   2 primitive cells build up your supercell.

 Routine SETGRP: Setting up the symmetry group for a
 simple orthorhombic supercell.

 Subroutine GETGRP returns: Found  8 space group operations
 (whereof  4 operations were pure point group operations)
 out of a pool of  8 trial point group operations.

The static configuration has the point symmetry C_2v.
 The point group associated with its full space group is D_2h.

Analysis of symmetry for dynamics (positions and initial velocities):
 Subroutine PRICEL returns following result:

  LATTYP: Found a base centered orthorhombic cell.
 ALAT       =     2.4607638819
 B/A-ratio  =     1.7630413845
 C/A-ratio  =     8.0255784942

  Lattice vectors:

 A1 = (   2.1692142806,  -1.2303819409,   0.0000000000)
 A2 = (  -2.1692142806,  -1.2303819409,   0.0000000000)
 A3 = (   0.0000000000,   0.0000000000, -19.7490536896)

   2 primitive cells build up your supercell.

 Routine SETGRP: Setting up the symmetry group for a
 simple orthorhombic supercell.

 Subroutine GETGRP returns: Found  8 space group operations
 (whereof  4 operations were pure point group operations)
 out of a pool of  8 trial point group operations.

The dynamic configuration has the point symmetry C_2v.
 The point group associated with its full space group is D_2h.

 KPOINTS: Automatic mesh

Automatic generation of k-mesh.
Space group operators:
 irot       det(A)        alpha          n_x          n_y          n_z        tau_x        tau_y        tau_z
    1     1.000000     0.000001     1.000000     0.000000     0.000000     0.000000     0.000000     0.000000
    2    -1.000000   180.000000     0.000000     0.000000     1.000000     0.000000     0.000000     0.000000
    3     1.000000   179.999999     1.000000     0.000000     0.000000     0.000000     0.000000     0.000000
    4    -1.000000   180.000000     0.000000     1.000000     0.000000     0.000000     0.000000     0.000000
    5    -1.000000     0.000001     1.000000     0.000000     0.000000     0.166667    -0.500000     0.000000
    6     1.000000   180.000000     0.000000     0.000000     1.000000     0.166667    -0.500000     0.000000
    7    -1.000000   179.999999     1.000000     0.000000     0.000000     0.166667    -0.500000     0.000000
    8     1.000000   180.000000     0.000000     1.000000     0.000000     0.166667    -0.500000     0.000000

 Subroutine IBZKPT returns following result:

 Found    247 irreducible k-points:

 Following reciprocal coordinates:
            Coordinates               Weight
  0.000000  0.000000  0.000000      1.000000
  0.041667  0.000000  0.000000      2.000000
  0.083333  0.000000  0.000000      2.000000
  0.125000  0.000000  0.000000      2.000000
  0.166667  0.000000  0.000000      2.000000
  0.208333  0.000000  0.000000      2.000000
  0.250000  0.000000  0.000000      2.000000
  0.291667  0.000000  0.000000      2.000000
  0.333333  0.000000  0.000000      2.000000
  0.375000  0.000000  0.000000      2.000000
  0.416667  0.000000  0.000000      2.000000
  0.458333  0.000000  0.000000      2.000000
  0.500000  0.000000  0.000000      1.000000
  0.000000  0.027778  0.000000      2.000000
  0.041667  0.027778  0.000000      4.000000
  0.083333  0.027778  0.000000      4.000000
  0.125000  0.027778  0.000000      4.000000
  0.166667  0.027778  0.000000      4.000000
  0.208333  0.027778  0.000000      4.000000
  0.250000  0.027778  0.000000      4.000000
  0.291667  0.027778  0.000000      4.000000
  0.333333  0.027778  0.000000      4.000000
  0.375000  0.027778  0.000000      4.000000
  0.416667  0.027778  0.000000      4.000000
  0.458333  0.027778  0.000000      4.000000
  0.500000  0.027778  0.000000      2.000000
  0.000000  0.055556  0.000000      2.000000
  0.041667  0.055556  0.000000      4.000000
  0.083333  0.055556  0.000000      4.000000
  0.125000  0.055556  0.000000      4.000000
  0.166667  0.055556  0.000000      4.000000
  0.208333  0.055556  0.000000      4.000000
  0.250000  0.055556  0.000000      4.000000
  0.291667  0.055556  0.000000      4.000000
  0.333333  0.055556  0.000000      4.000000
  0.375000  0.055556  0.000000      4.000000
  0.416667  0.055556  0.000000      4.000000
  0.458333  0.055556  0.000000      4.000000
  0.500000  0.055556  0.000000      2.000000
  0.000000  0.083333  0.000000      2.000000
  0.041667  0.083333  0.000000      4.000000
  0.083333  0.083333  0.000000      4.000000
  0.125000  0.083333  0.000000      4.000000
  0.166667  0.083333  0.000000      4.000000
  0.208333  0.083333  0.000000      4.000000
  0.250000  0.083333  0.000000      4.000000
  0.291667  0.083333  0.000000      4.000000
  0.333333  0.083333  0.000000      4.000000
  0.375000  0.083333  0.000000      4.000000
  0.416667  0.083333  0.000000      4.000000
  0.458333  0.083333  0.000000      4.000000
  0.500000  0.083333  0.000000      2.000000
  0.000000  0.111111  0.000000      2.000000
  0.041667  0.111111  0.000000      4.000000
  0.083333  0.111111  0.000000      4.000000
  0.125000  0.111111  0.000000      4.000000
  0.166667  0.111111  0.000000      4.000000
  0.208333  0.111111  0.000000      4.000000
  0.250000  0.111111  0.000000      4.000000
  0.291667  0.111111  0.000000      4.000000
[...]
  0.458333  0.472222  0.000000      4.000000
  0.500000  0.472222  0.000000      2.000000
  0.000000  0.500000  0.000000      1.000000
  0.041667  0.500000  0.000000      2.000000
  0.083333  0.500000  0.000000      2.000000
  0.125000  0.500000  0.000000      2.000000
  0.166667  0.500000  0.000000      2.000000
  0.208333  0.500000  0.000000      2.000000
  0.250000  0.500000  0.000000      2.000000
  0.291667  0.500000  0.000000      2.000000
  0.333333  0.500000  0.000000      2.000000
  0.375000  0.500000  0.000000      2.000000
  0.416667  0.500000  0.000000      2.000000
  0.458333  0.500000  0.000000      2.000000
  0.500000  0.500000  0.000000      1.000000

 Following cartesian coordinates:
            Coordinates               Weight
  0.000000  0.000000  0.000000      1.000000
  0.009604  0.000000  0.000000      2.000000
  0.019208  0.000000  0.000000      2.000000
  0.028812  0.000000  0.000000      2.000000
  0.038416  0.000000  0.000000      2.000000
  0.048020  0.000000  0.000000      2.000000
  0.057625  0.000000  0.000000      2.000000
  0.067229  0.000000  0.000000      2.000000
  0.076833  0.000000  0.000000      2.000000
  0.086437  0.000000  0.000000      2.000000
  0.096041  0.000000  0.000000      2.000000
  0.105645  0.000000  0.000000      2.000000
  0.115249  0.000000  0.000000      1.000000
  0.000000  0.011288  0.000000      2.000000
  0.009604  0.011288  0.000000      4.000000
  0.019208  0.011288  0.000000      4.000000
  0.028812  0.011288  0.000000      4.000000
  0.038416  0.011288  0.000000      4.000000
  0.048020  0.011288  0.000000      4.000000
  0.057625  0.011288  0.000000      4.000000
  0.067229  0.011288  0.000000      4.000000
  0.076833  0.011288  0.000000      4.000000
  0.086437  0.011288  0.000000      4.000000
  0.096041  0.011288  0.000000      4.000000
  0.105645  0.011288  0.000000      4.000000
  0.115249  0.011288  0.000000      2.000000
  0.000000  0.022577  0.000000      2.000000
  0.009604  0.022577  0.000000      4.000000
  0.019208  0.022577  0.000000      4.000000
  0.028812  0.022577  0.000000      4.000000
  0.038416  0.022577  0.000000      4.000000
  0.048020  0.022577  0.000000      4.000000
  0.057625  0.022577  0.000000      4.000000
  0.067229  0.022577  0.000000      4.000000
  0.076833  0.022577  0.000000      4.000000
  0.086437  0.022577  0.000000      4.000000
  0.096041  0.022577  0.000000      4.000000
  0.105645  0.022577  0.000000      4.000000
  0.115249  0.022577  0.000000      2.000000
  0.000000  0.033865  0.000000      2.000000
  0.009604  0.033865  0.000000      4.000000
  0.019208  0.033865  0.000000      4.000000
  0.028812  0.033865  0.000000      4.000000
  0.038416  0.033865  0.000000      4.000000
  0.048020  0.033865  0.000000      4.000000
  0.057625  0.033865  0.000000      4.000000
  0.067229  0.033865  0.000000      4.000000
  0.076833  0.033865  0.000000      4.000000
  0.086437  0.033865  0.000000      4.000000
  0.096041  0.033865  0.000000      4.000000
  0.105645  0.033865  0.000000      4.000000
  0.115249  0.033865  0.000000      2.000000
  0.000000  0.045153  0.000000      2.000000
  0.009604  0.045153  0.000000      4.000000
  0.019208  0.045153  0.000000      4.000000
  0.028812  0.045153  0.000000      4.000000
  0.038416  0.045153  0.000000      4.000000
  0.048020  0.045153  0.000000      4.000000
  0.057625  0.045153  0.000000      4.000000
  0.067229  0.045153  0.000000      4.000000
[...]
  0.105645  0.191901  0.000000      4.000000
  0.115249  0.191901  0.000000      2.000000
  0.000000  0.203189  0.000000      1.000000
  0.009604  0.203189  0.000000      2.000000
  0.019208  0.203189  0.000000      2.000000
  0.028812  0.203189  0.000000      2.000000
  0.038416  0.203189  0.000000      2.000000
  0.048020  0.203189  0.000000      2.000000
  0.057625  0.203189  0.000000      2.000000
  0.067229  0.203189  0.000000      2.000000
  0.076833  0.203189  0.000000      2.000000
  0.086437  0.203189  0.000000      2.000000
  0.096041  0.203189  0.000000      2.000000
  0.105645  0.203189  0.000000      2.000000
  0.115249  0.203189  0.000000      1.000000

 I would recommend the setting:
   dimension x,y,z NGX =    63 NGY =   36 NGZ =  288
[...]
 k-point ** :   0.3333 0.3056 0.0000  plane waves:   42875
 k-point ** :   0.3750 0.3056 0.0000  plane waves:   42874
 k-point ** :   0.4167 0.3056 0.0000  plane waves:   42848
 k-point ** :   0.4583 0.3056 0.0000  plane waves:   42847
 k-point ** :   0.5000 0.3056 0.0000  plane waves:   42828
 k-point ** :   0.0000 0.3333 0.0000  plane waves:   42880
 k-point ** :   0.0417 0.3333 0.0000  plane waves:   42898
 k-point ** :   0.0833 0.3333 0.0000  plane waves:   42880
[...]
 k-point ** :   0.4583 0.4722 0.0000  plane waves:   42932
 k-point ** :   0.5000 0.4722 0.0000  plane waves:   42942
 k-point ** :   0.0000 0.5000 0.0000  plane waves:   42886
 k-point ** :   0.0417 0.5000 0.0000  plane waves:   42874
 k-point ** :   0.0833 0.5000 0.0000  plane waves:   42856
 k-point ** :   0.1250 0.5000 0.0000  plane waves:   42890
 k-point ** :   0.1667 0.5000 0.0000  plane waves:   42850
 k-point ** :   0.2083 0.5000 0.0000  plane waves:   42826
 k-point ** :   0.2500 0.5000 0.0000  plane waves:   42854
 k-point ** :   0.2917 0.5000 0.0000  plane waves:   42870
 k-point ** :   0.3333 0.5000 0.0000  plane waves:   42926
 k-point ** :   0.3750 0.5000 0.0000  plane waves:   42898
 k-point ** :   0.4167 0.5000 0.0000  plane waves:   42920
 k-point ** :   0.4583 0.5000 0.0000  plane waves:   42930
 k-point ** :   0.5000 0.5000 0.0000  plane waves:   42900

 maximum and minimum number of plane-waves per node :     21484    21313

 maximum number of plane-waves:     42958
 maximum index in each direction:
   IXMAX=   15   IYMAX=    8   IZMAX=   72
   IXMIN=  -16   IYMIN=   -9   IZMIN=  -72

 NGX is ok and might be reduce to  64
 NGY is ok and might be reduce to  36
 WARNING: aliasing errors must be expected set NGZ to 290 to avoid them
 aliasing errors are usually negligible using standard VASP settings
 and one can safely disregard these warnings

 parallel 3D FFT for wavefunctions:
    minimum data exchange during FFTs selected (reduces bandwidth)
 parallel 3D FFT for charge:
    minimum data exchange during FFTs selected (reduces bandwidth)

 Broyden mixing: mesh for mixing (old mesh)
   NGX = 31   NGY = 17   NGZ =145
  (NGX  =128   NGY  = 72   NGZ  =576)
  gives a total of  76415 points

 initial charge density was supplied:
 charge density of overlapping atoms calculated
 number of electron      16.0000000 magnetization
 keeping initial charge density in first step

 Maximum index for augmentation-charges         4557 (set IRDMAX)

 First call to EWALD:  gamma=   0.298
 Maximum number of real-space cells 4x 6x 1
 Maximum number of reciprocal cells 2x 1x 8

 FEWALD executed in parallel

----------------------------------------- Iteration    1(   1)  ---------------------------------------

 eigenvalue-minimisations  :  5928
 total energy-change (2. order) : 0.1872000E+03  (-0.1061708E+04)
 number of electron      16.0000000 magnetization
 augmentation part       16.0000000 magnetization

 Free energy of the ion-electron system (eV)
  alpha Z        PSCENC =         6.18334092
  Ewald energy   TEWEN  =      2502.31206971
  -Hartree energ DENC   =     -2930.22229336
  -exchange      EXHF   =         0.00000000
  -V(xc)+E(xc)   XCENC  =        54.92606244
  PAW double counting   =       151.32577238     -155.92769107
  entropy T*S    EENTRO =        -0.00180650
  eigenvalues    EBANDS =       -30.01893307
  atomic energy  EATOM  =       588.62352690
  free energy    TOTEN  =       187.20004835 eV

  energy without entropy =      187.20185486  energy(sigma->0) =      187.20095161

[...]

 eigenvalue-minimisations  : 10432
 total energy-change (2. order) :-0.1964660E+03  (-0.1749835E+03)
 number of electron      16.0000000 magnetization
 augmentation part       16.0000000 magnetization

[...]

 Broyden mixing:
  rms(total) = 0.71894E+00    rms(broyden)= 0.71894E+00
  rms(prec ) = 0.78265E+00
  weight for this iteration     100.00

[...]

 eigenvalues of (default mixing * dielectric matrix)
  average eigenvalue GAMMA=   2.3193
  2.3193

[...]

WARNING in EDDRMM: call to ZHEGV failed, returncode =   6  3  1
WARNING in EDDRMM: call to ZHEGV failed, returncode =   6  3  1

[...]

 average (electrostatic) potential at core
  the test charge radii are     0.6991
  (the norm of the test charge is              1.0000)
       1 -58.2658       2 -58.2658       3 -58.2658       4 -58.2658

 E-fermi :  -2.7974     XC(G=0):  -2.1638     alpha+bet : -1.9046

 k-point     1 :       0.0000    0.0000    0.0000
  band No.  band energies     occupation
      1     -22.1483      2.00000
      2     -17.1690      2.00000
      3     -15.8897      2.00000
      4     -10.2775      2.00000
      5      -8.9390      2.00000
      6      -5.9238      2.00000
      7      -5.7488      2.00000
      8      -5.2501      2.00000
      9      -1.1450      0.00000
     10       0.5365      0.00000
     11       1.3358      0.00000
     12       1.7242      0.00000

[...]

 soft charge-density along one line, spin component           1
         0         1         2         3         4         5         6         7         8         9
 total charge-density along one line

------------------------ aborting loop because EDIFF is reached ----------------------------------------

  FORCE on cell =-STRESS in cart. coord.  units (eV):
  Direction    XX          YY          ZZ          XY          YZ          ZX
  Alpha Z     6.18334     6.18334     6.18334
  Ewald    3035.45037  3037.43971 -3570.57826    -0.00000     0.00000     0.00000
  Hartree  2973.18293  2973.87434 -2950.59013    -0.00000    -0.00000    -0.00000
  E(xc)     -58.10672   -58.12429   -60.44373    -0.00000    -0.00000    -0.00000
  Local   -6181.75293 -6184.10903  6315.56553    -0.00000     0.00000    -0.00000
  n-local   -13.37063   -13.87449   -12.59268     0.06289    -0.00000     0.00000
  augment    -1.50257    -1.50420    -1.38830     0.00000     0.00000    -0.00000
  Kinetic   236.57973   240.11600   273.84287    -4.50775     0.00000     0.00000
  Fock        0.00000     0.00000     0.00000     0.00000     0.00000     0.00000
  Total      -3.33647     0.00138    -0.00136     0.00000     0.00000     0.00000
  in kB     -25.35413     0.01051    -0.01033     0.00000     0.00000     0.00000

 VOLUME and BASIS-vectors are now :
  energy-cutoff  :     2000.00
  volume of cell :      210.84
      direct lattice vectors                 reciprocal lattice vectors
     4.338428561  0.000000000  0.000000000     0.230498206  0.000000000  0.000000000
     0.000000000  2.460763882  0.000000000     0.000000000  0.406377876  0.000000000
     0.000000000  0.000000000 19.749053690     0.000000000  0.000000000  0.050635338

[...]

 FORCES acting on ions
    electron-ion (+dipol)            ewald-force                    non-local-force                 convergence-correction
   0.329E+01 0.231E-15 -.130E-08   -.329E+01 0.817E-14 0.137E-18   0.237E-03 0.104E-16 0.000E+00   -.769E-07 -.836E-15 -.839E-13
   -.329E+01 -.272E-14 -.844E-08   0.329E+01 -.382E-14 0.317E-18   -.237E-03 -.139E-16 0.000E+00   0.769E-07 0.559E-15 -.835E-13
   0.329E+01 -.195E-12 -.130E-08   -.329E+01 0.991E-14 -.557E-18   0.237E-03 0.347E-17 0.000E+00   -.769E-07 -.754E-15 -.838E-13
   -.329E+01 0.621E-15 -.846E-08   0.329E+01 -.208E-14 0.103E-18   -.237E-03 0.000E+00 0.000E+00   0.769E-07 0.484E-15 -.836E-13
   -.125E-05 -.197E-12 -.195E-07   -.311E-14 0.122E-13 0.000E+00   -.271E-19 0.000E+00 0.000E+00   -.125E-12 -.548E-15 -.335E-12

 POSITION                                       TOTAL-FORCE (eV/Angst)
      4.33688      0.00000      0.00000        -0.001489      0.000000      0.000000
      0.72462      1.23038      0.00000         0.001489     -0.000000     -0.000000
      2.16766      1.23038      0.00000        -0.001489     -0.000000      0.000000
      2.89384      0.00000      0.00000         0.001489      0.000000     -0.000000
    total drift:                               -0.000001     -0.000000     -0.000000

  FREE ENERGIE OF THE ION-ELECTRON SYSTEM (eV)
  free  energy   TOTEN  =       -36.90025598 eV

  energy  without entropy=      -36.90025157  energy(sigma->0) =      -36.90025378

 Quasi-Newton relaxation of ions (Broydens 2nd method)
  g(Force)  = 0.428E-06   g(Stress)= 0.000E+00

 Reset! Starting new Quasi-Newton update for ions

[...]

WARNING in EDDRMM: call to ZHEGV failed, returncode =   6  3  1

[...]

 d Force =-0.6175433E-06[-0.166E-05, 0.428E-06]  d Energy =-0.6290726E-06 0.115E-07
 d Force = 0.9426721E-03[ 0.939E-03, 0.946E-03]  d Ewald  = 0.9426724E-03-0.287E-09

[...]

 retain information from N=  1 steps
 eigenvalues of (default step * inverse Hessian matrix)
  average eigenvalue of G=   0.2047
 eigenvalue spectrum of G is  0.2047

[...]

 d Force = 0.6624982E-06[ 0.229E-08, 0.132E-05]  d Energy = 0.6703990E-06-0.790E-08
 d Force =-0.7491299E-03[-0.751E-03,-0.747E-03]  d Ewald  =-0.7491301E-03 0.144E-09

[...]

 eigenvalue-minimisations  :  4904
 total energy-change (2. order) : 0.4929461E-09  ( 0.5409778E-09)
 number of electron      16.0000000 magnetization
 augmentation part        0.3761846 magnetization

[...]

 eigenvalue-minimisations  :  3019
 total energy-change (2. order) :-0.7603376E-09  ( 0.1463212E-12)
 number of electron      16.0000000 magnetization
 augmentation part        0.3761846 magnetization

[...]

 d Force =-0.6232504E-12[-0.522E-11, 0.398E-11]  d Energy =-0.8208190E-10 0.815E-10
 d Force =-0.1303970E-05[-0.130E-05,-0.130E-05]  d Ewald  =-0.1303970E-05 0.000E+00

[...]

 d Force = 0.1636302E-11[ 0.307E-12, 0.297E-11]  d Energy =-0.6275513E-10 0.644E-10
 d Force = 0.7403294E-06[ 0.740E-06, 0.740E-06]  d Ewald  = 0.7403287E-06 0.909E-12

[...]

 d Force = 0.3617616E-13[ 0.368E-13, 0.355E-13]  d Energy = 0.8117240E-10-0.811E-10
 d Force = 0.8558365E-07[ 0.856E-07, 0.856E-07]  d Ewald  = 0.8558436E-07-0.909E-12

[...]

 d Force =-0.7070932E-11[-0.131E-10,-0.104E-11]  d Energy = 0.2490879E-09-0.256E-09
 d Force =-0.2409359E-05[-0.241E-05,-0.241E-05]  d Ewald  =-0.2409359E-05 0.455E-12

[...]

 d Force = 0.8751857E-11[ 0.327E-11, 0.142E-10]  d Energy =-0.3086598E-09 0.317E-09
 d Force = 0.2616357E-05[ 0.262E-05, 0.262E-05]  d Ewald  = 0.2616357E-05 0.455E-12

[...]

 eigenvalue-minimisations  :   711
 total energy-change (2. order) : 0.5547918E-10  (-0.1798972E-13)
 number of electron      16.0000000 magnetization
 augmentation part        0.3761846 magnetization

[...]

 d Force =-0.2745001E-12[-0.153E-11, 0.977E-12]  d Energy = 0.2075922E-09-0.208E-09
 d Force = 0.7813904E-06[ 0.781E-06, 0.781E-06]  d Ewald  = 0.7813906E-06 0.000E+00

[...]

 FEWALD executed in parallel

[...]

 eigenvalue-minimisations  :   403
 total energy-change (2. order) :-0.4387175E-09  ( 0.8388352E-15)
 number of electron      16.0000000 magnetization
 augmentation part        0.3761846 magnetization

[...]

 eigenvalue-minimisations  :   840
 total energy-change (2. order) : 0.2171419E-09  ( 0.7162994E-14)
 number of electron      16.0000000 magnetization
 augmentation part        0.3761846 magnetization

 Broyden mixing:
  rms(total) = 0.79981E-10    rms(broyden)= 0.79800E-10
  rms(prec ) = 0.11273E-09
  weight for this iteration     100.00

 eigenvalues of (default mixing * dielectric matrix)
  average eigenvalue GAMMA=   1.8003
  2.7318  2.5412  0.9641  0.9641

[...]

----------------------------------------- Iteration   10(   6)  ---------------------------------------

 eigenvalue-minimisations  :   329
 total energy-change (2. order) :-0.1841727E-10  (-0.3157968E-14)
 number of electron      16.0000000 magnetization
 augmentation part        0.3761846 magnetization

 Free energy of the ion-electron system (eV)
  alpha Z        PSCENC =         6.18334092
  Ewald energy   TEWEN  =      2502.31187614
  -Hartree energ DENC   =     -2996.46698157
  -exchange      EXHF   =         0.00000000
  -V(xc)+E(xc)   XCENC  =        57.28965129
  PAW double counting   =       271.99460575     -277.12039364
  entropy T*S    EENTRO =        -0.00000447
  eigenvalues    EBANDS =      -189.71587734
  atomic energy  EATOM  =       588.62352690
  free energy    TOTEN  =       -36.90025602 eV

  energy without entropy =      -36.90025155  energy(sigma->0) =      -36.90025379

 average (electrostatic) potential at core
  the test charge radii are     0.6991
  (the norm of the test charge is              1.0000)
       1 -58.2658       2 -58.2658       3 -58.2658       4 -58.2658

 E-fermi :  -2.7974     XC(G=0):  -2.1635     alpha+bet : -1.9046

[...]

 k-point   247 :       0.5000    0.5000    0.0000
  band No.  band energies     occupation
      1     -16.9132      2.00000
      2     -16.9132      2.00000
      3     -15.9019      2.00000
      4     -15.9019      2.00000
      5      -9.2519      2.00000
      6      -9.2519      2.00000
      7      -5.0505      2.00000
      8      -5.0505      2.00000
      9      -1.1205      0.00000
     10      -1.1205      0.00000
     11       4.1675      0.00000
     12       4.1675      0.00000

 soft charge-density along one line, spin component           1
         0         1         2         3         4         5         6         7         8         9
 total charge-density along one line

------------------------ aborting loop because EDIFF is reached ----------------------------------------

  FORCE on cell =-STRESS in cart. coord.  units (eV):
  Direction    XX          YY          ZZ          XY          YZ          ZX
  Alpha Z     6.18334     6.18334     6.18334
  Ewald    3035.46305  3037.42683 -3570.57826     0.00000     0.00000    -0.00000
  Hartree  2973.18466  2973.87246 -2950.59014    -0.00000    -0.00000    -0.00000
  E(xc)     -58.10666   -58.12433   -60.44372    -0.00000    -0.00000    -0.00000
  Local   -6181.76501 -6184.09671  6315.56559    -0.00000    -0.00000     0.00000
  n-local   -13.37052   -13.87459   -12.59268     0.06288    -0.00000     0.00000
  augment    -1.50258    -1.50418    -1.38830     0.00000    -0.00000    -0.00000
  Kinetic   236.57771   240.11791   273.84281    -4.50769     0.00000    -0.00000
  Fock        0.00000     0.00000     0.00000     0.00000     0.00000     0.00000
  Total      -3.33601     0.00074    -0.00136     0.00000     0.00000     0.00000
  in kB     -25.35069     0.00559    -0.01033     0.00000     0.00000     0.00000

 VOLUME and BASIS-vectors are now :
  energy-cutoff  :     2000.00
  volume of cell :      210.84
      direct lattice vectors                 reciprocal lattice vectors
     4.338428561  0.000000000  0.000000000     0.230498206  0.000000000  0.000000000
     0.000000000  2.460763882  0.000000000     0.000000000  0.406377876  0.000000000
     0.000000000  0.000000000 19.749053690     0.000000000  0.000000000  0.050635338

  length of vectors
     4.338428561  2.460763882 19.749053690     0.230498206  0.406377876  0.050635338

 FORCES acting on ions
    electron-ion (+dipol)            ewald-force                    non-local-force                 convergence-correction
   0.329E+01 0.108E-15 -.129E-08   -.329E+01 0.563E-14 0.169E-19   0.767E-03 -.347E-17 -.202E-27   0.327E-10 -.113E-14 -.805E-12
   -.329E+01 0.268E-13 -.846E-08   0.329E+01 0.180E-14 -.424E-18   -.767E-03 0.347E-17 0.505E-27   -.327E-10 -.746E-15 -.802E-12
   0.329E+01 -.159E-12 -.133E-08   -.329E+01 0.429E-14 0.713E-18   0.767E-03 -.104E-16 0.000E+00   0.327E-10 -.122E-14 -.774E-12
   -.329E+01 0.396E-15 -.846E-08   0.329E+01 0.469E-15 -.307E-18   -.767E-03 0.104E-16 0.000E+00   -.327E-10 -.644E-15 -.777E-12
   -.125E-05 -.131E-12 -.195E-07   -.266E-14 0.122E-13 0.000E+00   -.434E-18 0.000E+00 0.303E-27   0.195E-14 -.374E-14 -.316E-11

 POSITION                                       TOTAL-FORCE (eV/Angst)
      4.33686      0.00000     -0.00000         0.000001     -0.000000     -0.000000
      0.72464      1.23038      0.00000        -0.000001      0.000000      0.000000
      2.16765      1.23038     -0.00000         0.000001      0.000000     -0.000000
      2.89385     -0.00000      0.00000        -0.000001     -0.000000      0.000000
    total drift:                               -0.000001     -0.000000     -0.000000

  FREE ENERGIE OF THE ION-ELECTRON SYSTEM (eV)
  free  energy   TOTEN  =       -36.90025602 eV

  energy  without entropy=      -36.90025155  energy(sigma->0) =      -36.90025379

 d Force = 0.5169656E-12[ 0.103E-12, 0.931E-12]  d Energy = 0.2728484E-10-0.268E-10
 d Force =-0.4763580E-06[-0.476E-06,-0.476E-06]  d Ewald  =-0.4763579E-06 0.000E+00

 Quasi-Newton relaxation of ions (Broydens 2nd method)
  g(Force)  = 0.982E-13   g(Stress)= 0.000E+00

 retain information from N=  1 steps
 eigenvalues of (default step * inverse Hessian matrix)
  average eigenvalue of G=   0.1315
 eigenvalue spectrum of G is  0.1315

 reached required accuracy - stopping structural energy minimisation