 vasp.5.3.5 31Mar14 (build Mar 02 2015 18:14:16) complex

 executed on             LinuxIFC date 2018.08.09  18:43:49

 INCAR:
 POTCAR:   PAW_PBE C 08Apr2002
 POTCAR:   PAW_PBE C 08Apr2002
   VRHFIN =C: s2p2

   TITEL  = PAW_PBE C 08Apr2002
   POMASS =   12.011; ZVAL   =    4.000    mass and valenz
   ENMAX  =  400.000; ENMIN  =  300.000 eV
   QCUT   =   -5.516; QGAM   =   11.032    optimization parameters

   Description
     l     E      TYP  RCUT    TYP  RCUT
     0   .000     23  1.200
     0   .000     23  1.200
     1   .000     23  1.500
     1  2.500     23  1.500
     2   .000      7  1.500

 PAW_PBE C 08Apr2002                    :

 POSCAR: MD-kMC export data
  positions in direct lattice
  velocities in cartesian coordinates
 exchange correlation table for  LEXCH =        8
   RHO(1)=    0.500       N(1)  =     2000
   RHO(2)=  100.500       N(2)  =     4000

 ion  position               nearest neighbor table
   1  0.000  0.000  0.000-   4 1.42   2 1.43   2 1.43
   2  0.167  0.500  0.000-   3 1.42   1 1.43   1 1.43
   3  0.500  0.500  0.000-   2 1.42   4 1.43   4 1.43
   4  0.667  0.000  0.000-   1 1.42   3 1.43   3 1.43

  LATTYP: Found a simple orthorhombic cell.
 ALAT       =     2.4791428935
 B/A-ratio  =     1.7221908377
 C/A-ratio  =     8.0345717235

  Lattice vectors:

 A1 = (   0.0000000000,  -2.4791428935,   0.0000000000)
 A2 = (  -4.2695571764,   0.0000000000,   0.0000000000)
 A3 = (   0.0000000000,   0.0000000000, -19.9188513903)

Analysis of symmetry for initial positions (statically):
 Subroutine PRICEL returns following result:

  LATTYP: Found a base centered orthorhombic cell.
 ALAT       =     2.4791428935
 B/A-ratio  =     1.7221908377
 C/A-ratio  =     8.0345717235

[...]

   2 primitive cells build up your supercell.

 Routine SETGRP: Setting up the symmetry group for a
 simple orthorhombic supercell.

 Subroutine GETGRP returns: Found  8 space group operations
 (whereof  4 operations were pure point group operations)
 out of a pool of  8 trial point group operations.

The static configuration has the point symmetry C_2v.
 The point group associated with its full space group is D_2h.

Analysis of symmetry for dynamics (positions and initial velocities):
 Subroutine PRICEL returns following result:

  LATTYP: Found a base centered orthorhombic cell.
 ALAT       =     2.4791428935
 B/A-ratio  =     1.7221908377
 C/A-ratio  =     8.0345717235

  Lattice vectors:

 A1 = (   2.1347785882,  -1.2395714467,   0.0000000000)
 A2 = (  -2.1347785882,  -1.2395714467,   0.0000000000)
 A3 = (   0.0000000000,   0.0000000000, -19.9188513903)

   2 primitive cells build up your supercell.

 Routine SETGRP: Setting up the symmetry group for a
 simple orthorhombic supercell.

 Subroutine GETGRP returns: Found  8 space group operations
 (whereof  4 operations were pure point group operations)
 out of a pool of  8 trial point group operations.

The dynamic configuration has the point symmetry C_2v.
 The point group associated with its full space group is D_2h.

 KPOINTS: Automatic mesh

Automatic generation of k-mesh.
Space group operators:
 irot       det(A)        alpha          n_x          n_y          n_z        tau_x        tau_y        tau_z
    1     1.000000     0.000000     1.000000     0.000000     0.000000     0.000000     0.000000     0.000000
    2    -1.000000   180.000000     0.000000     0.000000     1.000000     0.000000     0.000000     0.000000
    3     1.000000   179.999999     1.000000     0.000000     0.000000     0.000000     0.000000     0.000000
    4    -1.000000   180.000000     0.000000     1.000000     0.000000     0.000000     0.000000     0.000000
    5    -1.000000     0.000000     1.000000     0.000000     0.000000     0.166667    -0.500000     0.000000
    6     1.000000   180.000000     0.000000     0.000000     1.000000     0.166667    -0.500000     0.000000
    7    -1.000000   179.999999     1.000000     0.000000     0.000000     0.166667    -0.500000     0.000000
    8     1.000000   180.000000     0.000000     1.000000     0.000000     0.166667    -0.500000     0.000000

 Subroutine IBZKPT returns following result:

 Found    247 irreducible k-points:

 Following reciprocal coordinates:
            Coordinates               Weight
  0.000000  0.000000  0.000000      1.000000
  0.041667  0.000000  0.000000      2.000000
  0.083333  0.000000  0.000000      2.000000
  0.125000  0.000000  0.000000      2.000000
  0.166667  0.000000  0.000000      2.000000
  0.208333  0.000000  0.000000      2.000000
  0.250000  0.000000  0.000000      2.000000
  0.291667  0.000000  0.000000      2.000000
  0.333333  0.000000  0.000000      2.000000
  0.375000  0.000000  0.000000      2.000000
  0.416667  0.000000  0.000000      2.000000
  0.458333  0.000000  0.000000      2.000000
  0.500000  0.000000  0.000000      1.000000
  0.000000  0.027778  0.000000      2.000000
  0.041667  0.027778  0.000000      4.000000
  0.083333  0.027778  0.000000      4.000000
  0.125000  0.027778  0.000000      4.000000
  0.166667  0.027778  0.000000      4.000000
  0.208333  0.027778  0.000000      4.000000
  0.250000  0.027778  0.000000      4.000000
  0.291667  0.027778  0.000000      4.000000
  0.333333  0.027778  0.000000      4.000000
  0.375000  0.027778  0.000000      4.000000
  0.416667  0.027778  0.000000      4.000000
  0.458333  0.027778  0.000000      4.000000
  0.500000  0.027778  0.000000      2.000000
  0.000000  0.055556  0.000000      2.000000
  0.041667  0.055556  0.000000      4.000000
  0.083333  0.055556  0.000000      4.000000
  0.125000  0.055556  0.000000      4.000000
  0.166667  0.055556  0.000000      4.000000
  0.208333  0.055556  0.000000      4.000000
  0.250000  0.055556  0.000000      4.000000
  0.291667  0.055556  0.000000      4.000000
  0.333333  0.055556  0.000000      4.000000
  0.375000  0.055556  0.000000      4.000000
  0.416667  0.055556  0.000000      4.000000
  0.458333  0.055556  0.000000      4.000000
  0.500000  0.055556  0.000000      2.000000
  0.000000  0.083333  0.000000      2.000000
  0.041667  0.083333  0.000000      4.000000
  0.083333  0.083333  0.000000      4.000000
  0.125000  0.083333  0.000000      4.000000
  0.166667  0.083333  0.000000      4.000000
  0.208333  0.083333  0.000000      4.000000
  0.250000  0.083333  0.000000      4.000000
  0.291667  0.083333  0.000000      4.000000
  0.333333  0.083333  0.000000      4.000000
  0.375000  0.083333  0.000000      4.000000
  0.416667  0.083333  0.000000      4.000000
  0.458333  0.083333  0.000000      4.000000
  0.500000  0.083333  0.000000      2.000000
  0.000000  0.111111  0.000000      2.000000
  0.041667  0.111111  0.000000      4.000000
  0.083333  0.111111  0.000000      4.000000
  0.125000  0.111111  0.000000      4.000000
  0.166667  0.111111  0.000000      4.000000
  0.208333  0.111111  0.000000      4.000000
  0.250000  0.111111  0.000000      4.000000
  0.291667  0.111111  0.000000      4.000000
[...]
  0.458333  0.472222  0.000000      4.000000
  0.500000  0.472222  0.000000      2.000000
  0.000000  0.500000  0.000000      1.000000
  0.041667  0.500000  0.000000      2.000000
  0.083333  0.500000  0.000000      2.000000
  0.125000  0.500000  0.000000      2.000000
  0.166667  0.500000  0.000000      2.000000
  0.208333  0.500000  0.000000      2.000000
  0.250000  0.500000  0.000000      2.000000
  0.291667  0.500000  0.000000      2.000000
  0.333333  0.500000  0.000000      2.000000
  0.375000  0.500000  0.000000      2.000000
  0.416667  0.500000  0.000000      2.000000
  0.458333  0.500000  0.000000      2.000000
  0.500000  0.500000  0.000000      1.000000

 Following cartesian coordinates:
            Coordinates               Weight
  0.000000  0.000000  0.000000      1.000000
  0.009759  0.000000  0.000000      2.000000
  0.019518  0.000000  0.000000      2.000000
  0.029277  0.000000  0.000000      2.000000
  0.039036  0.000000  0.000000      2.000000
  0.048795  0.000000  0.000000      2.000000
  0.058554  0.000000  0.000000      2.000000
  0.068313  0.000000  0.000000      2.000000
  0.078072  0.000000  0.000000      2.000000
  0.087831  0.000000  0.000000      2.000000
  0.097590  0.000000  0.000000      2.000000
  0.107349  0.000000  0.000000      2.000000
  0.117108  0.000000  0.000000      1.000000
  0.000000  0.011205  0.000000      2.000000
  0.009759  0.011205  0.000000      4.000000
  0.019518  0.011205  0.000000      4.000000
  0.029277  0.011205  0.000000      4.000000
  0.039036  0.011205  0.000000      4.000000
  0.048795  0.011205  0.000000      4.000000
  0.058554  0.011205  0.000000      4.000000
  0.068313  0.011205  0.000000      4.000000
  0.078072  0.011205  0.000000      4.000000
  0.087831  0.011205  0.000000      4.000000
  0.097590  0.011205  0.000000      4.000000
  0.107349  0.011205  0.000000      4.000000
  0.117108  0.011205  0.000000      2.000000
  0.000000  0.022409  0.000000      2.000000
  0.009759  0.022409  0.000000      4.000000
  0.019518  0.022409  0.000000      4.000000
  0.029277  0.022409  0.000000      4.000000
  0.039036  0.022409  0.000000      4.000000
  0.048795  0.022409  0.000000      4.000000
  0.058554  0.022409  0.000000      4.000000
  0.068313  0.022409  0.000000      4.000000
  0.078072  0.022409  0.000000      4.000000
  0.087831  0.022409  0.000000      4.000000
  0.097590  0.022409  0.000000      4.000000
  0.107349  0.022409  0.000000      4.000000
  0.117108  0.022409  0.000000      2.000000
  0.000000  0.033614  0.000000      2.000000
  0.009759  0.033614  0.000000      4.000000
  0.019518  0.033614  0.000000      4.000000
  0.029277  0.033614  0.000000      4.000000
  0.039036  0.033614  0.000000      4.000000
  0.048795  0.033614  0.000000      4.000000
  0.058554  0.033614  0.000000      4.000000
  0.068313  0.033614  0.000000      4.000000
  0.078072  0.033614  0.000000      4.000000
  0.087831  0.033614  0.000000      4.000000
  0.097590  0.033614  0.000000      4.000000
  0.107349  0.033614  0.000000      4.000000
  0.117108  0.033614  0.000000      2.000000
  0.000000  0.044818  0.000000      2.000000
  0.009759  0.044818  0.000000      4.000000
  0.019518  0.044818  0.000000      4.000000
  0.029277  0.044818  0.000000      4.000000
  0.039036  0.044818  0.000000      4.000000
  0.048795  0.044818  0.000000      4.000000
  0.058554  0.044818  0.000000      4.000000
  0.068313  0.044818  0.000000      4.000000
[...]
  0.107349  0.190478  0.000000      4.000000
  0.117108  0.190478  0.000000      2.000000
  0.000000  0.201683  0.000000      1.000000
  0.009759  0.201683  0.000000      2.000000
  0.019518  0.201683  0.000000      2.000000
  0.029277  0.201683  0.000000      2.000000
  0.039036  0.201683  0.000000      2.000000
  0.048795  0.201683  0.000000      2.000000
  0.058554  0.201683  0.000000      2.000000
  0.068313  0.201683  0.000000      2.000000
  0.078072  0.201683  0.000000      2.000000
  0.087831  0.201683  0.000000      2.000000
  0.097590  0.201683  0.000000      2.000000
  0.107349  0.201683  0.000000      2.000000
  0.117108  0.201683  0.000000      1.000000

 I would recommend the setting:
   dimension x,y,z NGX =    62 NGY =   36 NGZ =  291
[...]
 k-point ** :   0.4583 0.3056 0.0000  plane waves:   42821
 k-point ** :   0.5000 0.3056 0.0000  plane waves:   42808
 k-point ** :   0.0000 0.3333 0.0000  plane waves:   42934
 k-point ** :   0.0417 0.3333 0.0000  plane waves:   42934
 k-point ** :   0.0833 0.3333 0.0000  plane waves:   42906
[...]
 k-point ** :   0.4583 0.4722 0.0000  plane waves:   42788
 k-point ** :   0.5000 0.4722 0.0000  plane waves:   42806
 k-point ** :   0.0000 0.5000 0.0000  plane waves:   42918
 k-point ** :   0.0417 0.5000 0.0000  plane waves:   42904
 k-point ** :   0.0833 0.5000 0.0000  plane waves:   42928
 k-point ** :   0.1250 0.5000 0.0000  plane waves:   42912
 k-point ** :   0.1667 0.5000 0.0000  plane waves:   42952
 k-point ** :   0.2083 0.5000 0.0000  plane waves:   42954
 k-point ** :   0.2500 0.5000 0.0000  plane waves:   42926
 k-point ** :   0.2917 0.5000 0.0000  plane waves:   42898
 k-point ** :   0.3333 0.5000 0.0000  plane waves:   42854
 k-point ** :   0.3750 0.5000 0.0000  plane waves:   42824
 k-point ** :   0.4167 0.5000 0.0000  plane waves:   42820
 k-point ** :   0.4583 0.5000 0.0000  plane waves:   42758
 k-point ** :   0.5000 0.5000 0.0000  plane waves:   42764

 maximum and minimum number of plane-waves per node :     21509    21273

 maximum number of plane-waves:     42954
 maximum index in each direction:
   IXMAX=   15   IYMAX=    9   IZMAX=   72
   IXMIN=  -16   IYMIN=   -9   IZMIN=  -72

 NGX is ok and might be reduce to  64
 WARNING: aliasing errors must be expected set NGY to  38 to avoid them
 NGZ is ok and might be reduce to 290
 aliasing errors are usually negligible using standard VASP settings
 and one can safely disregard these warnings

 parallel 3D FFT for wavefunctions:
    minimum data exchange during FFTs selected (reduces bandwidth)
 parallel 3D FFT for charge:
    minimum data exchange during FFTs selected (reduces bandwidth)

 Broyden mixing: mesh for mixing (old mesh)
   NGX = 31   NGY = 19   NGZ =145
  (NGX  =128   NGY  = 72   NGZ  =588)
  gives a total of  85405 points

 initial charge density was supplied:
 charge density of overlapping atoms calculated
 number of electron      16.0000000 magnetization
 keeping initial charge density in first step

 Maximum index for augmentation-charges         4657 (set IRDMAX)

 First call to EWALD:  gamma=   0.298
 Maximum number of real-space cells 4x 6x 1
 Maximum number of reciprocal cells 2x 1x 8

 FEWALD executed in parallel

----------------------------------------- Iteration    1(   1)  ---------------------------------------

 eigenvalue-minimisations  :  5928
 total energy-change (2. order) : 0.1879634E+03  (-0.1060746E+04)
 number of electron      16.0000000 magnetization
 augmentation part       16.0000000 magnetization

 Free energy of the ion-electron system (eV)
  alpha Z        PSCENC =         6.18334092
  Ewald energy   TEWEN  =      2559.39234573
  -Hartree energ DENC   =     -2985.59408923
  -exchange      EXHF   =         0.00000000
  -V(xc)+E(xc)   XCENC  =        55.04226604
  PAW double counting   =       151.32577238     -155.92769107
  entropy T*S    EENTRO =        -0.00150319
  eigenvalues    EBANDS =       -31.08056379
  atomic energy  EATOM  =       588.62352690
  free energy    TOTEN  =       187.96340470 eV

  energy without entropy =      187.96490789  energy(sigma->0) =      187.96415629

[...]

 eigenvalue-minimisations  : 10448
 total energy-change (2. order) :-0.1973297E+03  (-0.1750204E+03)
 number of electron      16.0000000 magnetization
 augmentation part       16.0000000 magnetization

[...]

 Broyden mixing:
  rms(total) = 0.73019E+00    rms(broyden)= 0.73019E+00
  rms(prec ) = 0.79414E+00
  weight for this iteration     100.00

[...]

 eigenvalues of (default mixing * dielectric matrix)
  average eigenvalue GAMMA=   2.3230
  2.3230

[...]

WARNING in EDDRMM: call to ZHEGV failed, returncode =   6  3  1
WARNING in EDDRMM: call to ZHEGV failed, returncode =   6  3  1
WARNING in EDDRMM: call to ZHEGV failed, returncode =   6  3  1

[...]

 average (electrostatic) potential at core
  the test charge radii are     0.6991
  (the norm of the test charge is              1.0000)
       1 -58.2138       2 -58.2138       3 -58.2138       4 -58.2138

 E-fermi :  -2.7678     XC(G=0):  -2.1496     alpha+bet : -1.9046

 k-point     1 :       0.0000    0.0000    0.0000
  band No.  band energies     occupation
      1     -22.2201      2.00000
      2     -16.9587      2.00000
      3     -15.9508      2.00000
      4     -10.3331      2.00000
      5      -9.2245      2.00000
      6      -5.8307      2.00000
      7      -5.7738      2.00000
      8      -5.0703      2.00000
      9      -1.0859      0.00000
     10       0.5278      0.00000
     11       1.3283      0.00000
     12       1.7118      0.00000

[...]

 soft charge-density along one line, spin component           1
         0         1         2         3         4         5         6         7         8         9
 total charge-density along one line

------------------------ aborting loop because EDIFF is reached ----------------------------------------

  FORCE on cell =-STRESS in cart. coord.  units (eV):
  Direction    XX          YY          ZZ          XY          YZ          ZX
  Alpha Z     6.18334     6.18334     6.18334
  Ewald    3096.09434  3095.53791 -3632.24015     0.00000     0.00000    -0.00000
  Hartree  3030.75874  3030.55754 -3007.91037    -0.00000    -0.00000    -0.00000
  E(xc)     -58.27119   -58.26527   -60.60383    -0.00000    -0.00000    -0.00000
  Local   -6299.41814 -6298.75705  6434.16955     0.00000    -0.00000    -0.00000
  n-local   -13.92680   -13.76237   -12.71178     0.06273    -0.00000    -0.00000
  augment    -1.52979    -1.52917    -1.40608    -0.00000    -0.00000     0.00000
  Kinetic   240.10703   238.97129   274.51800    -4.60968     0.00000     0.00000
  Fock        0.00000     0.00000     0.00000     0.00000     0.00000     0.00000
  Total      -0.00248    -1.06379    -0.00132     0.00000     0.00000     0.00000
  in kB      -0.01882    -8.08385    -0.01007     0.00000     0.00000     0.00000

 VOLUME and BASIS-vectors are now :
  energy-cutoff  :     2000.00
  volume of cell :      210.84
      direct lattice vectors                 reciprocal lattice vectors
     4.269557176  0.000000000  0.000000000     0.234216327  0.000000000  0.000000000
     0.000000000  2.479142893  0.000000000     0.000000000  0.403365212  0.000000000
     0.000000000  0.000000000 19.918851390     0.000000000  0.000000000  0.050203698

[...]

 FORCES acting on ions
    electron-ion (+dipol)            ewald-force                    non-local-force                 convergence-correction
   -.105E+01 0.118E-15 0.288E-09   0.105E+01 0.427E-14 0.281E-31   -.227E-02 0.000E+00 0.000E+00   -.227E-06 0.950E-15 0.193E-12
   0.105E+01 0.111E-13 -.456E-08   -.105E+01 -.591E-14 -.796E-18   0.227E-02 0.000E+00 -.517E-25   0.227E-06 -.262E-14 0.192E-12
   -.105E+01 0.590E-12 0.302E-09   0.105E+01 0.747E-14 -.281E-31   -.227E-02 0.000E+00 0.000E+00   -.227E-06 0.119E-14 0.193E-12
   0.105E+01 0.168E-15 -.457E-08   -.105E+01 -.271E-14 0.796E-18   0.227E-02 0.000E+00 0.000E+00   0.227E-06 -.288E-14 0.192E-12
   -.369E-06 0.601E-12 -.854E-08   -.333E-14 0.312E-14 0.000E+00   -.434E-18 0.000E+00 -.517E-25   -.105E-12 -.336E-14 0.769E-12

 POSITION                                       TOTAL-FORCE (eV/Angst)
      0.00056      0.00000      0.00000        -0.002930     -0.000000      0.000000
      0.71103      1.23957      0.00000         0.002930      0.000000      0.000000
      2.13534      1.23957      0.00000        -0.002930      0.000000      0.000000
      2.84581      0.00000      0.00000         0.002930     -0.000000      0.000000
    total drift:                               -0.000000      0.000000     -0.000000

  FREE ENERGIE OF THE ION-ELECTRON SYSTEM (eV)
  free  energy   TOTEN  =       -36.92291790 eV

  energy  without entropy=      -36.92282564  energy(sigma->0) =      -36.92287177

 Quasi-Newton relaxation of ions (Broydens 2nd method)
  g(Force)  = 0.166E-05   g(Stress)= 0.000E+00

 Reset! Starting new Quasi-Newton update for ions

[...]

 d Force =-0.2505713E-05[-0.667E-05, 0.166E-05]  d Energy =-0.2498123E-05-0.759E-08
 d Force =-0.6067323E-03[-0.621E-03,-0.593E-03]  d Ewald  =-0.6067301E-03-0.225E-08

[...]

 retain information from N=  1 steps
 eigenvalues of (default step * inverse Hessian matrix)
  average eigenvalue of G=   0.1990
 eigenvalue spectrum of G is  0.1990

[...]

WARNING in EDDRMM: call to ZHEGV failed, returncode =   6  3  1
WARNING in EDDRMM: call to ZHEGV failed, returncode =   6  3  1

[...]

 d Force = 0.2671873E-05[ 0.282E-08, 0.534E-05]  d Energy = 0.2664268E-05 0.761E-08
 d Force = 0.4882644E-03[ 0.479E-03, 0.497E-03]  d Ewald  = 0.4882632E-03 0.116E-08

[...]

 eigenvalue-minimisations  :  4600
 total energy-change (2. order) : 0.6564278E-09  ( 0.5732118E-09)
 number of electron      16.0000000 magnetization
 augmentation part        0.3800440 magnetization

[...]

 d Force =-0.7594609E-12[-0.301E-11, 0.149E-11]  d Energy =-0.1139142E-09 0.113E-09
 d Force = 0.2531883E-06[ 0.253E-06, 0.253E-06]  d Ewald  = 0.2531892E-06-0.909E-12

[...]

 eigenvalue-minimisations  :  1462
 total energy-change (2. order) :-0.6234586E-09  ( 0.5449139E-13)
 number of electron      16.0000000 magnetization
 augmentation part        0.3800440 magnetization

[...]

 d Force = 0.1204909E-11[ 0.397E-12, 0.201E-11]  d Energy = 0.3478817E-10-0.336E-10
 d Force =-0.1693306E-06[-0.169E-06,-0.169E-06]  d Ewald  =-0.1693311E-06 0.455E-12

[...]

 d Force = 0.9877846E-13[ 0.998E-13, 0.977E-13]  d Energy = 0.6923528E-10-0.691E-10
 d Force =-0.4165715E-07[-0.417E-07,-0.417E-07]  d Ewald  =-0.4165713E-07 0.000E+00

[...]

 d Force =-0.5014153E-10[-0.954E-10,-0.484E-11]  d Energy = 0.1160743E-09-0.166E-09
 d Force = 0.2018809E-05[ 0.202E-05, 0.202E-05]  d Ewald  = 0.2018809E-05 0.000E+00

[...]

 d Force = 0.5189493E-10[ 0.325E-11, 0.101E-09]  d Energy =-0.2401066E-09 0.292E-09
 d Force =-0.2126596E-05[-0.213E-05,-0.213E-05]  d Ewald  =-0.2126596E-05-0.455E-12

[...]

 eigenvalue-minimisations  :   438
 total energy-change (2. order) :-0.2470415E-09  (-0.4079042E-14)
 number of electron      16.0000000 magnetization
 augmentation part        0.3800440 magnetization

[...]

 d Force =-0.4164636E-13[-0.192E-12, 0.108E-12]  d Energy = 0.9936230E-10-0.994E-10
 d Force =-0.7101215E-07[-0.710E-07,-0.710E-07]  d Ewald  =-0.7101244E-07 0.455E-12

[...]

 FEWALD executed in parallel

[...]

 eigenvalue-minimisations  :   203
 total energy-change (2. order) : 0.2743263E-09  (-0.8684411E-14)
 number of electron      16.0000000 magnetization
 augmentation part        0.3800440 magnetization

[...]

 eigenvalue-minimisations  :   200
 total energy-change (2. order) : 0.3074092E-09  ( 0.0000000E+00)
 number of electron      16.0000000 magnetization
 augmentation part        0.3800440 magnetization

 Broyden mixing:
  rms(total) = 0.27714E-10    rms(broyden)= 0.26632E-10
  rms(prec ) = 0.44093E-10
  weight for this iteration     100.00

 eigenvalues of (default mixing * dielectric matrix)
  average eigenvalue GAMMA=   1.6844
  1.0011  2.8209  2.5264  1.9389  0.1346

[...]

----------------------------------------- Iteration   10(   7)  ---------------------------------------

 eigenvalue-minimisations  :   425
 total energy-change (2. order) :-0.4206413E-10  ( 0.0000000E+00)
 number of electron      16.0000000 magnetization
 augmentation part        0.3800440 magnetization

 Free energy of the ion-electron system (eV)
  alpha Z        PSCENC =         6.18334092
  Ewald energy   TEWEN  =      2559.39246429
  -Hartree energ DENC   =     -3053.40601323
  -exchange      EXHF   =         0.00000000
  -V(xc)+E(xc)   XCENC  =        57.44745877
  PAW double counting   =       275.42844542     -280.56979091
  entropy T*S    EENTRO =        -0.00009145
  eigenvalues    EBANDS =      -190.02225877
  atomic energy  EATOM  =       588.62352690
  free energy    TOTEN  =       -36.92291807 eV

  energy without entropy =      -36.92282662  energy(sigma->0) =      -36.92287234

 average (electrostatic) potential at core
  the test charge radii are     0.6991
  (the norm of the test charge is              1.0000)
       1 -58.2138       2 -58.2138       3 -58.2138       4 -58.2138

 E-fermi :  -2.7678     XC(G=0):  -2.1489     alpha+bet : -1.9046

[...]

 k-point   247 :       0.5000    0.5000    0.0000
  band No.  band energies     occupation
      1     -17.0414      2.00000
      2     -17.0414      2.00000
      3     -15.9483      2.00000
      4     -15.9483      2.00000
      5      -9.1216      2.00000
      6      -9.1216      2.00000
      7      -5.1343      2.00000
      8      -5.1343      2.00000
      9      -1.0950      0.00000
     10      -1.0950      0.00000
     11       4.6056      0.00000
     12       4.6056      0.00000

 soft charge-density along one line, spin component           1
         0         1         2         3         4         5         6         7         8         9
 total charge-density along one line

------------------------ aborting loop because EDIFF is reached ----------------------------------------

  FORCE on cell =-STRESS in cart. coord.  units (eV):
  Direction    XX          YY          ZZ          XY          YZ          ZX
  Alpha Z     6.18334     6.18334     6.18334
  Ewald    3096.11894  3095.51343 -3632.24015    -0.00000     0.00000     0.00000
  Hartree  3030.76215  3030.55422 -3007.91036    -0.00000    -0.00000    -0.00000
  E(xc)     -58.27110   -58.26537   -60.60383     0.00000    -0.00000    -0.00000
  Local   -6299.44141 -6298.73392  6434.16951    -0.00000    -0.00000     0.00000
  n-local   -13.92660   -13.76257   -12.71178     0.06270    -0.00000     0.00000
  augment    -1.52983    -1.52914    -1.40608     0.00000    -0.00000    -0.00000
  Kinetic   240.10324   238.97515   274.51804    -4.60955     0.00000    -0.00000
  Fock        0.00000     0.00000     0.00000     0.00000     0.00000     0.00000
  Total      -0.00127    -1.06487    -0.00132     0.00000     0.00000     0.00000
  in kB      -0.00966    -8.09206    -0.01007     0.00000     0.00000     0.00000

 VOLUME and BASIS-vectors are now :
  energy-cutoff  :     2000.00
  volume of cell :      210.84
      direct lattice vectors                 reciprocal lattice vectors
     4.269557176  0.000000000  0.000000000     0.234216327  0.000000000  0.000000000
     0.000000000  2.479142893  0.000000000     0.000000000  0.403365212  0.000000000
     0.000000000  0.000000000 19.918851390     0.000000000  0.000000000  0.050203698

  length of vectors
     4.269557176  2.479142893 19.918851390     0.234216327  0.403365212  0.050203698

 FORCES acting on ions
    electron-ion (+dipol)            ewald-force                    non-local-force                 convergence-correction
   -.106E+01 -.214E-16 0.275E-09   0.106E+01 -.454E-14 0.673E-18   -.123E-02 -.139E-16 0.000E+00   -.348E-10 0.986E-15 0.393E-11
   0.106E+01 0.211E-12 -.460E-08   -.106E+01 0.527E-14 -.317E-18   0.123E-02 0.104E-16 0.000E+00   0.348E-10 -.936E-15 0.393E-11
   -.106E+01 -.266E-12 0.267E-09   0.106E+01 -.855E-15 0.195E-18   -.123E-02 -.139E-16 0.808E-27   -.348E-10 0.850E-15 0.395E-11
   0.106E+01 0.280E-15 -.465E-08   -.106E+01 0.325E-14 -.551E-18   0.123E-02 0.347E-17 -.808E-27   0.348E-10 -.788E-15 0.396E-11
   -.371E-06 -.551E-13 -.870E-08   -.333E-14 0.312E-14 0.000E+00   0.130E-17 -.139E-16 0.000E+00   0.685E-15 0.112E-15 0.158E-10

 POSITION                                       TOTAL-FORCE (eV/Angst)
      0.00053     -0.00000      0.00000         0.000000      0.000000      0.000000
      0.71106      1.23957     -0.00000        -0.000000      0.000000     -0.000000
      2.13531      1.23957      0.00000         0.000000     -0.000000      0.000000
      2.84584     -0.00000     -0.00000        -0.000000      0.000000     -0.000000
    total drift:                               -0.000000     -0.000000     -0.000000

  FREE ENERGIE OF THE ION-ELECTRON SYSTEM (eV)
  free  energy   TOTEN  =       -36.92291807 eV

  energy  without entropy=      -36.92282662  energy(sigma->0) =      -36.92287234

 d Force = 0.6269436E-13[ 0.291E-14, 0.122E-12]  d Energy =-0.8435563E-10 0.844E-10
 d Force = 0.4535663E-07[ 0.454E-07, 0.454E-07]  d Ewald  = 0.4535696E-07-0.455E-12

 Quasi-Newton relaxation of ions (Broydens 2nd method)
  g(Force)  = 0.889E-15   g(Stress)= 0.000E+00

 retain information from N=  1 steps
 eigenvalues of (default step * inverse Hessian matrix)
  average eigenvalue of G=   0.0796
 eigenvalue spectrum of G is  0.0796

 reached required accuracy - stopping structural energy minimisation