 vasp.5.3.5 31Mar14 (build Mar 02 2015 18:14:16) complex

 executed on             LinuxIFC date 2018.08.10  14:59:17

 INCAR:
 POTCAR:   PAW_PBE C 08Apr2002
 POTCAR:   PAW_PBE C 08Apr2002
   VRHFIN =C: s2p2

   TITEL  = PAW_PBE C 08Apr2002
   POMASS =   12.011; ZVAL   =    4.000    mass and valenz
   ENMAX  =  400.000; ENMIN  =  300.000 eV
   QCUT   =   -5.516; QGAM   =   11.032    optimization parameters

   Description
     l     E      TYP  RCUT    TYP  RCUT
     0   .000     23  1.200
     0   .000     23  1.200
     1   .000     23  1.500
     1  2.500     23  1.500
     2   .000      7  1.500

 PAW_PBE C 08Apr2002                    :

 POSCAR: MD-kMC export data
  positions in direct lattice
  velocities in cartesian coordinates
 exchange correlation table for  LEXCH =        8
   RHO(1)=    0.500       N(1)  =     2000
   RHO(2)=  100.500       N(2)  =     4000

 ion  position               nearest neighbor table
   1  0.001  0.000  0.000-   4 1.42   2 1.45   2 1.45
   2  0.166  0.500  0.000-   3 1.42   1 1.45   1 1.45
   3  0.501  0.500  0.000-   2 1.42   4 1.45   4 1.45
   4  0.666  0.000  0.000-   1 1.42   3 1.45   3 1.45

  LATTYP: Found a simple orthorhombic cell.
 ALAT       =     2.5418154284
 B/A-ratio  =     1.6727093426
 C/A-ratio  =     7.6753142848

  Lattice vectors:

 A1 = (   0.0000000000,  -2.5418154284,   0.0000000000)
 A2 = (  -4.2517184143,   0.0000000000,   0.0000000000)
 A3 = (   0.0000000000,   0.0000000000, -19.5092322670)

Analysis of symmetry for initial positions (statically):
 Subroutine PRICEL returns following result:

  LATTYP: Found a base centered orthorhombic cell.
 ALAT       =     2.5418154284
 B/A-ratio  =     1.6727093426
 C/A-ratio  =     7.6753142848

[...]

   2 primitive cells build up your supercell.

 Routine SETGRP: Setting up the symmetry group for a
 simple orthorhombic supercell.

 Subroutine GETGRP returns: Found  8 space group operations
 (whereof  4 operations were pure point group operations)
 out of a pool of  8 trial point group operations.

The static configuration has the point symmetry C_2v.
 The point group associated with its full space group is D_2h.

Analysis of symmetry for dynamics (positions and initial velocities):
 Subroutine PRICEL returns following result:

  LATTYP: Found a base centered orthorhombic cell.
 ALAT       =     2.5418154284
 B/A-ratio  =     1.6727093426
 C/A-ratio  =     7.6753142848

  Lattice vectors:

 A1 = (   2.1258592072,  -1.2709077142,   0.0000000000)
 A2 = (  -2.1258592072,  -1.2709077142,   0.0000000000)
 A3 = (   0.0000000000,   0.0000000000, -19.5092322670)

   2 primitive cells build up your supercell.

 Routine SETGRP: Setting up the symmetry group for a
 simple orthorhombic supercell.

 Subroutine GETGRP returns: Found  8 space group operations
 (whereof  4 operations were pure point group operations)
 out of a pool of  8 trial point group operations.

The dynamic configuration has the point symmetry C_2v.
 The point group associated with its full space group is D_2h.

 KPOINTS: Automatic mesh

Automatic generation of k-mesh.
Space group operators:
 irot       det(A)        alpha          n_x          n_y          n_z        tau_x        tau_y        tau_z
    1     1.000000     0.000000     1.000000     0.000000     0.000000     0.000000     0.000000     0.000000
    2    -1.000000   180.000000     0.000000     0.000000     1.000000     0.000000     0.000000     0.000000
    3     1.000000   180.000000     1.000000     0.000000     0.000000     0.000000     0.000000     0.000000
    4    -1.000000   180.000000     0.000000     1.000000     0.000000     0.000000     0.000000     0.000000
    5    -1.000000     0.000000     1.000000     0.000000     0.000000     0.166667    -0.500000     0.000000
    6     1.000000   180.000000     0.000000     0.000000     1.000000     0.166667    -0.500000     0.000000
    7    -1.000000   180.000000     1.000000     0.000000     0.000000     0.166667    -0.500000     0.000000
    8     1.000000   180.000000     0.000000     1.000000     0.000000     0.166667    -0.500000     0.000000

 Subroutine IBZKPT returns following result:

 Found    247 irreducible k-points:

 Following reciprocal coordinates:
            Coordinates               Weight
  0.000000  0.000000  0.000000      1.000000
  0.041667  0.000000  0.000000      2.000000
  0.083333  0.000000  0.000000      2.000000
  0.125000  0.000000  0.000000      2.000000
  0.166667  0.000000  0.000000      2.000000
  0.208333  0.000000  0.000000      2.000000
  0.250000  0.000000  0.000000      2.000000
  0.291667  0.000000  0.000000      2.000000
  0.333333  0.000000  0.000000      2.000000
  0.375000  0.000000  0.000000      2.000000
  0.416667  0.000000  0.000000      2.000000
  0.458333  0.000000  0.000000      2.000000
  0.500000  0.000000  0.000000      1.000000
  0.000000  0.027778  0.000000      2.000000
  0.041667  0.027778  0.000000      4.000000
  0.083333  0.027778  0.000000      4.000000
  0.125000  0.027778  0.000000      4.000000
  0.166667  0.027778  0.000000      4.000000
  0.208333  0.027778  0.000000      4.000000
  0.250000  0.027778  0.000000      4.000000
  0.291667  0.027778  0.000000      4.000000
  0.333333  0.027778  0.000000      4.000000
  0.375000  0.027778  0.000000      4.000000
  0.416667  0.027778  0.000000      4.000000
  0.458333  0.027778  0.000000      4.000000
  0.500000  0.027778  0.000000      2.000000
  0.000000  0.055556  0.000000      2.000000
  0.041667  0.055556  0.000000      4.000000
  0.083333  0.055556  0.000000      4.000000
  0.125000  0.055556  0.000000      4.000000
  0.166667  0.055556  0.000000      4.000000
  0.208333  0.055556  0.000000      4.000000
  0.250000  0.055556  0.000000      4.000000
  0.291667  0.055556  0.000000      4.000000
  0.333333  0.055556  0.000000      4.000000
  0.375000  0.055556  0.000000      4.000000
  0.416667  0.055556  0.000000      4.000000
  0.458333  0.055556  0.000000      4.000000
  0.500000  0.055556  0.000000      2.000000
  0.000000  0.083333  0.000000      2.000000
  0.041667  0.083333  0.000000      4.000000
  0.083333  0.083333  0.000000      4.000000
  0.125000  0.083333  0.000000      4.000000
  0.166667  0.083333  0.000000      4.000000
  0.208333  0.083333  0.000000      4.000000
  0.250000  0.083333  0.000000      4.000000
  0.291667  0.083333  0.000000      4.000000
  0.333333  0.083333  0.000000      4.000000
  0.375000  0.083333  0.000000      4.000000
  0.416667  0.083333  0.000000      4.000000
  0.458333  0.083333  0.000000      4.000000
  0.500000  0.083333  0.000000      2.000000
  0.000000  0.111111  0.000000      2.000000
  0.041667  0.111111  0.000000      4.000000
  0.083333  0.111111  0.000000      4.000000
  0.125000  0.111111  0.000000      4.000000
  0.166667  0.111111  0.000000      4.000000
  0.208333  0.111111  0.000000      4.000000
  0.250000  0.111111  0.000000      4.000000
  0.291667  0.111111  0.000000      4.000000
[...]
  0.458333  0.472222  0.000000      4.000000
  0.500000  0.472222  0.000000      2.000000
  0.000000  0.500000  0.000000      1.000000
  0.041667  0.500000  0.000000      2.000000
  0.083333  0.500000  0.000000      2.000000
  0.125000  0.500000  0.000000      2.000000
  0.166667  0.500000  0.000000      2.000000
  0.208333  0.500000  0.000000      2.000000
  0.250000  0.500000  0.000000      2.000000
  0.291667  0.500000  0.000000      2.000000
  0.333333  0.500000  0.000000      2.000000
  0.375000  0.500000  0.000000      2.000000
  0.416667  0.500000  0.000000      2.000000
  0.458333  0.500000  0.000000      2.000000
  0.500000  0.500000  0.000000      1.000000

 Following cartesian coordinates:
            Coordinates               Weight
  0.000000  0.000000  0.000000      1.000000
  0.009800  0.000000  0.000000      2.000000
  0.019600  0.000000  0.000000      2.000000
  0.029400  0.000000  0.000000      2.000000
  0.039200  0.000000  0.000000      2.000000
  0.049000  0.000000  0.000000      2.000000
  0.058800  0.000000  0.000000      2.000000
  0.068600  0.000000  0.000000      2.000000
  0.078400  0.000000  0.000000      2.000000
  0.088200  0.000000  0.000000      2.000000
  0.098000  0.000000  0.000000      2.000000
  0.107800  0.000000  0.000000      2.000000
  0.117600  0.000000  0.000000      1.000000
  0.000000  0.010928  0.000000      2.000000
  0.009800  0.010928  0.000000      4.000000
  0.019600  0.010928  0.000000      4.000000
  0.029400  0.010928  0.000000      4.000000
  0.039200  0.010928  0.000000      4.000000
  0.049000  0.010928  0.000000      4.000000
  0.058800  0.010928  0.000000      4.000000
  0.068600  0.010928  0.000000      4.000000
  0.078400  0.010928  0.000000      4.000000
  0.088200  0.010928  0.000000      4.000000
  0.098000  0.010928  0.000000      4.000000
  0.107800  0.010928  0.000000      4.000000
  0.117600  0.010928  0.000000      2.000000
  0.000000  0.021857  0.000000      2.000000
  0.009800  0.021857  0.000000      4.000000
  0.019600  0.021857  0.000000      4.000000
  0.029400  0.021857  0.000000      4.000000
  0.039200  0.021857  0.000000      4.000000
  0.049000  0.021857  0.000000      4.000000
  0.058800  0.021857  0.000000      4.000000
  0.068600  0.021857  0.000000      4.000000
  0.078400  0.021857  0.000000      4.000000
  0.088200  0.021857  0.000000      4.000000
  0.098000  0.021857  0.000000      4.000000
  0.107800  0.021857  0.000000      4.000000
  0.117600  0.021857  0.000000      2.000000
  0.000000  0.032785  0.000000      2.000000
  0.009800  0.032785  0.000000      4.000000
  0.019600  0.032785  0.000000      4.000000
  0.029400  0.032785  0.000000      4.000000
  0.039200  0.032785  0.000000      4.000000
  0.049000  0.032785  0.000000      4.000000
  0.058800  0.032785  0.000000      4.000000
  0.068600  0.032785  0.000000      4.000000
  0.078400  0.032785  0.000000      4.000000
  0.088200  0.032785  0.000000      4.000000
  0.098000  0.032785  0.000000      4.000000
  0.107800  0.032785  0.000000      4.000000
  0.117600  0.032785  0.000000      2.000000
  0.000000  0.043713  0.000000      2.000000
  0.009800  0.043713  0.000000      4.000000
  0.019600  0.043713  0.000000      4.000000
  0.029400  0.043713  0.000000      4.000000
  0.039200  0.043713  0.000000      4.000000
  0.049000  0.043713  0.000000      4.000000
  0.058800  0.043713  0.000000      4.000000
  0.068600  0.043713  0.000000      4.000000
[...]
  0.107800  0.185781  0.000000      4.000000
  0.117600  0.185781  0.000000      2.000000
  0.000000  0.196710  0.000000      1.000000
  0.009800  0.196710  0.000000      2.000000
  0.019600  0.196710  0.000000      2.000000
  0.029400  0.196710  0.000000      2.000000
  0.039200  0.196710  0.000000      2.000000
  0.049000  0.196710  0.000000      2.000000
  0.058800  0.196710  0.000000      2.000000
  0.068600  0.196710  0.000000      2.000000
  0.078400  0.196710  0.000000      2.000000
  0.088200  0.196710  0.000000      2.000000
  0.098000  0.196710  0.000000      2.000000
  0.107800  0.196710  0.000000      2.000000
  0.117600  0.196710  0.000000      1.000000

 I would recommend the setting:
   dimension x,y,z NGX =    62 NGY =   37 NGZ =  285
[...]
 k-point ** :   0.5000 0.2778 0.0000  plane waves:   42748
 k-point ** :   0.0000 0.3056 0.0000  plane waves:   42870
 k-point ** :   0.0417 0.3056 0.0000  plane waves:   42853
 k-point ** :   0.0833 0.3056 0.0000  plane waves:   42833
 k-point ** :   0.1250 0.3056 0.0000  plane waves:   42824
 k-point ** :   0.1667 0.3056 0.0000  plane waves:   42799
 k-point ** :   0.2083 0.3056 0.0000  plane waves:   42815
 k-point ** :   0.2500 0.3056 0.0000  plane waves:   42782
 k-point ** :   0.2917 0.3056 0.0000  plane waves:   42817
 k-point ** :   0.3333 0.3056 0.0000  plane waves:   42795
 k-point ** :   0.3750 0.3056 0.0000  plane waves:   42762
 k-point ** :   0.4167 0.3056 0.0000  plane waves:   42786
 k-point ** :   0.4583 0.3056 0.0000  plane waves:   42748
 k-point ** :   0.5000 0.3056 0.0000  plane waves:   42746
 k-point ** :   0.0000 0.3333 0.0000  plane waves:   42850
 k-point ** :   0.0417 0.3333 0.0000  plane waves:   42853
 k-point ** :   0.0833 0.3333 0.0000  plane waves:   42839
[...]
 k-point ** :   0.4583 0.4722 0.0000  plane waves:   42766
 k-point ** :   0.5000 0.4722 0.0000  plane waves:   42750
 k-point ** :   0.0000 0.5000 0.0000  plane waves:   42822
 k-point ** :   0.0417 0.5000 0.0000  plane waves:   42862
 k-point ** :   0.0833 0.5000 0.0000  plane waves:   42870
 k-point ** :   0.1250 0.5000 0.0000  plane waves:   42872
 k-point ** :   0.1667 0.5000 0.0000  plane waves:   42864
 k-point ** :   0.2083 0.5000 0.0000  plane waves:   42862
 k-point ** :   0.2500 0.5000 0.0000  plane waves:   42834
 k-point ** :   0.2917 0.5000 0.0000  plane waves:   42854
 k-point ** :   0.3333 0.5000 0.0000  plane waves:   42796
 k-point ** :   0.3750 0.5000 0.0000  plane waves:   42770
 k-point ** :   0.4167 0.5000 0.0000  plane waves:   42782
 k-point ** :   0.4583 0.5000 0.0000  plane waves:   42792
 k-point ** :   0.5000 0.5000 0.0000  plane waves:   42756

 maximum and minimum number of plane-waves per node :     21475    21352

 maximum number of plane-waves:     42896
 maximum index in each direction:
   IXMAX=   15   IYMAX=    9   IZMAX=   71
   IXMIN=  -16   IYMIN=   -9   IZMIN=  -71

 NGX is ok and might be reduce to  64
 NGY is ok and might be reduce to  38
 NGZ is ok and might be reduce to 286

 parallel 3D FFT for wavefunctions:
    minimum data exchange during FFTs selected (reduces bandwidth)
 parallel 3D FFT for charge:
    minimum data exchange during FFTs selected (reduces bandwidth)

 Broyden mixing: mesh for mixing (old mesh)
   NGX = 31   NGY = 19   NGZ =143
  (NGX  =128   NGY  = 80   NGZ  =576)
  gives a total of  84227 points

 initial charge density was supplied:
 charge density of overlapping atoms calculated
 number of electron      16.0000000 magnetization
 keeping initial charge density in first step

 Maximum index for augmentation-charges         5069 (set IRDMAX)

 First call to EWALD:  gamma=   0.298
 Maximum number of real-space cells 4x 6x 1
 Maximum number of reciprocal cells 2x 1x 8

 FEWALD executed in parallel

----------------------------------------- Iteration    1(   1)  ---------------------------------------

 eigenvalue-minimisations  :  5928
 total energy-change (2. order) : 0.1863991E+03  (-0.1055838E+04)
 number of electron      16.0000000 magnetization
 augmentation part       16.0000000 magnetization

 Free energy of the ion-electron system (eV)
  alpha Z        PSCENC =         6.18334092
  Ewald energy   TEWEN  =      2422.62129006
  -Hartree energ DENC   =     -2852.92326552
  -exchange      EXHF   =         0.00000000
  -V(xc)+E(xc)   XCENC  =        54.76109243
  PAW double counting   =       151.32577238     -155.92769107
  entropy T*S    EENTRO =        -0.00111430
  eigenvalues    EBANDS =       -28.26386764
  atomic energy  EATOM  =       588.62352690
  free energy    TOTEN  =       186.39908417 eV

  energy without entropy =      186.40019847  energy(sigma->0) =      186.39964132

[...]

 eigenvalue-minimisations  : 10420
 total energy-change (2. order) :-0.1954977E+03  (-0.1740796E+03)
 number of electron      16.0000000 magnetization
 augmentation part       16.0000000 magnetization

[...]

 Broyden mixing:
  rms(total) = 0.70205E+00    rms(broyden)= 0.70205E+00
  rms(prec ) = 0.76527E+00
  weight for this iteration     100.00

[...]

 eigenvalues of (default mixing * dielectric matrix)
  average eigenvalue GAMMA=   2.3240
  2.3240

[...]

 average (electrostatic) potential at core
  the test charge radii are     0.6991
  (the norm of the test charge is              1.0000)
       1 -58.3400       2 -58.3400       3 -58.3400       4 -58.3400

 E-fermi :  -2.8310     XC(G=0):  -2.1849     alpha+bet : -1.9046

 k-point     1 :       0.0000    0.0000    0.0000
  band No.  band energies     occupation
      1     -22.0462      2.00000
      2     -16.6400      2.00000
      3     -15.8444      2.00000
      4     -10.1988      2.00000
      5      -9.5314      2.00000
      6      -6.0250      2.00000
      7      -5.7395      2.00000
      8      -4.8624      2.00000
      9      -1.1614      0.00000
     10       0.5491      0.00000
     11       1.3466      0.00000
     12       1.7418      0.00000

[...]

 soft charge-density along one line, spin component           1
         0         1         2         3         4         5         6         7         8         9
 total charge-density along one line

------------------------ aborting loop because EDIFF is reached ----------------------------------------

  FORCE on cell =-STRESS in cart. coord.  units (eV):
  Direction    XX          YY          ZZ          XY          YZ          ZX
  Alpha Z     6.18334     6.18334     6.18334
  Ewald    2955.52852  2951.47915 -3484.38657    -0.00000     0.00000     0.00000
  Hartree  2894.36246  2893.14823 -2870.53824     0.00000    -0.00000    -0.00000
  E(xc)     -57.91616   -57.88070   -60.21641     0.00000     0.00000    -0.00000
  Local   -6022.92824 -6018.43346  6149.85205     0.00000     0.00000    -0.00000
  n-local   -13.78797   -12.82430   -12.42200     0.09435     0.00000    -0.00000
  augment    -1.46925    -1.46503    -1.36307    -0.00000    -0.00000     0.00000
  Kinetic   240.02852   233.34500   272.88959    -4.64595    -0.00000     0.00000
  Fock        0.00000     0.00000     0.00000     0.00000     0.00000     0.00000
  Total       0.00123    -6.44777    -0.00132     0.00000     0.00000     0.00000
  in kB       0.00933   -48.99719    -0.01006     0.00000     0.00000     0.00000

 VOLUME and BASIS-vectors are now :
  energy-cutoff  :     2000.00
  volume of cell :      210.84
      direct lattice vectors                 reciprocal lattice vectors
     4.251718414  0.000000000  0.000000000     0.235199019  0.000000000  0.000000000
     0.000000000  2.541815428  0.000000000     0.000000000  0.393419596  0.000000000
     0.000000000  0.000000000 19.509232267     0.000000000  0.000000000  0.051257783

[...]

 FORCES acting on ions
    electron-ion (+dipol)            ewald-force                    non-local-force                 convergence-correction
   -.639E+01 -.469E-15 0.793E-09   0.638E+01 -.228E-14 0.000E+00   0.151E-01 0.694E-17 -.414E-24   0.103E-06 -.279E-15 -.776E-13
   0.639E+01 -.741E-14 -.182E-08   -.638E+01 0.797E-15 -.978E-35   -.151E-01 -.694E-17 0.207E-24   -.103E-06 -.413E-14 -.777E-13
   -.639E+01 0.591E-12 0.785E-09   0.638E+01 -.159E-14 0.000E+00   0.151E-01 0.139E-16 -.414E-24   0.103E-06 0.695E-15 -.776E-13
   0.639E+01 -.189E-15 -.181E-08   -.638E+01 0.149E-14 0.000E+00   -.151E-01 -.139E-16 0.310E-24   -.103E-06 -.507E-14 -.777E-13
   -.251E-06 0.583E-12 -.205E-08   -.888E-15 -.158E-14 -.978E-35   0.347E-17 0.000E+00 -.310E-24   0.525E-13 -.878E-14 -.311E-12

 POSITION                                       TOTAL-FORCE (eV/Angst)
      0.00318      0.00000      0.00000         0.001412      0.000000     -0.000000
      0.70544      1.27091      0.00000        -0.001412     -0.000000      0.000000
      2.12904      1.27091      0.00000         0.001412      0.000000     -0.000000
      2.83130      0.00000      0.00000        -0.001412     -0.000000      0.000000
    total drift:                               -0.000000      0.000000     -0.000000

  FREE ENERGIE OF THE ION-ELECTRON SYSTEM (eV)
  free  energy   TOTEN  =       -36.82851947 eV

  energy  without entropy=      -36.82851947  energy(sigma->0) =      -36.82851947

 Quasi-Newton relaxation of ions (Broydens 2nd method)
  g(Force)  = 0.385E-06   g(Stress)= 0.000E+00

 Reset! Starting new Quasi-Newton update for ions

[...]

 eigenvalue-minimisations  :  1951
 total energy-change (2. order) : 0.1205080E-09  ( 0.5072074E-14)
 number of electron      16.0000000 magnetization
 augmentation part        0.3707121 magnetization

[...]

 d Force =-0.5680202E-06[-0.152E-05, 0.385E-06]  d Energy =-0.5864397E-06 0.184E-07
 d Force = 0.1734566E-02[ 0.173E-02, 0.174E-02]  d Ewald  = 0.1734566E-02 0.242E-09

[...]

 retain information from N=  1 steps
 eigenvalues of (default step * inverse Hessian matrix)
  average eigenvalue of G=   0.2019
 eigenvalue spectrum of G is  0.2019

[...]

 d Force = 0.6077395E-06[ 0.171E-08, 0.121E-05]  d Energy = 0.6216295E-06-0.139E-07
 d Force =-0.1383755E-02[-0.139E-02,-0.138E-02]  d Ewald  =-0.1383755E-02-0.127E-09

[...]

 eigenvalue-minimisations  :  2987
 total energy-change (2. order) :-0.6435812E-09  ( 0.6032623E-13)
 number of electron      16.0000000 magnetization
 augmentation part        0.3707137 magnetization

[...]

 d Force =-0.5469847E-12[-0.352E-11, 0.242E-11]  d Energy =-0.1261924E-10 0.121E-10
 d Force =-0.1959003E-05[-0.196E-05,-0.196E-05]  d Ewald  =-0.1959003E-05 0.000E+00

[...]

 d Force = 0.1222187E-11[ 0.362E-12, 0.208E-11]  d Energy = 0.1330136E-09-0.132E-09
 d Force = 0.1159953E-05[ 0.116E-05, 0.116E-05]  d Ewald  = 0.1159952E-05 0.455E-12

[...]

 eigenvalue-minimisations  :  1269
 total energy-change (2. order) :-0.1045919E-10  (-0.2582297E-14)
 number of electron      16.0000000 magnetization
 augmentation part        0.3707137 magnetization

[...]

 eigenvalue-minimisations  :  1141
 total energy-change (2. order) : 0.3183231E-11  (-0.2409595E-14)
 number of electron      16.0000000 magnetization
 augmentation part        0.3707137 magnetization

[...]

 d Force = 0.6669768E-13[ 0.570E-13, 0.764E-13]  d Energy = 0.2421530E-10-0.242E-10
 d Force = 0.2445163E-06[ 0.245E-06, 0.245E-06]  d Ewald  = 0.2445158E-06 0.455E-12

[...]

 d Force = 0.1573996E-13[-0.136E-12, 0.167E-12]  d Energy =-0.4433787E-11 0.445E-11
 d Force = 0.7176779E-06[ 0.718E-06, 0.718E-06]  d Ewald  = 0.7176782E-06-0.455E-12

[...]

 d Force = 0.1642664E-14[-0.576E-13, 0.608E-13]  d Energy =-0.9663381E-11 0.966E-11
 d Force =-0.3215648E-06[-0.322E-06,-0.322E-06]  d Ewald  =-0.3215641E-06-0.909E-12

[...]

 FEWALD executed in parallel

[...]

 eigenvalue-minimisations  :   333
 total energy-change (2. order) :-0.1364242E-11  ( 0.0000000E+00)
 number of electron      16.0000000 magnetization
 augmentation part        0.3707137 magnetization

 Broyden mixing:
  rms(total) = 0.39576E-10    rms(broyden)= 0.39570E-10
  rms(prec ) = 0.72683E-10
  weight for this iteration     100.00

 eigenvalues of (default mixing * dielectric matrix)
  average eigenvalue GAMMA=   3.0611
  3.9260  2.7111  2.5460

[...]

----------------------------------------- Iteration    9(   5)  ---------------------------------------

 eigenvalue-minimisations  :   171
 total energy-change (2. order) : 0.4092726E-11  ( 0.0000000E+00)
 number of electron      16.0000000 magnetization
 augmentation part        0.3707137 magnetization

 Free energy of the ion-electron system (eV)
  alpha Z        PSCENC =         6.18334092
  Ewald energy   TEWEN  =      2422.62093925
  -Hartree energ DENC   =     -2916.97214831
  -exchange      EXHF   =         0.00000000
  -V(xc)+E(xc)   XCENC  =        57.06553691
  PAW double counting   =       267.20542761     -272.30968354
  entropy T*S    EENTRO =        -0.00000000
  eigenvalues    EBANDS =      -189.24545925
  atomic energy  EATOM  =       588.62352690
  free energy    TOTEN  =       -36.82851951 eV

  energy without entropy =      -36.82851951  energy(sigma->0) =      -36.82851951

 average (electrostatic) potential at core
  the test charge radii are     0.6991
  (the norm of the test charge is              1.0000)
       1 -58.3400       2 -58.3400       3 -58.3400       4 -58.3400

 E-fermi :  -2.8310     XC(G=0):  -2.1844     alpha+bet : -1.9046

[...]

 k-point   247 :       0.5000    0.5000    0.0000
  band No.  band energies     occupation
      1     -17.1404      2.00000
      2     -17.1404      2.00000
      3     -15.8141      2.00000
      4     -15.8141      2.00000
      5      -8.9293      2.00000
      6      -8.9293      2.00000
      7      -5.2496      2.00000
      8      -5.2496      2.00000
      9      -1.1912      0.00000
     10      -1.1912      0.00000
     11       4.5862      0.00000
     12       4.5862      0.00000

 soft charge-density along one line, spin component           1
         0         1         2         3         4         5         6         7         8         9
 total charge-density along one line

------------------------ aborting loop because EDIFF is reached ----------------------------------------

  FORCE on cell =-STRESS in cart. coord.  units (eV):
  Direction    XX          YY          ZZ          XY          YZ          ZX
  Alpha Z     6.18334     6.18334     6.18334
  Ewald    2955.51668  2951.49064 -3484.38657     0.00000     0.00000    -0.00000
  Hartree  2894.36074  2893.14967 -2870.53827    -0.00000    -0.00000    -0.00000
  E(xc)     -57.91619   -57.88063   -60.21639     0.00000     0.00000    -0.00000
  Local   -6022.91701 -6018.44426  6149.85216    -0.00000     0.00000     0.00000
  n-local   -13.78806   -12.82420   -12.42200     0.09437     0.00000     0.00000
  augment    -1.46923    -1.46505    -1.36307    -0.00000    -0.00000     0.00000
  Kinetic   240.03019   233.34312   272.88947    -4.64601    -0.00000    -0.00000
  Fock        0.00000     0.00000     0.00000     0.00000     0.00000     0.00000
  Total       0.00047    -6.44736    -0.00132     0.00000     0.00000     0.00000
  in kB       0.00354   -48.99410    -0.01005     0.00000     0.00000     0.00000

 VOLUME and BASIS-vectors are now :
  energy-cutoff  :     2000.00
  volume of cell :      210.84
      direct lattice vectors                 reciprocal lattice vectors
     4.251718414  0.000000000  0.000000000     0.235199019  0.000000000  0.000000000
     0.000000000  2.541815428  0.000000000     0.000000000  0.393419596  0.000000000
     0.000000000  0.000000000 19.509232267     0.000000000  0.000000000  0.051257783

  length of vectors
     4.251718414  2.541815428 19.509232267     0.235199019  0.393419596  0.051257783

 FORCES acting on ions
    electron-ion (+dipol)            ewald-force                    non-local-force                 convergence-correction
   -.639E+01 -.111E-14 0.792E-09   0.637E+01 0.742E-14 -.527E-18   0.146E-01 -.208E-16 0.000E+00   -.407E-10 -.760E-15 0.337E-11
   0.639E+01 0.386E-14 -.182E-08   -.637E+01 -.694E-14 -.182E-18   -.146E-01 -.694E-17 0.000E+00   0.407E-10 -.197E-14 0.337E-11
   -.639E+01 -.322E-12 0.767E-09   0.637E+01 0.615E-14 0.183E-17   0.146E-01 -.139E-16 0.000E+00   -.407E-10 -.222E-14 0.337E-11
   0.639E+01 -.957E-15 -.180E-08   -.637E+01 -.820E-14 -.112E-17   -.146E-01 -.694E-17 0.000E+00   0.407E-10 -.654E-15 0.337E-11
   -.252E-06 -.320E-12 -.206E-08   -.888E-15 -.158E-14 0.000E+00   0.694E-17 -.486E-16 0.000E+00   0.266E-14 -.561E-14 0.135E-10

 POSITION                                       TOTAL-FORCE (eV/Angst)
      0.00319     -0.00000     -0.00000        -0.000001     -0.000000      0.000000
      0.70543      1.27091      0.00000         0.000001      0.000000     -0.000000
      2.12905      1.27091      0.00000        -0.000001     -0.000000     -0.000000
      2.83129     -0.00000      0.00000         0.000001      0.000000     -0.000000
    total drift:                               -0.000000     -0.000000     -0.000000

  FREE ENERGIE OF THE ION-ELECTRON SYSTEM (eV)
  free  energy   TOTEN  =       -36.82851951 eV

  energy  without entropy=      -36.82851951  energy(sigma->0) =      -36.82851951

 d Force = 0.5092994E-14[-0.178E-13, 0.280E-13]  d Energy = 0.3979039E-11-0.397E-11
 d Force = 0.1563211E-06[ 0.156E-06, 0.156E-06]  d Ewald  = 0.1563208E-06 0.455E-12

 Quasi-Newton relaxation of ions (Broydens 2nd method)
  g(Force)  = 0.102E-12   g(Stress)= 0.000E+00

 retain information from N=  1 steps
 eigenvalues of (default step * inverse Hessian matrix)
  average eigenvalue of G=   0.0681
 eigenvalue spectrum of G is  0.0681

 reached required accuracy - stopping structural energy minimisation