 vasp.5.3.5 31Mar14 (build Mar 02 2015 18:14:16) complex

 executed on             LinuxIFC date 2018.08.10  15:18:32

 INCAR:
 POTCAR:   PAW_PBE C 08Apr2002
 POTCAR:   PAW_PBE C 08Apr2002
   VRHFIN =C: s2p2

   TITEL  = PAW_PBE C 08Apr2002
   POMASS =   12.011; ZVAL   =    4.000    mass and valenz
   ENMAX  =  400.000; ENMIN  =  300.000 eV
   QCUT   =   -5.516; QGAM   =   11.032    optimization parameters

   Description
     l     E      TYP  RCUT    TYP  RCUT
     0   .000     23  1.200
     0   .000     23  1.200
     1   .000     23  1.500
     1  2.500     23  1.500
     2   .000      7  1.500

 PAW_PBE C 08Apr2002                    :

 POSCAR: MD-kMC export data
  positions in direct lattice
  velocities in cartesian coordinates
 exchange correlation table for  LEXCH =        8
   RHO(1)=    0.500       N(1)  =     2000
   RHO(2)=  100.500       N(2)  =     4000

 ion  position               nearest neighbor table
   1  0.000  0.000  0.000-   2 1.42   2 1.42   4 1.43
   2  0.167  0.500  0.000-   1 1.42   1 1.42   3 1.43
   3  0.500  0.500  0.000-   4 1.42   4 1.42   2 1.43
   4  0.667  0.000  0.000-   3 1.42   3 1.42   1 1.43

  LATTYP: Found a simple orthorhombic cell.
 ALAT       =     2.4676693782
 B/A-ratio  =     1.7318346891
 C/A-ratio  =     8.1017965799

  Lattice vectors:

 A1 = (   0.0000000000,  -2.4676693782,   0.0000000000)
 A2 = (  -4.2735954305,   0.0000000000,   0.0000000000)
 A3 = (   0.0000000000,   0.0000000000, -19.9925553285)

Analysis of symmetry for initial positions (statically):
 Subroutine PRICEL returns following result:

  LATTYP: Found a base centered orthorhombic cell.
 ALAT       =     2.4676693782
 B/A-ratio  =     1.7318346891
 C/A-ratio  =     8.1017965799

[...]

   2 primitive cells build up your supercell.

 Routine SETGRP: Setting up the symmetry group for a
 simple orthorhombic supercell.

 Subroutine GETGRP returns: Found  8 space group operations
 (whereof  4 operations were pure point group operations)
 out of a pool of  8 trial point group operations.

The static configuration has the point symmetry C_2v.
 The point group associated with its full space group is D_2h.

Analysis of symmetry for dynamics (positions and initial velocities):
 Subroutine PRICEL returns following result:

  LATTYP: Found a base centered orthorhombic cell.
 ALAT       =     2.4676693782
 B/A-ratio  =     1.7318346891
 C/A-ratio  =     8.1017965799

  Lattice vectors:

 A1 = (   2.1367977153,  -1.2338346891,   0.0000000000)
 A2 = (  -2.1367977153,  -1.2338346891,   0.0000000000)
 A3 = (   0.0000000000,   0.0000000000, -19.9925553285)

   2 primitive cells build up your supercell.

 Routine SETGRP: Setting up the symmetry group for a
 simple orthorhombic supercell.

 Subroutine GETGRP returns: Found  8 space group operations
 (whereof  4 operations were pure point group operations)
 out of a pool of  8 trial point group operations.

The dynamic configuration has the point symmetry C_2v.
 The point group associated with its full space group is D_2h.

 KPOINTS: Automatic mesh

Automatic generation of k-mesh.
Space group operators:
 irot       det(A)        alpha          n_x          n_y          n_z        tau_x        tau_y        tau_z
    1     1.000000     0.000000     1.000000     0.000000     0.000000     0.000000     0.000000     0.000000
    2    -1.000000   180.000000     0.000000     0.000000     1.000000     0.000000     0.000000     0.000000
    3     1.000000   180.000000     1.000000     0.000000     0.000000     0.000000     0.000000     0.000000
    4    -1.000000   180.000000     0.000000     1.000000     0.000000     0.000000     0.000000     0.000000
    5    -1.000000     0.000000     1.000000     0.000000     0.000000     0.166667    -0.500000     0.000000
    6     1.000000   180.000000     0.000000     0.000000     1.000000     0.166667    -0.500000     0.000000
    7    -1.000000   180.000000     1.000000     0.000000     0.000000     0.166667    -0.500000     0.000000
    8     1.000000   180.000000     0.000000     1.000000     0.000000     0.166667    -0.500000     0.000000

 Subroutine IBZKPT returns following result:

 Found    247 irreducible k-points:

 Following reciprocal coordinates:
            Coordinates               Weight
  0.000000  0.000000  0.000000      1.000000
  0.041667  0.000000  0.000000      2.000000
  0.083333  0.000000  0.000000      2.000000
  0.125000  0.000000  0.000000      2.000000
  0.166667  0.000000  0.000000      2.000000
  0.208333  0.000000  0.000000      2.000000
  0.250000  0.000000  0.000000      2.000000
  0.291667  0.000000  0.000000      2.000000
  0.333333  0.000000  0.000000      2.000000
  0.375000  0.000000  0.000000      2.000000
  0.416667  0.000000  0.000000      2.000000
  0.458333  0.000000  0.000000      2.000000
  0.500000  0.000000  0.000000      1.000000
  0.000000  0.027778  0.000000      2.000000
  0.041667  0.027778  0.000000      4.000000
  0.083333  0.027778  0.000000      4.000000
  0.125000  0.027778  0.000000      4.000000
  0.166667  0.027778  0.000000      4.000000
  0.208333  0.027778  0.000000      4.000000
  0.250000  0.027778  0.000000      4.000000
  0.291667  0.027778  0.000000      4.000000
  0.333333  0.027778  0.000000      4.000000
  0.375000  0.027778  0.000000      4.000000
  0.416667  0.027778  0.000000      4.000000
  0.458333  0.027778  0.000000      4.000000
  0.500000  0.027778  0.000000      2.000000
  0.000000  0.055556  0.000000      2.000000
  0.041667  0.055556  0.000000      4.000000
  0.083333  0.055556  0.000000      4.000000
  0.125000  0.055556  0.000000      4.000000
  0.166667  0.055556  0.000000      4.000000
  0.208333  0.055556  0.000000      4.000000
  0.250000  0.055556  0.000000      4.000000
  0.291667  0.055556  0.000000      4.000000
  0.333333  0.055556  0.000000      4.000000
  0.375000  0.055556  0.000000      4.000000
  0.416667  0.055556  0.000000      4.000000
  0.458333  0.055556  0.000000      4.000000
  0.500000  0.055556  0.000000      2.000000
  0.000000  0.083333  0.000000      2.000000
  0.041667  0.083333  0.000000      4.000000
  0.083333  0.083333  0.000000      4.000000
  0.125000  0.083333  0.000000      4.000000
  0.166667  0.083333  0.000000      4.000000
  0.208333  0.083333  0.000000      4.000000
  0.250000  0.083333  0.000000      4.000000
  0.291667  0.083333  0.000000      4.000000
  0.333333  0.083333  0.000000      4.000000
  0.375000  0.083333  0.000000      4.000000
  0.416667  0.083333  0.000000      4.000000
  0.458333  0.083333  0.000000      4.000000
  0.500000  0.083333  0.000000      2.000000
  0.000000  0.111111  0.000000      2.000000
  0.041667  0.111111  0.000000      4.000000
  0.083333  0.111111  0.000000      4.000000
  0.125000  0.111111  0.000000      4.000000
  0.166667  0.111111  0.000000      4.000000
  0.208333  0.111111  0.000000      4.000000
  0.250000  0.111111  0.000000      4.000000
  0.291667  0.111111  0.000000      4.000000
[...]
  0.458333  0.472222  0.000000      4.000000
  0.500000  0.472222  0.000000      2.000000
  0.000000  0.500000  0.000000      1.000000
  0.041667  0.500000  0.000000      2.000000
  0.083333  0.500000  0.000000      2.000000
  0.125000  0.500000  0.000000      2.000000
  0.166667  0.500000  0.000000      2.000000
  0.208333  0.500000  0.000000      2.000000
  0.250000  0.500000  0.000000      2.000000
  0.291667  0.500000  0.000000      2.000000
  0.333333  0.500000  0.000000      2.000000
  0.375000  0.500000  0.000000      2.000000
  0.416667  0.500000  0.000000      2.000000
  0.458333  0.500000  0.000000      2.000000
  0.500000  0.500000  0.000000      1.000000

 Following cartesian coordinates:
            Coordinates               Weight
  0.000000  0.000000  0.000000      1.000000
  0.009750  0.000000  0.000000      2.000000
  0.019500  0.000000  0.000000      2.000000
  0.029249  0.000000  0.000000      2.000000
  0.038999  0.000000  0.000000      2.000000
  0.048749  0.000000  0.000000      2.000000
  0.058499  0.000000  0.000000      2.000000
  0.068249  0.000000  0.000000      2.000000
  0.077998  0.000000  0.000000      2.000000
  0.087748  0.000000  0.000000      2.000000
  0.097498  0.000000  0.000000      2.000000
  0.107248  0.000000  0.000000      2.000000
  0.116998  0.000000  0.000000      1.000000
  0.000000  0.011257  0.000000      2.000000
  0.009750  0.011257  0.000000      4.000000
  0.019500  0.011257  0.000000      4.000000
  0.029249  0.011257  0.000000      4.000000
  0.038999  0.011257  0.000000      4.000000
  0.048749  0.011257  0.000000      4.000000
  0.058499  0.011257  0.000000      4.000000
  0.068249  0.011257  0.000000      4.000000
  0.077998  0.011257  0.000000      4.000000
  0.087748  0.011257  0.000000      4.000000
  0.097498  0.011257  0.000000      4.000000
  0.107248  0.011257  0.000000      4.000000
  0.116998  0.011257  0.000000      2.000000
  0.000000  0.022513  0.000000      2.000000
  0.009750  0.022513  0.000000      4.000000
  0.019500  0.022513  0.000000      4.000000
  0.029249  0.022513  0.000000      4.000000
  0.038999  0.022513  0.000000      4.000000
  0.048749  0.022513  0.000000      4.000000
  0.058499  0.022513  0.000000      4.000000
  0.068249  0.022513  0.000000      4.000000
  0.077998  0.022513  0.000000      4.000000
  0.087748  0.022513  0.000000      4.000000
  0.097498  0.022513  0.000000      4.000000
  0.107248  0.022513  0.000000      4.000000
  0.116998  0.022513  0.000000      2.000000
  0.000000  0.033770  0.000000      2.000000
  0.009750  0.033770  0.000000      4.000000
  0.019500  0.033770  0.000000      4.000000
  0.029249  0.033770  0.000000      4.000000
  0.038999  0.033770  0.000000      4.000000
  0.048749  0.033770  0.000000      4.000000
  0.058499  0.033770  0.000000      4.000000
  0.068249  0.033770  0.000000      4.000000
  0.077998  0.033770  0.000000      4.000000
  0.087748  0.033770  0.000000      4.000000
  0.097498  0.033770  0.000000      4.000000
  0.107248  0.033770  0.000000      4.000000
  0.116998  0.033770  0.000000      2.000000
  0.000000  0.045027  0.000000      2.000000
  0.009750  0.045027  0.000000      4.000000
  0.019500  0.045027  0.000000      4.000000
  0.029249  0.045027  0.000000      4.000000
  0.038999  0.045027  0.000000      4.000000
  0.048749  0.045027  0.000000      4.000000
  0.058499  0.045027  0.000000      4.000000
  0.068249  0.045027  0.000000      4.000000
[...]
  0.107248  0.191364  0.000000      4.000000
  0.116998  0.191364  0.000000      2.000000
  0.000000  0.202620  0.000000      1.000000
  0.009750  0.202620  0.000000      2.000000
  0.019500  0.202620  0.000000      2.000000
  0.029249  0.202620  0.000000      2.000000
  0.038999  0.202620  0.000000      2.000000
  0.048749  0.202620  0.000000      2.000000
  0.058499  0.202620  0.000000      2.000000
  0.068249  0.202620  0.000000      2.000000
  0.077998  0.202620  0.000000      2.000000
  0.087748  0.202620  0.000000      2.000000
  0.097498  0.202620  0.000000      2.000000
  0.107248  0.202620  0.000000      2.000000
  0.116998  0.202620  0.000000      1.000000

 I would recommend the setting:
   dimension x,y,z NGX =    62 NGY =   36 NGZ =  292
[...]
 k-point ** :   0.3750 0.2778 0.0000  plane waves:   42821
 k-point ** :   0.4167 0.2778 0.0000  plane waves:   42808
 k-point ** :   0.4583 0.2778 0.0000  plane waves:   42820
 k-point ** :   0.5000 0.2778 0.0000  plane waves:   42830
 k-point ** :   0.0000 0.3056 0.0000  plane waves:   42886
 k-point ** :   0.0417 0.3056 0.0000  plane waves:   42900
 k-point ** :   0.0833 0.3056 0.0000  plane waves:   42885
 k-point ** :   0.1250 0.3056 0.0000  plane waves:   42855
 k-point ** :   0.1667 0.3056 0.0000  plane waves:   42884
 k-point ** :   0.2083 0.3056 0.0000  plane waves:   42854
 k-point ** :   0.2500 0.3056 0.0000  plane waves:   42843
 k-point ** :   0.2917 0.3056 0.0000  plane waves:   42839
 k-point ** :   0.3333 0.3056 0.0000  plane waves:   42842
 k-point ** :   0.3750 0.3056 0.0000  plane waves:   42830
 k-point ** :   0.4167 0.3056 0.0000  plane waves:   42824
 k-point ** :   0.4583 0.3056 0.0000  plane waves:   42816
 k-point ** :   0.5000 0.3056 0.0000  plane waves:   42852
 k-point ** :   0.0000 0.3333 0.0000  plane waves:   42908
 k-point ** :   0.0417 0.3333 0.0000  plane waves:   42899
 k-point ** :   0.0833 0.3333 0.0000  plane waves:   42879
[...]
 k-point ** :   0.4583 0.4722 0.0000  plane waves:   42807
 k-point ** :   0.5000 0.4722 0.0000  plane waves:   42834
 k-point ** :   0.0000 0.5000 0.0000  plane waves:   42878
 k-point ** :   0.0417 0.5000 0.0000  plane waves:   42940
 k-point ** :   0.0833 0.5000 0.0000  plane waves:   42920
 k-point ** :   0.1250 0.5000 0.0000  plane waves:   42926
 k-point ** :   0.1667 0.5000 0.0000  plane waves:   42910
 k-point ** :   0.2083 0.5000 0.0000  plane waves:   42950
 k-point ** :   0.2500 0.5000 0.0000  plane waves:   42936
 k-point ** :   0.2917 0.5000 0.0000  plane waves:   42888
 k-point ** :   0.3333 0.5000 0.0000  plane waves:   42844
 k-point ** :   0.3750 0.5000 0.0000  plane waves:   42818
 k-point ** :   0.4167 0.5000 0.0000  plane waves:   42792
 k-point ** :   0.4583 0.5000 0.0000  plane waves:   42818
 k-point ** :   0.5000 0.5000 0.0000  plane waves:   42800

 maximum and minimum number of plane-waves per node :     21498    21238

 maximum number of plane-waves:     42950
 maximum index in each direction:
   IXMAX=   15   IYMAX=    8   IZMAX=   72
   IXMIN=  -16   IYMIN=   -9   IZMIN=  -72

 NGX is ok and might be reduce to  64
 NGY is ok and might be reduce to  36
 NGZ is ok and might be reduce to 290

 parallel 3D FFT for wavefunctions:
    minimum data exchange during FFTs selected (reduces bandwidth)
 parallel 3D FFT for charge:
    minimum data exchange during FFTs selected (reduces bandwidth)

 Broyden mixing: mesh for mixing (old mesh)
   NGX = 31   NGY = 17   NGZ =145
  (NGX  =128   NGY  = 72   NGZ  =588)
  gives a total of  76415 points

 initial charge density was supplied:
 charge density of overlapping atoms calculated
 number of electron      16.0000000 magnetization
 keeping initial charge density in first step

 Maximum index for augmentation-charges         4659 (set IRDMAX)

 First call to EWALD:  gamma=   0.298
 Maximum number of real-space cells 4x 6x 1
 Maximum number of reciprocal cells 2x 1x 8

 FEWALD executed in parallel

----------------------------------------- Iteration    1(   1)  ---------------------------------------

 eigenvalue-minimisations  :  5928
 total energy-change (2. order) : 0.1912911E+03  (-0.1057237E+04)
 number of electron      16.0000000 magnetization
 augmentation part       16.0000000 magnetization

 Free energy of the ion-electron system (eV)
  alpha Z        PSCENC =         6.18334092
  Ewald energy   TEWEN  =      2584.33968562
  -Hartree energ DENC   =     -3009.79559843
  -exchange      EXHF   =         0.00000000
  -V(xc)+E(xc)   XCENC  =        55.09257536
  PAW double counting   =       151.32577238     -155.92769107
  entropy T*S    EENTRO =        -0.00136952
  eigenvalues    EBANDS =       -28.54917736
  atomic energy  EATOM  =       588.62352690
  free energy    TOTEN  =       191.29106483 eV

  energy without entropy =      191.29243434  energy(sigma->0) =      191.29174959

[...]

 eigenvalue-minimisations  : 10260
 total energy-change (2. order) :-0.2003205E+03  (-0.1763931E+03)
 number of electron      16.0000000 magnetization
 augmentation part       16.0000000 magnetization

[...]

 Broyden mixing:
  rms(total) = 0.73531E+00    rms(broyden)= 0.73531E+00
  rms(prec ) = 0.79939E+00
  weight for this iteration     100.00

[...]

 eigenvalues of (default mixing * dielectric matrix)
  average eigenvalue GAMMA=   2.3117
  2.3117

[...]

WARNING in EDDRMM: call to ZHEGV failed, returncode =   6  3  1

[...]

 average (electrostatic) potential at core
  the test charge radii are     0.6991
  (the norm of the test charge is              1.0000)
       1 -58.1913       2 -58.1913       3 -58.1913       4 -58.1913

 E-fermi :  -2.7548     XC(G=0):  -2.1427     alpha+bet : -1.9046

 k-point     1 :       0.0000    0.0000    0.0000
  band No.  band energies     occupation
      1     -22.2513      2.00000
      2     -17.0229      2.00000
      3     -15.9622      2.00000
      4     -10.3571      2.00000
      5      -9.1672      2.00000
      6      -5.8041      2.00000
      7      -5.7699      2.00000
      8      -5.1175      2.00000
      9      -1.0625      0.00000
     10       0.5241      0.00000
     11       1.3252      0.00000
     12       1.7083      0.00000

[...]

 soft charge-density along one line, spin component           1
         0         1         2         3         4         5         6         7         8         9
 total charge-density along one line

------------------------ aborting loop because EDIFF is reached ----------------------------------------

  FORCE on cell =-STRESS in cart. coord.  units (eV):
  Direction    XX          YY          ZZ          XY          YZ          ZX
  Alpha Z     6.18334     6.18334     6.18334
  Ewald    3121.27860  3122.23080 -3659.16998    -0.00000     0.00000    -0.00000
  Hartree  3055.55975  3055.68824 -3032.95688     0.00000    -0.00000    -0.00000
  E(xc)     -58.33620   -58.33240   -60.67313     0.00000     0.00000    -0.00000
  Local   -6349.38962 -6350.28814  6485.98121     0.00000     0.00000    -0.00000
  n-local   -13.94650   -13.93515   -12.76330     0.05719    -0.00000    -0.00000
  augment    -1.54017    -1.54165    -1.41379    -0.00000     0.00000    -0.00000
  Kinetic   240.14952   239.97151   274.81121    -4.60193     0.00000     0.00000
  Fock        0.00000     0.00000     0.00000     0.00000     0.00000     0.00000
  Total      -0.04128    -0.02345    -0.00132     0.00000     0.00000     0.00000
  in kB      -0.31366    -0.17816    -0.01004     0.00000     0.00000     0.00000

 VOLUME and BASIS-vectors are now :
  energy-cutoff  :     2000.00
  volume of cell :      210.84
      direct lattice vectors                 reciprocal lattice vectors
     4.273595431  0.000000000  0.000000000     0.233995009  0.000000000  0.000000000
     0.000000000  2.467669378  0.000000000     0.000000000  0.405240673  0.000000000
     0.000000000  0.000000000 19.992555329     0.000000000  0.000000000  0.050018619

[...]

 FORCES acting on ions
    electron-ion (+dipol)            ewald-force                    non-local-force                 convergence-correction
   0.136E+00 0.174E-15 0.286E-09   -.172E+00 -.940E-14 0.658E-31   -.204E-01 0.347E-17 0.000E+00   0.244E-07 -.200E-15 0.192E-12
   -.136E+00 0.985E-14 -.453E-08   0.172E+00 0.365E-14 -.564E-18   0.204E-01 -.139E-16 0.000E+00   -.244E-07 -.626E-15 0.191E-12
   0.136E+00 0.589E-12 0.300E-09   -.172E+00 -.642E-14 -.658E-31   -.204E-01 0.104E-16 0.000E+00   0.244E-07 -.158E-15 0.192E-12
   -.136E+00 -.301E-16 -.454E-08   0.172E+00 0.663E-14 0.564E-18   0.204E-01 -.139E-16 0.000E+00   -.244E-07 -.673E-15 0.191E-12
   -.450E-06 0.599E-12 -.849E-08   -.425E-14 -.554E-14 0.000E+00   0.347E-17 -.139E-16 0.000E+00   -.190E-13 -.166E-14 0.766E-12

 POSITION                                       TOTAL-FORCE (eV/Angst)
      0.00056      0.00000      0.00000        -0.056633      0.000000      0.000000
      0.71170      1.23383      0.00000         0.056633      0.000000     -0.000000
      2.13736      1.23383      0.00000        -0.056633      0.000000      0.000000
      2.84850      0.00000      0.00000         0.056633     -0.000000     -0.000000
    total drift:                               -0.000000      0.000000     -0.000000

  FREE ENERGIE OF THE ION-ELECTRON SYSTEM (eV)
  free  energy   TOTEN  =       -36.92542134 eV

  energy  without entropy=      -36.92529306  energy(sigma->0) =      -36.92535720

 Quasi-Newton relaxation of ions (Broydens 2nd method)
  g(Force)  = 0.619E-03   g(Stress)= 0.000E+00

 Reset! Starting new Quasi-Newton update for ions

[...]

 d Force =-0.9396075E-03[-0.250E-02, 0.619E-03]  d Energy =-0.9326598E-03-0.695E-05
 d Force =-0.3450638E-02[-0.878E-02, 0.188E-02]  d Ewald  =-0.3434276E-02-0.164E-04

[...]

 retain information from N=  1 steps
 eigenvalues of (default step * inverse Hessian matrix)
  average eigenvalue of G=   0.1986
 eigenvalue spectrum of G is  0.1986

[...]

 d Force = 0.9987772E-03[-0.455E-05, 0.200E-02]  d Energy = 0.9946747E-03 0.410E-05
 d Force = 0.3607345E-02[ 0.178E-03, 0.704E-02]  d Ewald  = 0.3598919E-02 0.843E-05

[...]

WARNING in EDDRMM: call to ZHEGV failed, returncode =   6  3  1

[...]

 d Force = 0.5115390E-08[-0.104E-09, 0.103E-07]  d Energy = 0.5803940E-08-0.689E-09
 d Force =-0.4211189E-06[-0.439E-06,-0.404E-06]  d Ewald  =-0.4211188E-06 0.000E+00

[...]

 eigenvalue-minimisations  :  5060
 total energy-change (2. order) : 0.5270522E-09  ( 0.5767326E-09)
 number of electron      16.0000000 magnetization
 augmentation part        0.3817185 magnetization

[...]

 eigenvalue-minimisations  :  1686
 total energy-change (2. order) :-0.2705747E-10  ( 0.5658848E-13)
 number of electron      16.0000000 magnetization
 augmentation part        0.3817185 magnetization

[...]

 d Force = 0.3070813E-12[-0.420E-12, 0.103E-11]  d Energy = 0.1949729E-09-0.195E-09
 d Force = 0.4363884E-08[ 0.436E-08, 0.437E-08]  d Ewald  = 0.4363756E-08 0.000E+00

[...]

 d Force =-0.2895233E-13[-0.179E-12, 0.121E-12]  d Energy =-0.1198259E-09 0.120E-09
 d Force =-0.1259757E-08[-0.126E-08,-0.126E-08]  d Ewald  =-0.1259650E-08 0.000E+00

[...]

 FEWALD executed in parallel

[...]

 eigenvalue-minimisations  :  4544
 total energy-change (2. order) : 0.7233893E-09  ( 0.5807266E-09)
 number of electron      16.0000000 magnetization
 augmentation part        0.3817185 magnetization

[...]

 eigenvalue-minimisations  :   533
 total energy-change (2. order) :-0.4731646E-09  (-0.7763337E-14)
 number of electron      16.0000000 magnetization
 augmentation part        0.3817185 magnetization

[...]

 eigenvalue-minimisations  :   410
 total energy-change (2. order) :-0.2512479E-10  ( 0.1282924E-14)
 number of electron      16.0000000 magnetization
 augmentation part        0.3817185 magnetization

 Broyden mixing:
  rms(total) = 0.65384E-10    rms(broyden)= 0.65374E-10
  rms(prec ) = 0.80535E-10
  weight for this iteration     100.00

 eigenvalues of (default mixing * dielectric matrix)
  average eigenvalue GAMMA=   2.0866
  0.9865  2.7222  2.5513

[...]

----------------------------------------- Iteration    7(   5)  ---------------------------------------

 eigenvalue-minimisations  :   731
 total energy-change (2. order) : 0.9129053E-10  (-0.1513193E-14)
 number of electron      16.0000000 magnetization
 augmentation part        0.3817185 magnetization

 Free energy of the ion-electron system (eV)
  alpha Z        PSCENC =         6.18334092
  Ewald energy   TEWEN  =      2584.33952140
  -Hartree energ DENC   =     -3078.29099579
  -exchange      EXHF   =         0.00000000
  -V(xc)+E(xc)   XCENC  =        57.51574132
  PAW double counting   =       276.92909725     -282.07727557
  entropy T*S    EENTRO =        -0.00013058
  eigenvalues    EBANDS =      -190.14830921
  atomic energy  EATOM  =       588.62352690
  free energy    TOTEN  =       -36.92548336 eV

  energy without entropy =      -36.92535278  energy(sigma->0) =      -36.92541807

 average (electrostatic) potential at core
  the test charge radii are     0.6991
  (the norm of the test charge is              1.0000)
       1 -58.1913       2 -58.1913       3 -58.1913       4 -58.1913

 E-fermi :  -2.7548     XC(G=0):  -2.1427     alpha+bet : -1.9046

[...]

 k-point   247 :       0.5000    0.5000    0.0000
  band No.  band energies     occupation
      1     -17.0205      2.00000
      2     -17.0205      2.00000
      3     -15.9714      2.00000
      4     -15.9714      2.00000
      5      -9.1575      2.00000
      6      -9.1575      2.00000
      7      -5.1111      2.00000
      8      -5.1111      2.00000
      9      -1.0765      0.00000
     10      -1.0765      0.00000
     11       4.6044      0.00000
     12       4.6044      0.00000

 soft charge-density along one line, spin component           1
         0         1         2         3         4         5         6         7         8         9
 total charge-density along one line

------------------------ aborting loop because EDIFF is reached ----------------------------------------

  FORCE on cell =-STRESS in cart. coord.  units (eV):
  Direction    XX          YY          ZZ          XY          YZ          ZX
  Alpha Z     6.18334     6.18334     6.18334
  Ewald    3121.75833  3121.75091 -3659.16998    -0.00000     0.00000    -0.00000
  Hartree  3055.62574  3055.62212 -3032.95686    -0.00000    -0.00000    -0.00000
  E(xc)     -58.33437   -58.33422   -60.67312     0.00000    -0.00000    -0.00000
  Local   -6349.84358 -6349.83405  6485.98124     0.00000     0.00000     0.00000
  n-local   -13.94263   -13.93903   -12.76329     0.05655     0.00000     0.00000
  augment    -1.54093    -1.54088    -1.41379     0.00000     0.00000    -0.00000
  Kinetic   240.07381   240.04708   274.81115    -4.59953     0.00000    -0.00000
  Fock        0.00000     0.00000     0.00000     0.00000     0.00000     0.00000
  Total      -0.02029    -0.04473    -0.00132     0.00000     0.00000     0.00000
  in kB      -0.15417    -0.33988    -0.01001     0.00000     0.00000     0.00000

 VOLUME and BASIS-vectors are now :
  energy-cutoff  :     2000.00
  volume of cell :      210.84
      direct lattice vectors                 reciprocal lattice vectors
     4.273595431  0.000000000  0.000000000     0.233995009  0.000000000  0.000000000
     0.000000000  2.467669378  0.000000000     0.000000000  0.405240673  0.000000000
     0.000000000  0.000000000 19.992555329     0.000000000  0.000000000  0.050018619

  length of vectors
     4.273595431  2.467669378 19.992555329     0.233995009  0.405240673  0.050018619

 FORCES acting on ions
    electron-ion (+dipol)            ewald-force                    non-local-force                 convergence-correction
   -.220E-01 0.671E-16 0.837E-11   0.221E-01 -.155E-14 -.186E-18   -.797E-04 0.000E+00 0.000E+00   0.498E-10 -.879E-15 0.116E-11
   0.220E-01 -.169E-12 -.517E-08   -.221E-01 -.258E-15 0.193E-18   0.797E-04 0.347E-17 -.323E-26   -.498E-10 -.752E-15 0.115E-11
   -.220E-01 0.589E-12 0.185E-10   0.221E-01 -.705E-14 0.188E-18   -.797E-04 0.000E+00 -.162E-26   0.498E-10 -.771E-15 0.117E-11
   0.220E-01 -.874E-16 -.519E-08   -.221E-01 0.332E-14 -.195E-18   0.797E-04 0.347E-17 0.323E-26   -.498E-10 -.826E-15 0.118E-11
   -.473E-06 0.419E-12 -.103E-07   -.414E-14 -.554E-14 0.000E+00   0.000E+00 0.694E-17 -.162E-26   -.716E-15 -.323E-14 0.466E-11

 POSITION                                       TOTAL-FORCE (eV/Angst)
      0.00001     -0.00000      0.00000         0.000001     -0.000000      0.000000
      0.71225      1.23383     -0.00000        -0.000001      0.000000      0.000000
      2.13681      1.23383      0.00000         0.000001      0.000000      0.000000
      2.84905      0.00000     -0.00000        -0.000001     -0.000000      0.000000
    total drift:                               -0.000000      0.000000     -0.000000

  FREE ENERGIE OF THE ION-ELECTRON SYSTEM (eV)
  free  energy   TOTEN  =       -36.92548336 eV

  energy  without entropy=      -36.92535278  energy(sigma->0) =      -36.92541807

 d Force = 0.6987848E-13[ 0.329E-13, 0.107E-12]  d Energy =-0.2752358E-09 0.275E-09
 d Force = 0.7513561E-09[ 0.751E-09, 0.751E-09]  d Ewald  = 0.7512426E-09 0.000E+00

 Quasi-Newton relaxation of ions (Broydens 2nd method)
  g(Force)  = 0.180E-12   g(Stress)= 0.000E+00

 retain information from N=  1 steps
 eigenvalues of (default step * inverse Hessian matrix)
  average eigenvalue of G=   0.0814
 eigenvalue spectrum of G is  0.0814

 reached required accuracy - stopping structural energy minimisation