 vasp.5.3.5 31Mar14 (build Mar 02 2015 18:14:16) complex

 executed on             LinuxIFC date 2018.08.10  14:45:14

 INCAR:
 POTCAR:   PAW_PBE C 08Apr2002
 POTCAR:   PAW_PBE C 08Apr2002
   VRHFIN =C: s2p2

   TITEL  = PAW_PBE C 08Apr2002
   POMASS =   12.011; ZVAL   =    4.000    mass and valenz
   ENMAX  =  400.000; ENMIN  =  300.000 eV
   QCUT   =   -5.516; QGAM   =   11.032    optimization parameters

   Description
     l     E      TYP  RCUT    TYP  RCUT
     0   .000     23  1.200
     0   .000     23  1.200
     1   .000     23  1.500
     1  2.500     23  1.500
     2   .000      7  1.500

 PAW_PBE C 08Apr2002                    :

 POSCAR: MD-kMC export data
  positions in direct lattice
  velocities in cartesian coordinates
 exchange correlation table for  LEXCH =        8
   RHO(1)=    0.500       N(1)  =     2000
   RHO(2)=  100.500       N(2)  =     4000

 ion  position               nearest neighbor table
   1  1.000  0.000  0.000-   4 1.42   2 1.43   2 1.43
   2  0.167  0.500  0.000-   3 1.42   1 1.43   1 1.43
   3  0.500  0.500  0.000-   2 1.42   4 1.43   4 1.43
   4  0.667  0.000  0.000-   1 1.42   3 1.43   3 1.43

  LATTYP: Found a simple orthorhombic cell.
 ALAT       =     2.4674477062
 B/A-ratio  =     1.7319388694
 C/A-ratio  =     8.1034928641

  Lattice vectors:

 A1 = (   0.0000000000,  -2.4674477062,   0.0000000000)
 A2 = (  -4.2734685906,   0.0000000000,   0.0000000000)
 A3 = (   0.0000000000,   0.0000000000, -19.9949448797)

Analysis of symmetry for initial positions (statically):
 Subroutine PRICEL returns following result:

  LATTYP: Found a base centered orthorhombic cell.
 ALAT       =     2.4674477062
 B/A-ratio  =     1.7319388694
 C/A-ratio  =     8.1034928641

[...]

   2 primitive cells build up your supercell.

 Routine SETGRP: Setting up the symmetry group for a
 simple orthorhombic supercell.

 Subroutine GETGRP returns: Found  8 space group operations
 (whereof  4 operations were pure point group operations)
 out of a pool of  8 trial point group operations.

The static configuration has the point symmetry C_2v.
 The point group associated with its full space group is D_2h.

Analysis of symmetry for dynamics (positions and initial velocities):
 Subroutine PRICEL returns following result:

  LATTYP: Found a base centered orthorhombic cell.
 ALAT       =     2.4674477062
 B/A-ratio  =     1.7319388694
 C/A-ratio  =     8.1034928641

  Lattice vectors:

 A1 = (   2.1367342953,  -1.2337238531,   0.0000000000)
 A2 = (  -2.1367342953,  -1.2337238531,   0.0000000000)
 A3 = (   0.0000000000,   0.0000000000, -19.9949448797)

   2 primitive cells build up your supercell.

 Routine SETGRP: Setting up the symmetry group for a
 simple orthorhombic supercell.

 Subroutine GETGRP returns: Found  8 space group operations
 (whereof  4 operations were pure point group operations)
 out of a pool of  8 trial point group operations.

The dynamic configuration has the point symmetry C_2v.
 The point group associated with its full space group is D_2h.

 KPOINTS: Automatic mesh

Automatic generation of k-mesh.
Space group operators:
 irot       det(A)        alpha          n_x          n_y          n_z        tau_x        tau_y        tau_z
    1     1.000000     0.000000     1.000000     0.000000     0.000000     0.000000     0.000000     0.000000
    2    -1.000000   180.000000     0.000000     0.000000     1.000000     0.000000     0.000000     0.000000
    3     1.000000   180.000000     1.000000     0.000000     0.000000     0.000000     0.000000     0.000000
    4    -1.000000   179.999999     0.000000     1.000000     0.000000     0.000000     0.000000     0.000000
    5    -1.000000     0.000000     1.000000     0.000000     0.000000     0.166667    -0.500000     0.000000
    6     1.000000   180.000000     0.000000     0.000000     1.000000     0.166667    -0.500000     0.000000
    7    -1.000000   180.000000     1.000000     0.000000     0.000000     0.166667    -0.500000     0.000000
    8     1.000000   179.999999     0.000000     1.000000     0.000000     0.166667    -0.500000     0.000000

 Subroutine IBZKPT returns following result:

 Found    247 irreducible k-points:

 Following reciprocal coordinates:
            Coordinates               Weight
  0.000000  0.000000  0.000000      1.000000
  0.041667  0.000000  0.000000      2.000000
  0.083333  0.000000  0.000000      2.000000
  0.125000  0.000000  0.000000      2.000000
  0.166667  0.000000  0.000000      2.000000
  0.208333  0.000000  0.000000      2.000000
  0.250000  0.000000  0.000000      2.000000
  0.291667  0.000000  0.000000      2.000000
  0.333333  0.000000  0.000000      2.000000
  0.375000  0.000000  0.000000      2.000000
  0.416667  0.000000  0.000000      2.000000
  0.458333  0.000000  0.000000      2.000000
  0.500000  0.000000  0.000000      1.000000
  0.000000  0.027778  0.000000      2.000000
  0.041667  0.027778  0.000000      4.000000
  0.083333  0.027778  0.000000      4.000000
  0.125000  0.027778  0.000000      4.000000
  0.166667  0.027778  0.000000      4.000000
  0.208333  0.027778  0.000000      4.000000
  0.250000  0.027778  0.000000      4.000000
  0.291667  0.027778  0.000000      4.000000
  0.333333  0.027778  0.000000      4.000000
  0.375000  0.027778  0.000000      4.000000
  0.416667  0.027778  0.000000      4.000000
  0.458333  0.027778  0.000000      4.000000
  0.500000  0.027778  0.000000      2.000000
  0.000000  0.055556  0.000000      2.000000
  0.041667  0.055556  0.000000      4.000000
  0.083333  0.055556  0.000000      4.000000
  0.125000  0.055556  0.000000      4.000000
  0.166667  0.055556  0.000000      4.000000
  0.208333  0.055556  0.000000      4.000000
  0.250000  0.055556  0.000000      4.000000
  0.291667  0.055556  0.000000      4.000000
  0.333333  0.055556  0.000000      4.000000
  0.375000  0.055556  0.000000      4.000000
  0.416667  0.055556  0.000000      4.000000
  0.458333  0.055556  0.000000      4.000000
  0.500000  0.055556  0.000000      2.000000
  0.000000  0.083333  0.000000      2.000000
  0.041667  0.083333  0.000000      4.000000
  0.083333  0.083333  0.000000      4.000000
  0.125000  0.083333  0.000000      4.000000
  0.166667  0.083333  0.000000      4.000000
  0.208333  0.083333  0.000000      4.000000
  0.250000  0.083333  0.000000      4.000000
  0.291667  0.083333  0.000000      4.000000
  0.333333  0.083333  0.000000      4.000000
  0.375000  0.083333  0.000000      4.000000
  0.416667  0.083333  0.000000      4.000000
  0.458333  0.083333  0.000000      4.000000
  0.500000  0.083333  0.000000      2.000000
  0.000000  0.111111  0.000000      2.000000
  0.041667  0.111111  0.000000      4.000000
  0.083333  0.111111  0.000000      4.000000
  0.125000  0.111111  0.000000      4.000000
  0.166667  0.111111  0.000000      4.000000
  0.208333  0.111111  0.000000      4.000000
  0.250000  0.111111  0.000000      4.000000
  0.291667  0.111111  0.000000      4.000000
[...]
  0.458333  0.472222  0.000000      4.000000
  0.500000  0.472222  0.000000      2.000000
  0.000000  0.500000  0.000000      1.000000
  0.041667  0.500000  0.000000      2.000000
  0.083333  0.500000  0.000000      2.000000
  0.125000  0.500000  0.000000      2.000000
  0.166667  0.500000  0.000000      2.000000
  0.208333  0.500000  0.000000      2.000000
  0.250000  0.500000  0.000000      2.000000
  0.291667  0.500000  0.000000      2.000000
  0.333333  0.500000  0.000000      2.000000
  0.375000  0.500000  0.000000      2.000000
  0.416667  0.500000  0.000000      2.000000
  0.458333  0.500000  0.000000      2.000000
  0.500000  0.500000  0.000000      1.000000

 Following cartesian coordinates:
            Coordinates               Weight
  0.000000  0.000000  0.000000      1.000000
  0.009750  0.000000  0.000000      2.000000
  0.019500  0.000000  0.000000      2.000000
  0.029250  0.000000  0.000000      2.000000
  0.039000  0.000000  0.000000      2.000000
  0.048750  0.000000  0.000000      2.000000
  0.058500  0.000000  0.000000      2.000000
  0.068251  0.000000  0.000000      2.000000
  0.078001  0.000000  0.000000      2.000000
  0.087751  0.000000  0.000000      2.000000
  0.097501  0.000000  0.000000      2.000000
  0.107251  0.000000  0.000000      2.000000
  0.117001  0.000000  0.000000      1.000000
  0.000000  0.011258  0.000000      2.000000
  0.009750  0.011258  0.000000      4.000000
  0.019500  0.011258  0.000000      4.000000
  0.029250  0.011258  0.000000      4.000000
  0.039000  0.011258  0.000000      4.000000
  0.048750  0.011258  0.000000      4.000000
  0.058500  0.011258  0.000000      4.000000
  0.068251  0.011258  0.000000      4.000000
  0.078001  0.011258  0.000000      4.000000
  0.087751  0.011258  0.000000      4.000000
  0.097501  0.011258  0.000000      4.000000
  0.107251  0.011258  0.000000      4.000000
  0.117001  0.011258  0.000000      2.000000
  0.000000  0.022515  0.000000      2.000000
  0.009750  0.022515  0.000000      4.000000
  0.019500  0.022515  0.000000      4.000000
  0.029250  0.022515  0.000000      4.000000
  0.039000  0.022515  0.000000      4.000000
  0.048750  0.022515  0.000000      4.000000
  0.058500  0.022515  0.000000      4.000000
  0.068251  0.022515  0.000000      4.000000
  0.078001  0.022515  0.000000      4.000000
  0.087751  0.022515  0.000000      4.000000
  0.097501  0.022515  0.000000      4.000000
  0.107251  0.022515  0.000000      4.000000
  0.117001  0.022515  0.000000      2.000000
  0.000000  0.033773  0.000000      2.000000
  0.009750  0.033773  0.000000      4.000000
  0.019500  0.033773  0.000000      4.000000
  0.029250  0.033773  0.000000      4.000000
  0.039000  0.033773  0.000000      4.000000
  0.048750  0.033773  0.000000      4.000000
  0.058500  0.033773  0.000000      4.000000
  0.068251  0.033773  0.000000      4.000000
  0.078001  0.033773  0.000000      4.000000
  0.087751  0.033773  0.000000      4.000000
  0.097501  0.033773  0.000000      4.000000
  0.107251  0.033773  0.000000      4.000000
  0.117001  0.033773  0.000000      2.000000
  0.000000  0.045031  0.000000      2.000000
  0.009750  0.045031  0.000000      4.000000
  0.019500  0.045031  0.000000      4.000000
  0.029250  0.045031  0.000000      4.000000
  0.039000  0.045031  0.000000      4.000000
  0.048750  0.045031  0.000000      4.000000
  0.058500  0.045031  0.000000      4.000000
  0.068251  0.045031  0.000000      4.000000
[...]
  0.107251  0.191381  0.000000      4.000000
  0.117001  0.191381  0.000000      2.000000
  0.000000  0.202639  0.000000      1.000000
  0.009750  0.202639  0.000000      2.000000
  0.019500  0.202639  0.000000      2.000000
  0.029250  0.202639  0.000000      2.000000
  0.039000  0.202639  0.000000      2.000000
  0.048750  0.202639  0.000000      2.000000
  0.058500  0.202639  0.000000      2.000000
  0.068251  0.202639  0.000000      2.000000
  0.078001  0.202639  0.000000      2.000000
  0.087751  0.202639  0.000000      2.000000
  0.097501  0.202639  0.000000      2.000000
  0.107251  0.202639  0.000000      2.000000
  0.117001  0.202639  0.000000      1.000000

 I would recommend the setting:
   dimension x,y,z NGX =    62 NGY =   36 NGZ =  292
[...]
 k-point ** :   0.4167 0.2778 0.0000  plane waves:   42810
 k-point ** :   0.4583 0.2778 0.0000  plane waves:   42820
 k-point ** :   0.5000 0.2778 0.0000  plane waves:   42838
 k-point ** :   0.0000 0.3056 0.0000  plane waves:   42886
 k-point ** :   0.0417 0.3056 0.0000  plane waves:   42898
 k-point ** :   0.0833 0.3056 0.0000  plane waves:   42877
 k-point ** :   0.1250 0.3056 0.0000  plane waves:   42855
 k-point ** :   0.1667 0.3056 0.0000  plane waves:   42888
 k-point ** :   0.2083 0.3056 0.0000  plane waves:   42864
 k-point ** :   0.2500 0.3056 0.0000  plane waves:   42845
 k-point ** :   0.2917 0.3056 0.0000  plane waves:   42839
 k-point ** :   0.3333 0.3056 0.0000  plane waves:   42840
 k-point ** :   0.3750 0.3056 0.0000  plane waves:   42830
 k-point ** :   0.4167 0.3056 0.0000  plane waves:   42818
 k-point ** :   0.4583 0.3056 0.0000  plane waves:   42814
 k-point ** :   0.5000 0.3056 0.0000  plane waves:   42852
 k-point ** :   0.0000 0.3333 0.0000  plane waves:   42916
 k-point ** :   0.0417 0.3333 0.0000  plane waves:   42901
 k-point ** :   0.0833 0.3333 0.0000  plane waves:   42877
[...]
 k-point ** :   0.4583 0.4722 0.0000  plane waves:   42813
 k-point ** :   0.5000 0.4722 0.0000  plane waves:   42834
 k-point ** :   0.0000 0.5000 0.0000  plane waves:   42878
 k-point ** :   0.0417 0.5000 0.0000  plane waves:   42948
 k-point ** :   0.0833 0.5000 0.0000  plane waves:   42928
 k-point ** :   0.1250 0.5000 0.0000  plane waves:   42926
 k-point ** :   0.1667 0.5000 0.0000  plane waves:   42910
 k-point ** :   0.2083 0.5000 0.0000  plane waves:   42950
 k-point ** :   0.2500 0.5000 0.0000  plane waves:   42932
 k-point ** :   0.2917 0.5000 0.0000  plane waves:   42892
 k-point ** :   0.3333 0.5000 0.0000  plane waves:   42842
 k-point ** :   0.3750 0.5000 0.0000  plane waves:   42822
 k-point ** :   0.4167 0.5000 0.0000  plane waves:   42796
 k-point ** :   0.4583 0.5000 0.0000  plane waves:   42822
 k-point ** :   0.5000 0.5000 0.0000  plane waves:   42816

 maximum and minimum number of plane-waves per node :     21511    21250

 maximum number of plane-waves:     42950
 maximum index in each direction:
   IXMAX=   15   IYMAX=    8   IZMAX=   72
   IXMIN=  -16   IYMIN=   -9   IZMIN=  -72

 NGX is ok and might be reduce to  64
 NGY is ok and might be reduce to  36
 NGZ is ok and might be reduce to 290

 parallel 3D FFT for wavefunctions:
    minimum data exchange during FFTs selected (reduces bandwidth)
 parallel 3D FFT for charge:
    minimum data exchange during FFTs selected (reduces bandwidth)

 Broyden mixing: mesh for mixing (old mesh)
   NGX = 31   NGY = 17   NGZ =145
  (NGX  =128   NGY  = 72   NGZ  =588)
  gives a total of  76415 points

 initial charge density was supplied:
 charge density of overlapping atoms calculated
 number of electron      16.0000000 magnetization
 keeping initial charge density in first step

 Maximum index for augmentation-charges         4659 (set IRDMAX)

 First call to EWALD:  gamma=   0.298
 Maximum number of real-space cells 4x 6x 1
 Maximum number of reciprocal cells 2x 1x 8

 FEWALD executed in parallel

----------------------------------------- Iteration    1(   1)  ---------------------------------------

 eigenvalue-minimisations  :  5928
 total energy-change (2. order) : 0.1897719E+03  (-0.1061912E+04)
 number of electron      16.0000000 magnetization
 augmentation part       16.0000000 magnetization

 Free energy of the ion-electron system (eV)
  alpha Z        PSCENC =         6.18334092
  Ewald energy   TEWEN  =      2585.15028327
  -Hartree energ DENC   =     -3010.58193649
  -exchange      EXHF   =         0.00000000
  -V(xc)+E(xc)   XCENC  =        55.09420617
  PAW double counting   =       151.32577238     -155.92769107
  entropy T*S    EENTRO =        -0.00134974
  eigenvalues    EBANDS =       -30.09420819
  atomic energy  EATOM  =       588.62352690
  free energy    TOTEN  =       189.77194415 eV

  energy without entropy =      189.77329389  energy(sigma->0) =      189.77261902

[...]

 eigenvalue-minimisations  : 10376
 total energy-change (2. order) :-0.1990302E+03  (-0.1764890E+03)
 number of electron      16.0000000 magnetization
 augmentation part       16.0000000 magnetization

[...]

 Broyden mixing:
  rms(total) = 0.73588E+00    rms(broyden)= 0.73588E+00
  rms(prec ) = 0.80004E+00
  weight for this iteration     100.00

[...]

 eigenvalues of (default mixing * dielectric matrix)
  average eigenvalue GAMMA=   2.3172
  2.3172

[...]

WARNING in EDDRMM: call to ZHEGV failed, returncode =   6  3  1
WARNING in EDDRMM: call to ZHEGV failed, returncode =   6  3  1

[...]

 average (electrostatic) potential at core
  the test charge radii are     0.6991
  (the norm of the test charge is              1.0000)
       1 -58.1906       2 -58.1906       3 -58.1906       4 -58.1906

 E-fermi :  -2.7543     XC(G=0):  -2.1460     alpha+bet : -1.9046

 k-point     1 :       0.0000    0.0000    0.0000
  band No.  band energies     occupation
      1     -22.2523      2.00000
      2     -17.0152      2.00000
      3     -15.9812      2.00000
      4     -10.3579      2.00000
      5      -9.1518      2.00000
      6      -5.8025      2.00000
      7      -5.7705      2.00000
      8      -5.1023      2.00000
      9      -1.0883      0.00000
     10       0.5239      0.00000
     11       1.3242      0.00000
     12       1.7015      0.00000

[...]

 soft charge-density along one line, spin component           1
         0         1         2         3         4         5         6         7         8         9
 total charge-density along one line

------------------------ aborting loop because EDIFF is reached ----------------------------------------

  FORCE on cell =-STRESS in cart. coord.  units (eV):
  Direction    XX          YY          ZZ          XY          YZ          ZX
  Alpha Z     6.18334     6.18334     6.18334
  Ewald    3123.07831  3122.11645 -3660.04474     0.00000     0.00000    -0.00000
  Hartree  3056.50195  3056.36832 -3033.77058    -0.00000    -0.00000    -0.00000
  E(xc)     -58.33467   -58.33821   -60.67537     0.00000    -0.00000    -0.00000
  Local   -6351.94317 -6351.03218  6487.66430    -0.00000    -0.00000     0.00000
  n-local   -13.94101   -13.94687   -12.76497     0.05576    -0.00000    -0.00000
  augment    -1.54206    -1.54050    -1.41404    -0.00000     0.00000     0.00000
  Kinetic   240.00918   240.14577   274.82073    -4.59719     0.00000     0.00000
  Fock        0.00000     0.00000     0.00000     0.00000     0.00000     0.00000
  Total       0.01186    -0.04389    -0.00133     0.00000     0.00000     0.00000
  in kB       0.09015    -0.33350    -0.01007     0.00000     0.00000     0.00000

 VOLUME and BASIS-vectors are now :
  energy-cutoff  :     2000.00
  volume of cell :      210.84
      direct lattice vectors                 reciprocal lattice vectors
     4.273468591  0.000000000  0.000000000     0.234001954  0.000000000  0.000000000
     0.000000000  2.467447706  0.000000000     0.000000000  0.405277079  0.000000000
     0.000000000  0.000000000 19.994944880     0.000000000  0.000000000  0.050012641

[...]

 FORCES acting on ions
    electron-ion (+dipol)            ewald-force                    non-local-force                 convergence-correction
   -.169E+00 0.397E-15 -.317E-09   0.206E+00 -.126E-14 -.963E-34   0.204E-01 -.104E-16 -.414E-24   0.791E-06 -.155E-14 0.197E-12
   0.169E+00 0.106E-13 -.580E-08   -.206E+00 -.800E-15 -.161E-17   -.204E-01 0.139E-16 0.414E-24   -.791E-06 -.337E-15 0.197E-12
   -.169E+00 -.201E-12 -.351E-09   0.206E+00 -.511E-15 0.000E+00   0.204E-01 -.347E-17 -.414E-24   0.791E-06 -.149E-14 0.198E-12
   0.169E+00 0.134E-15 -.583E-08   -.206E+00 -.535E-16 0.161E-17   -.204E-01 0.139E-16 0.414E-24   -.791E-06 -.381E-15 0.197E-12
   -.494E-06 -.190E-12 -.123E-07   0.369E-14 -.262E-14 0.000E+00   0.694E-17 0.139E-16 0.000E+00   -.249E-12 -.376E-14 0.789E-12

 POSITION                                       TOTAL-FORCE (eV/Angst)
      4.27293      0.00000      0.00000         0.056886      0.000000     -0.000000
      0.71278      1.23372      0.00000        -0.056886      0.000000      0.000000
      2.13620      1.23372      0.00000         0.056886      0.000000     -0.000000
      2.84952      0.00000      0.00000        -0.056886     -0.000000      0.000000
    total drift:                               -0.000000     -0.000000     -0.000000

  FREE ENERGIE OF THE ION-ELECTRON SYSTEM (eV)
  free  energy   TOTEN  =       -36.92542452 eV

  energy  without entropy=      -36.92529693  energy(sigma->0) =      -36.92536072

 Quasi-Newton relaxation of ions (Broydens 2nd method)
  g(Force)  = 0.624E-03   g(Stress)= 0.000E+00

 Reset! Starting new Quasi-Newton update for ions

[...]

 d Force =-0.9357699E-03[-0.250E-02, 0.624E-03]  d Energy =-0.9359061E-03 0.136E-06
 d Force =-0.3058930E-02[-0.838E-02, 0.226E-02]  d Ewald  =-0.3075477E-02 0.165E-04

[...]

 retain information from N=  1 steps
 eigenvalues of (default step * inverse Hessian matrix)
  average eigenvalue of G=   0.2001
 eigenvalue spectrum of G is  0.2001

[...]

WARNING in EDDRMM: call to ZHEGV failed, returncode =   6  3  1

[...]

 d Force = 0.9986765E-03[ 0.850E-06, 0.200E-02]  d Energy = 0.9982281E-03 0.448E-06
 d Force = 0.3304501E-02[-0.921E-04, 0.670E-02]  d Ewald  = 0.3312967E-02-0.847E-05

[...]

 d Force = 0.2002124E-09[ 0.384E-10, 0.362E-09]  d Energy = 0.1515218E-08-0.132E-08
 d Force =-0.3984455E-07[-0.405E-07,-0.392E-07]  d Ewald  =-0.3984496E-07 0.455E-12

[...]

 eigenvalue-minimisations  :  5728
 total energy-change (2. order) : 0.1272156E-09  ( 0.5622143E-09)
 number of electron      16.0000000 magnetization
 augmentation part        0.3817728 magnetization

[...]

 eigenvalue-minimisations  :  2959
 total energy-change (2. order) :-0.5411493E-09  ( 0.3436634E-13)
 number of electron      16.0000000 magnetization
 augmentation part        0.3817728 magnetization

[...]

 d Force = 0.2604751E-11[ 0.665E-12, 0.454E-11]  d Energy = 0.7187282E-09-0.716E-09
 d Force =-0.4803280E-08[-0.481E-08,-0.479E-08]  d Ewald  =-0.4803496E-08 0.000E+00

[...]

 eigenvalue-minimisations  :  1150
 total energy-change (2. order) :-0.1080025E-09  (-0.8388352E-15)
 number of electron      16.0000000 magnetization
 augmentation part        0.3817728 magnetization

[...]

 eigenvalue-minimisations  :  1111
 total energy-change (2. order) : 0.6411938E-10  (-0.2179327E-14)
 number of electron      16.0000000 magnetization
 augmentation part        0.3817728 magnetization

[...]

 d Force =-0.4164993E-13[-0.197E-12, 0.114E-12]  d Energy =-0.1718945E-09 0.172E-09
 d Force =-0.8249981E-09[-0.825E-09,-0.825E-09]  d Ewald  =-0.8249117E-09 0.000E+00

[...]

 FEWALD executed in parallel

[...]

 eigenvalue-minimisations  :   949
 total energy-change (2. order) : 0.5309175E-10  ( 0.0000000E+00)
 number of electron      16.0000000 magnetization
 augmentation part        0.3817728 magnetization

 Broyden mixing:
  rms(total) = 0.13724E-09    rms(broyden)= 0.13723E-09
  rms(prec ) = 0.35870E-09
  weight for this iteration     100.00

 eigenvalues of (default mixing * dielectric matrix)
  average eigenvalue GAMMA=   2.0438
  2.7294  2.5737  0.8282

[...]

----------------------------------------- Iteration    7(   5)  ---------------------------------------

 eigenvalue-minimisations  :   626
 total energy-change (2. order) :-0.2728484E-11  ( 0.0000000E+00)
 number of electron      16.0000000 magnetization
 augmentation part        0.3817728 magnetization

 Free energy of the ion-electron system (eV)
  alpha Z        PSCENC =         6.18334092
  Ewald energy   TEWEN  =      2585.15004582
  -Hartree energ DENC   =     -3079.09950336
  -exchange      EXHF   =         0.00000000
  -V(xc)+E(xc)   XCENC  =        57.51795260
  PAW double counting   =       276.97784090     -282.12624156
  entropy T*S    EENTRO =        -0.00013059
  eigenvalues    EBANDS =      -190.15231848
  atomic energy  EATOM  =       588.62352690
  free energy    TOTEN  =       -36.92548685 eV

  energy without entropy =      -36.92535625  energy(sigma->0) =      -36.92542155

 average (electrostatic) potential at core
  the test charge radii are     0.6991
  (the norm of the test charge is              1.0000)
       1 -58.1906       2 -58.1906       3 -58.1906       4 -58.1906

 E-fermi :  -2.7543     XC(G=0):  -2.1425     alpha+bet : -1.9046

[...]

 k-point   247 :       0.5000    0.5000    0.0000
  band No.  band energies     occupation
      1     -17.0204      2.00000
      2     -17.0204      2.00000
      3     -15.9721      2.00000
      4     -15.9721      2.00000
      5      -9.1579      2.00000
      6      -9.1579      2.00000
      7      -5.1108      2.00000
      8      -5.1108      2.00000
      9      -1.0760      0.00000
     10      -1.0760      0.00000
     11       4.6059      0.00000
     12       4.6059      0.00000

 soft charge-density along one line, spin component           1
         0         1         2         3         4         5         6         7         8         9
 total charge-density along one line

------------------------ aborting loop because EDIFF is reached ----------------------------------------

  FORCE on cell =-STRESS in cart. coord.  units (eV):
  Direction    XX          YY          ZZ          XY          YZ          ZX
  Alpha Z     6.18334     6.18334     6.18334
  Ewald    3122.59780  3122.59673 -3660.04474    -0.00000     0.00000    -0.00000
  Hartree  3056.43573  3056.43434 -3033.77057     0.00000    -0.00000    -0.00000
  E(xc)     -58.33648   -58.33638   -60.67536     0.00000    -0.00000    -0.00000
  Local   -6351.48858 -6351.48654  6487.66436     0.00000     0.00000    -0.00000
  n-local   -13.94487   -13.94302   -12.76496     0.05640    -0.00000     0.00000
  augment    -1.54130    -1.54126    -1.41404    -0.00000     0.00000     0.00000
  Kinetic   240.08478   240.06998   274.82065    -4.59962     0.00000    -0.00000
  Fock        0.00000     0.00000     0.00000     0.00000     0.00000     0.00000
  Total      -0.00958    -0.02281    -0.00132     0.00000     0.00000     0.00000
  in kB      -0.07279    -0.17333    -0.01002     0.00000     0.00000     0.00000

 VOLUME and BASIS-vectors are now :
  energy-cutoff  :     2000.00
  volume of cell :      210.84
      direct lattice vectors                 reciprocal lattice vectors
     4.273468591  0.000000000  0.000000000     0.234001954  0.000000000  0.000000000
     0.000000000  2.467447706  0.000000000     0.000000000  0.405277079  0.000000000
     0.000000000  0.000000000 19.994944880     0.000000000  0.000000000  0.050012641

  length of vectors
     4.273468591  2.467447706 19.994944880     0.234001954  0.405277079  0.050012641

 FORCES acting on ions
    electron-ion (+dipol)            ewald-force                    non-local-force                 convergence-correction
   -.108E-01 0.190E-15 0.528E-10   0.109E-01 -.546E-14 0.154E-17   -.602E-04 0.000E+00 0.808E-27   0.360E-09 -.170E-14 -.518E-12
   0.108E-01 0.204E-12 -.517E-08   -.109E-01 0.152E-15 -.916E-18   0.602E-04 0.347E-17 0.000E+00   -.360E-09 -.807E-16 -.520E-12
   -.108E-01 0.696E-12 0.184E-10   0.109E-01 -.146E-14 0.197E-18   -.602E-04 0.000E+00 0.000E+00   0.360E-09 0.264E-15 -.516E-12
   0.108E-01 0.120E-15 -.518E-08   -.109E-01 0.415E-14 -.818E-18   0.602E-04 0.347E-17 0.000E+00   -.360E-09 -.190E-14 -.517E-12
   -.471E-06 0.900E-12 -.103E-07   0.350E-14 -.262E-14 0.000E+00   0.136E-19 0.694E-17 0.808E-27   -.166E-14 -.341E-14 -.207E-11

 POSITION                                       TOTAL-FORCE (eV/Angst)
      4.27348     -0.00000     -0.00000         0.000001      0.000000     -0.000000
      0.71224      1.23372      0.00000        -0.000001     -0.000000      0.000000
      2.13674      1.23372     -0.00000         0.000001     -0.000000     -0.000000
      2.84897     -0.00000      0.00000        -0.000001      0.000000      0.000000
    total drift:                               -0.000000      0.000000     -0.000000

  FREE ENERGIE OF THE ION-ELECTRON SYSTEM (eV)
  free  energy   TOTEN  =       -36.92548685 eV

  energy  without entropy=      -36.92535625  energy(sigma->0) =      -36.92542155

 d Force = 0.8305260E-13[ 0.411E-13, 0.125E-12]  d Energy = 0.1693934E-09-0.169E-09
 d Force = 0.5229621E-09[ 0.523E-09, 0.523E-09]  d Ewald  = 0.5225047E-09 0.455E-12

 Quasi-Newton relaxation of ions (Broydens 2nd method)
  g(Force)  = 0.140E-12   g(Stress)= 0.000E+00

 retain information from N=  1 steps
 eigenvalues of (default step * inverse Hessian matrix)
  average eigenvalue of G=   0.1430
 eigenvalue spectrum of G is  0.1430

 reached required accuracy - stopping structural energy minimisation