 vasp.5.3.5 31Mar14 (build Mar 02 2015 18:14:16) complex

 executed on             LinuxIFC date 2018.08.09  19:18:00

 INCAR:
 POTCAR:   PAW_PBE C 08Apr2002
 POTCAR:   PAW_PBE C 08Apr2002
   VRHFIN =C: s2p2

   TITEL  = PAW_PBE C 08Apr2002
   POMASS =   12.011; ZVAL   =    4.000    mass and valenz
   ENMAX  =  400.000; ENMIN  =  300.000 eV
   QCUT   =   -5.516; QGAM   =   11.032    optimization parameters

   Description
     l     E      TYP  RCUT    TYP  RCUT
     0   .000     23  1.200
     0   .000     23  1.200
     1   .000     23  1.500
     1  2.500     23  1.500
     2   .000      7  1.500

 PAW_PBE C 08Apr2002                    :

 POSCAR: MD-kMC export data
  positions in direct lattice
  velocities in cartesian coordinates
 exchange correlation table for  LEXCH =        8
   RHO(1)=    0.500       N(1)  =     2000
   RHO(2)=  100.500       N(2)  =     4000

 ion  position               nearest neighbor table
   1  0.000  0.000  0.000-   4 1.42   2 1.43   2 1.43
   2  0.166  0.500  0.000-   3 1.42   1 1.43   1 1.43
   3  0.500  0.500  0.000-   2 1.42   4 1.43   4 1.43
   4  0.666  0.000  0.000-   1 1.42   3 1.43   3 1.43

  LATTYP: Found a simple orthorhombic cell.
 ALAT       =     2.4916033778
 B/A-ratio  =     1.7120521171
 C/A-ratio  =     7.9615013092

  Lattice vectors:

 A1 = (   0.0000000000,  -2.4916033778,   0.0000000000)
 A2 = (  -4.2657548380,   0.0000000000,   0.0000000000)
 A3 = (   0.0000000000,   0.0000000000, -19.8369035541)

Analysis of symmetry for initial positions (statically):
 Subroutine PRICEL returns following result:

  LATTYP: Found a base centered orthorhombic cell.
 ALAT       =     2.4916033778
 B/A-ratio  =     1.7120521171
 C/A-ratio  =     7.9615013092

[...]

   2 primitive cells build up your supercell.

 Routine SETGRP: Setting up the symmetry group for a
 simple orthorhombic supercell.

 Subroutine GETGRP returns: Found  8 space group operations
 (whereof  4 operations were pure point group operations)
 out of a pool of  8 trial point group operations.

The static configuration has the point symmetry C_2v.
 The point group associated with its full space group is D_2h.

Analysis of symmetry for dynamics (positions and initial velocities):
 Subroutine PRICEL returns following result:

  LATTYP: Found a base centered orthorhombic cell.
 ALAT       =     2.4916033778
 B/A-ratio  =     1.7120521171
 C/A-ratio  =     7.9615013092

  Lattice vectors:

 A1 = (   2.1328774190,  -1.2458016889,   0.0000000000)
 A2 = (  -2.1328774190,  -1.2458016889,   0.0000000000)
 A3 = (   0.0000000000,   0.0000000000, -19.8369035541)

   2 primitive cells build up your supercell.

 Routine SETGRP: Setting up the symmetry group for a
 simple orthorhombic supercell.

 Subroutine GETGRP returns: Found  8 space group operations
 (whereof  4 operations were pure point group operations)
 out of a pool of  8 trial point group operations.

The dynamic configuration has the point symmetry C_2v.
 The point group associated with its full space group is D_2h.

 KPOINTS: Automatic mesh

Automatic generation of k-mesh.
Space group operators:
 irot       det(A)        alpha          n_x          n_y          n_z        tau_x        tau_y        tau_z
    1     1.000000     0.000000     1.000000     0.000000     0.000000     0.000000     0.000000     0.000000
    2    -1.000000   180.000000     0.000000     0.000000     1.000000     0.000000     0.000000     0.000000
    3     1.000000   180.000000     1.000000     0.000000     0.000000     0.000000     0.000000     0.000000
    4    -1.000000   180.000000     0.000000     1.000000     0.000000     0.000000     0.000000     0.000000
    5    -1.000000     0.000000     1.000000     0.000000     0.000000     0.166667    -0.500000     0.000000
    6     1.000000   180.000000     0.000000     0.000000     1.000000     0.166667    -0.500000     0.000000
    7    -1.000000   180.000000     1.000000     0.000000     0.000000     0.166667    -0.500000     0.000000
    8     1.000000   180.000000     0.000000     1.000000     0.000000     0.166667    -0.500000     0.000000

 Subroutine IBZKPT returns following result:

 Found    247 irreducible k-points:

 Following reciprocal coordinates:
            Coordinates               Weight
  0.000000  0.000000  0.000000      1.000000
  0.041667  0.000000  0.000000      2.000000
  0.083333  0.000000  0.000000      2.000000
  0.125000  0.000000  0.000000      2.000000
  0.166667  0.000000  0.000000      2.000000
  0.208333  0.000000  0.000000      2.000000
  0.250000  0.000000  0.000000      2.000000
  0.291667  0.000000  0.000000      2.000000
  0.333333  0.000000  0.000000      2.000000
  0.375000  0.000000  0.000000      2.000000
  0.416667  0.000000  0.000000      2.000000
  0.458333  0.000000  0.000000      2.000000
  0.500000  0.000000  0.000000      1.000000
  0.000000  0.027778  0.000000      2.000000
  0.041667  0.027778  0.000000      4.000000
  0.083333  0.027778  0.000000      4.000000
  0.125000  0.027778  0.000000      4.000000
  0.166667  0.027778  0.000000      4.000000
  0.208333  0.027778  0.000000      4.000000
  0.250000  0.027778  0.000000      4.000000
  0.291667  0.027778  0.000000      4.000000
  0.333333  0.027778  0.000000      4.000000
  0.375000  0.027778  0.000000      4.000000
  0.416667  0.027778  0.000000      4.000000
  0.458333  0.027778  0.000000      4.000000
  0.500000  0.027778  0.000000      2.000000
  0.000000  0.055556  0.000000      2.000000
  0.041667  0.055556  0.000000      4.000000
  0.083333  0.055556  0.000000      4.000000
  0.125000  0.055556  0.000000      4.000000
  0.166667  0.055556  0.000000      4.000000
  0.208333  0.055556  0.000000      4.000000
  0.250000  0.055556  0.000000      4.000000
  0.291667  0.055556  0.000000      4.000000
  0.333333  0.055556  0.000000      4.000000
  0.375000  0.055556  0.000000      4.000000
  0.416667  0.055556  0.000000      4.000000
  0.458333  0.055556  0.000000      4.000000
  0.500000  0.055556  0.000000      2.000000
  0.000000  0.083333  0.000000      2.000000
  0.041667  0.083333  0.000000      4.000000
  0.083333  0.083333  0.000000      4.000000
  0.125000  0.083333  0.000000      4.000000
  0.166667  0.083333  0.000000      4.000000
  0.208333  0.083333  0.000000      4.000000
  0.250000  0.083333  0.000000      4.000000
  0.291667  0.083333  0.000000      4.000000
  0.333333  0.083333  0.000000      4.000000
  0.375000  0.083333  0.000000      4.000000
  0.416667  0.083333  0.000000      4.000000
  0.458333  0.083333  0.000000      4.000000
  0.500000  0.083333  0.000000      2.000000
  0.000000  0.111111  0.000000      2.000000
  0.041667  0.111111  0.000000      4.000000
  0.083333  0.111111  0.000000      4.000000
  0.125000  0.111111  0.000000      4.000000
  0.166667  0.111111  0.000000      4.000000
  0.208333  0.111111  0.000000      4.000000
  0.250000  0.111111  0.000000      4.000000
  0.291667  0.111111  0.000000      4.000000
[...]
  0.458333  0.472222  0.000000      4.000000
  0.500000  0.472222  0.000000      2.000000
  0.000000  0.500000  0.000000      1.000000
  0.041667  0.500000  0.000000      2.000000
  0.083333  0.500000  0.000000      2.000000
  0.125000  0.500000  0.000000      2.000000
  0.166667  0.500000  0.000000      2.000000
  0.208333  0.500000  0.000000      2.000000
  0.250000  0.500000  0.000000      2.000000
  0.291667  0.500000  0.000000      2.000000
  0.333333  0.500000  0.000000      2.000000
  0.375000  0.500000  0.000000      2.000000
  0.416667  0.500000  0.000000      2.000000
  0.458333  0.500000  0.000000      2.000000
  0.500000  0.500000  0.000000      1.000000

 Following cartesian coordinates:
            Coordinates               Weight
  0.000000  0.000000  0.000000      1.000000
  0.009768  0.000000  0.000000      2.000000
  0.019535  0.000000  0.000000      2.000000
  0.029303  0.000000  0.000000      2.000000
  0.039071  0.000000  0.000000      2.000000
  0.048839  0.000000  0.000000      2.000000
  0.058606  0.000000  0.000000      2.000000
  0.068374  0.000000  0.000000      2.000000
  0.078142  0.000000  0.000000      2.000000
  0.087909  0.000000  0.000000      2.000000
  0.097677  0.000000  0.000000      2.000000
  0.107445  0.000000  0.000000      2.000000
  0.117213  0.000000  0.000000      1.000000
  0.000000  0.011149  0.000000      2.000000
  0.009768  0.011149  0.000000      4.000000
  0.019535  0.011149  0.000000      4.000000
  0.029303  0.011149  0.000000      4.000000
  0.039071  0.011149  0.000000      4.000000
  0.048839  0.011149  0.000000      4.000000
  0.058606  0.011149  0.000000      4.000000
  0.068374  0.011149  0.000000      4.000000
  0.078142  0.011149  0.000000      4.000000
  0.087909  0.011149  0.000000      4.000000
  0.097677  0.011149  0.000000      4.000000
  0.107445  0.011149  0.000000      4.000000
  0.117213  0.011149  0.000000      2.000000
  0.000000  0.022297  0.000000      2.000000
  0.009768  0.022297  0.000000      4.000000
  0.019535  0.022297  0.000000      4.000000
  0.029303  0.022297  0.000000      4.000000
  0.039071  0.022297  0.000000      4.000000
  0.048839  0.022297  0.000000      4.000000
  0.058606  0.022297  0.000000      4.000000
  0.068374  0.022297  0.000000      4.000000
  0.078142  0.022297  0.000000      4.000000
  0.087909  0.022297  0.000000      4.000000
  0.097677  0.022297  0.000000      4.000000
  0.107445  0.022297  0.000000      4.000000
  0.117213  0.022297  0.000000      2.000000
  0.000000  0.033446  0.000000      2.000000
  0.009768  0.033446  0.000000      4.000000
  0.019535  0.033446  0.000000      4.000000
  0.029303  0.033446  0.000000      4.000000
  0.039071  0.033446  0.000000      4.000000
  0.048839  0.033446  0.000000      4.000000
  0.058606  0.033446  0.000000      4.000000
  0.068374  0.033446  0.000000      4.000000
  0.078142  0.033446  0.000000      4.000000
  0.087909  0.033446  0.000000      4.000000
  0.097677  0.033446  0.000000      4.000000
  0.107445  0.033446  0.000000      4.000000
  0.117213  0.033446  0.000000      2.000000
  0.000000  0.044594  0.000000      2.000000
  0.009768  0.044594  0.000000      4.000000
  0.019535  0.044594  0.000000      4.000000
  0.029303  0.044594  0.000000      4.000000
  0.039071  0.044594  0.000000      4.000000
  0.048839  0.044594  0.000000      4.000000
  0.058606  0.044594  0.000000      4.000000
  0.068374  0.044594  0.000000      4.000000
[...]
  0.107445  0.189525  0.000000      4.000000
  0.117213  0.189525  0.000000      2.000000
  0.000000  0.200674  0.000000      1.000000
  0.009768  0.200674  0.000000      2.000000
  0.019535  0.200674  0.000000      2.000000
  0.029303  0.200674  0.000000      2.000000
  0.039071  0.200674  0.000000      2.000000
  0.048839  0.200674  0.000000      2.000000
  0.058606  0.200674  0.000000      2.000000
  0.068374  0.200674  0.000000      2.000000
  0.078142  0.200674  0.000000      2.000000
  0.087909  0.200674  0.000000      2.000000
  0.097677  0.200674  0.000000      2.000000
  0.107445  0.200674  0.000000      2.000000
  0.117213  0.200674  0.000000      1.000000

 I would recommend the setting:
   dimension x,y,z NGX =    62 NGY =   36 NGZ =  289
[...]
 k-point ** :   0.2500 0.2778 0.0000  plane waves:   42824
 k-point ** :   0.2917 0.2778 0.0000  plane waves:   42805
 k-point ** :   0.3333 0.2778 0.0000  plane waves:   42794
 k-point ** :   0.3750 0.2778 0.0000  plane waves:   42798
 k-point ** :   0.4167 0.2778 0.0000  plane waves:   42780
 k-point ** :   0.4583 0.2778 0.0000  plane waves:   42773
 k-point ** :   0.5000 0.2778 0.0000  plane waves:   42774
 k-point ** :   0.0000 0.3056 0.0000  plane waves:   42894
 k-point ** :   0.0417 0.3056 0.0000  plane waves:   42918
 k-point ** :   0.0833 0.3056 0.0000  plane waves:   42911
 k-point ** :   0.1250 0.3056 0.0000  plane waves:   42906
 k-point ** :   0.1667 0.3056 0.0000  plane waves:   42889
 k-point ** :   0.2083 0.3056 0.0000  plane waves:   42852
 k-point ** :   0.2500 0.3056 0.0000  plane waves:   42860
 k-point ** :   0.2917 0.3056 0.0000  plane waves:   42818
 k-point ** :   0.3333 0.3056 0.0000  plane waves:   42789
 k-point ** :   0.3750 0.3056 0.0000  plane waves:   42800
 k-point ** :   0.4167 0.3056 0.0000  plane waves:   42809
 k-point ** :   0.4583 0.3056 0.0000  plane waves:   42798
 k-point ** :   0.5000 0.3056 0.0000  plane waves:   42796
 k-point ** :   0.0000 0.3333 0.0000  plane waves:   42934
 k-point ** :   0.0417 0.3333 0.0000  plane waves:   42909
 k-point ** :   0.0833 0.3333 0.0000  plane waves:   42909
[...]
 k-point ** :   0.4583 0.4722 0.0000  plane waves:   42822
 k-point ** :   0.5000 0.4722 0.0000  plane waves:   42824
 k-point ** :   0.0000 0.5000 0.0000  plane waves:   42858
 k-point ** :   0.0417 0.5000 0.0000  plane waves:   42874
 k-point ** :   0.0833 0.5000 0.0000  plane waves:   42912
 k-point ** :   0.1250 0.5000 0.0000  plane waves:   42932
 k-point ** :   0.1667 0.5000 0.0000  plane waves:   42906
 k-point ** :   0.2083 0.5000 0.0000  plane waves:   42918
 k-point ** :   0.2500 0.5000 0.0000  plane waves:   42912
 k-point ** :   0.2917 0.5000 0.0000  plane waves:   42920
 k-point ** :   0.3333 0.5000 0.0000  plane waves:   42856
 k-point ** :   0.3750 0.5000 0.0000  plane waves:   42848
 k-point ** :   0.4167 0.5000 0.0000  plane waves:   42842
 k-point ** :   0.4583 0.5000 0.0000  plane waves:   42810
 k-point ** :   0.5000 0.5000 0.0000  plane waves:   42820

 maximum and minimum number of plane-waves per node :     21485    21291

 maximum number of plane-waves:     42940
 maximum index in each direction:
   IXMAX=   15   IYMAX=    9   IZMAX=   72
   IXMIN=  -16   IYMIN=   -9   IZMIN=  -72

 NGX is ok and might be reduce to  64
 WARNING: aliasing errors must be expected set NGY to  38 to avoid them
 NGZ is ok and might be reduce to 290
 aliasing errors are usually negligible using standard VASP settings
 and one can safely disregard these warnings

 parallel 3D FFT for wavefunctions:
    minimum data exchange during FFTs selected (reduces bandwidth)
 parallel 3D FFT for charge:
    minimum data exchange during FFTs selected (reduces bandwidth)

 Broyden mixing: mesh for mixing (old mesh)
   NGX = 31   NGY = 19   NGZ =145
  (NGX  =128   NGY  = 72   NGZ  =588)
  gives a total of  85405 points

 initial charge density was supplied:
 charge density of overlapping atoms calculated
 number of electron      16.0000000 magnetization
 keeping initial charge density in first step

 Maximum index for augmentation-charges         4665 (set IRDMAX)

 First call to EWALD:  gamma=   0.298
 Maximum number of real-space cells 4x 6x 1
 Maximum number of reciprocal cells 2x 1x 8

 FEWALD executed in parallel

----------------------------------------- Iteration    1(   1)  ---------------------------------------

 eigenvalue-minimisations  :  5928
 total energy-change (2. order) : 0.1885103E+03  (-0.1063518E+04)
 number of electron      16.0000000 magnetization
 augmentation part       16.0000000 magnetization

 Free energy of the ion-electron system (eV)
  alpha Z        PSCENC =         6.18334092
  Ewald energy   TEWEN  =      2531.77530377
  -Hartree energ DENC   =     -2958.80358537
  -exchange      EXHF   =         0.00000000
  -V(xc)+E(xc)   XCENC  =        54.98622313
  PAW double counting   =       151.32577238     -155.92769107
  entropy T*S    EENTRO =        -0.00149912
  eigenvalues    EBANDS =       -29.65114041
  atomic energy  EATOM  =       588.62352690
  free energy    TOTEN  =       188.51025115 eV

  energy without entropy =      188.51175027  energy(sigma->0) =      188.51100071

[...]

 eigenvalue-minimisations  : 10336
 total energy-change (2. order) :-0.1974840E+03  (-0.1749456E+03)
 number of electron      16.0000000 magnetization
 augmentation part       16.0000000 magnetization

[...]

 Broyden mixing:
  rms(total) = 0.72414E+00    rms(broyden)= 0.72414E+00
  rms(prec ) = 0.78800E+00
  weight for this iteration     100.00

[...]

 eigenvalues of (default mixing * dielectric matrix)
  average eigenvalue GAMMA=   2.3183
  2.3183

[...]

WARNING in EDDRMM: call to ZHEGV failed, returncode =   6  3  1
WARNING in EDDRMM: call to ZHEGV failed, returncode =   6  3  1
WARNING in EDDRMM: call to ZHEGV failed, returncode =   6  3  1

[...]

 average (electrostatic) potential at core
  the test charge radii are     0.6991
  (the norm of the test charge is              1.0000)
       1 -58.2388       2 -58.2388       3 -58.2388       4 -58.2388

 E-fermi :  -2.7822     XC(G=0):  -2.1591     alpha+bet : -1.9046

 k-point     1 :       0.0000    0.0000    0.0000
  band No.  band energies     occupation
      1     -22.1855      2.00000
      2     -16.8946      2.00000
      3     -15.9286      2.00000
      4     -10.3063      2.00000
      5      -9.2908      2.00000
      6      -5.8745      2.00000
      7      -5.7632      2.00000
      8      -5.0285      2.00000
      9      -1.0984      0.00000
     10       0.5319      0.00000
     11       1.3312      0.00000
     12       4.1092      0.00000

[...]

 soft charge-density along one line, spin component           1
         0         1         2         3         4         5         6         7         8         9
 total charge-density along one line

------------------------ aborting loop because EDIFF is reached ----------------------------------------

  FORCE on cell =-STRESS in cart. coord.  units (eV):
  Direction    XX          YY          ZZ          XY          YZ          ZX
  Alpha Z     6.18334     6.18334     6.18334
  Ewald    3067.68682  3066.50320 -3602.41494     0.00000     0.00000     0.00000
  Hartree  3003.22296  3002.81456 -2980.18001    -0.00000    -0.00000    -0.00000
  E(xc)     -58.20059   -58.18858   -60.52662    -0.00000    -0.00000    -0.00000
  Local   -6243.58467 -6242.20470  6376.79675    -0.00000    -0.00000    -0.00000
  n-local   -13.90318   -13.57170   -12.65433     0.06936     0.00000     0.00000
  augment    -1.51750    -1.51622    -1.39751    -0.00000     0.00000     0.00000
  Kinetic   240.11084   237.81395   274.19198    -4.61897    -0.00000    -0.00000
  Fock        0.00000     0.00000     0.00000     0.00000     0.00000     0.00000
  Total      -0.00199    -2.16616    -0.00134     0.00000     0.00000     0.00000
  in kB      -0.01513   -16.46089    -0.01017     0.00000     0.00000     0.00000

 VOLUME and BASIS-vectors are now :
  energy-cutoff  :     2000.00
  volume of cell :      210.84
      direct lattice vectors                 reciprocal lattice vectors
     4.265754838  0.000000000  0.000000000     0.234425099  0.000000000  0.000000000
     0.000000000  2.491603378  0.000000000     0.000000000  0.401347987  0.000000000
     0.000000000  0.000000000 19.836903554     0.000000000  0.000000000  0.050411094

[...]

 FORCES acting on ions
    electron-ion (+dipol)            ewald-force                    non-local-force                 convergence-correction
   -.213E+01 0.979E-16 0.520E-09   0.213E+01 -.280E-14 0.853E-18   -.203E-02 0.104E-16 0.310E-24   0.884E-06 -.122E-14 0.193E-12
   0.213E+01 0.181E-12 -.398E-08   -.213E+01 0.198E-14 -.149E-33   0.203E-02 0.243E-16 0.000E+00   -.884E-06 -.577E-15 0.193E-12
   -.213E+01 -.157E-12 0.519E-09   0.213E+01 0.934E-15 -.853E-18   -.203E-02 -.104E-16 0.000E+00   0.884E-06 -.101E-14 0.193E-12
   0.213E+01 0.247E-15 -.398E-08   -.213E+01 0.571E-14 0.144E-33   0.203E-02 0.104E-16 0.000E+00   -.884E-06 -.758E-15 0.193E-12
   -.250E-06 0.240E-13 -.692E-08   0.133E-14 0.583E-14 -.481E-34   -.434E-18 0.347E-16 0.310E-24   -.974E-12 -.356E-14 0.773E-12

 POSITION                                       TOTAL-FORCE (eV/Angst)
      0.00112      0.00000      0.00000        -0.002412     -0.000000      0.000000
      0.70984      1.24580      0.00000         0.002412      0.000000     -0.000000
      2.13400      1.24580      0.00000        -0.002412      0.000000      0.000000
      2.84271      0.00000      0.00000         0.002412     -0.000000     -0.000000
    total drift:                               -0.000000      0.000000     -0.000000

  FREE ENERGIE OF THE ION-ELECTRON SYSTEM (eV)
  free  energy   TOTEN  =       -36.91481554 eV

  energy  without entropy=      -36.91478489  energy(sigma->0) =      -36.91480021

 Quasi-Newton relaxation of ions (Broydens 2nd method)
  g(Force)  = 0.112E-05   g(Stress)= 0.000E+00

 Reset! Starting new Quasi-Newton update for ions

[...]

 d Force =-0.1728767E-05[-0.458E-05, 0.112E-05]  d Energy =-0.1718965E-05-0.980E-08
 d Force =-0.1002252E-02[-0.101E-02,-0.993E-03]  d Ewald  =-0.1002251E-02-0.125E-08

[...]

 retain information from N=  1 steps
 eigenvalues of (default step * inverse Hessian matrix)
  average eigenvalue of G=   0.1969
 eigenvalue spectrum of G is  0.1969

[...]

 d Force = 0.1840377E-05[ 0.216E-08, 0.368E-05]  d Energy = 0.1831765E-05 0.861E-08
 d Force = 0.8064361E-03[ 0.800E-03, 0.813E-03]  d Ewald  = 0.8064355E-03 0.647E-09

[...]

 eigenvalue-minimisations  :  4736
 total energy-change (2. order) : 0.2742127E-09  ( 0.5682516E-09)
 number of electron      16.0000000 magnetization
 augmentation part        0.3781808 magnetization

[...]

 eigenvalue-minimisations  :  2388
 total energy-change (2. order) :-0.3103651E-09  ( 0.1166659E-12)
 number of electron      16.0000000 magnetization
 augmentation part        0.3781808 magnetization

[...]

 eigenvalue-minimisations  :  1905
 total energy-change (2. order) :-0.2351044E-09  (-0.2539902E-12)
 number of electron      16.0000000 magnetization
 augmentation part        0.3781808 magnetization

[...]

 eigenvalue-minimisations  :  1731
 total energy-change (2. order) : 0.7128165E-10  (-0.4931035E-13)
 number of electron      16.0000000 magnetization
 augmentation part        0.3781808 magnetization

[...]

 d Force =-0.7241219E-13[-0.141E-11, 0.127E-11]  d Energy = 0.2024763E-09-0.203E-09
 d Force = 0.4702560E-06[ 0.470E-06, 0.470E-06]  d Ewald  = 0.4702556E-06 0.455E-12

[...]

 FEWALD executed in parallel

[...]

 eigenvalue-minimisations  :  1278
 total energy-change (2. order) :-0.8776624E-10  ( 0.1870520E-13)
 number of electron      16.0000000 magnetization
 augmentation part        0.3781808 magnetization

 Broyden mixing:
  rms(total) = 0.74375E-09    rms(broyden)= 0.74374E-09
  rms(prec ) = 0.11853E-08
  weight for this iteration     100.00

 eigenvalues of (default mixing * dielectric matrix)
  average eigenvalue GAMMA=   2.0128
  2.5862  2.5862  0.8661

[...]

----------------------------------------- Iteration    5(   5)  ---------------------------------------

 eigenvalue-minimisations  :  1310
 total energy-change (2. order) : 0.4342837E-10  ( 0.6636667E-14)
 number of electron      16.0000000 magnetization
 augmentation part        0.3781808 magnetization

 Free energy of the ion-electron system (eV)
  alpha Z        PSCENC =         6.18334092
  Ewald energy   TEWEN  =      2531.77549936
  -Hartree energ DENC   =     -3025.85767433
  -exchange      EXHF   =         0.00000000
  -V(xc)+E(xc)   XCENC  =        57.37136626
  PAW double counting   =       273.76659848     -278.90040153
  entropy T*S    EENTRO =        -0.00003021
  eigenvalues    EBANDS =      -189.87704152
  atomic energy  EATOM  =       588.62352690
  free energy    TOTEN  =       -36.91481565 eV

  energy without entropy =      -36.91478545  energy(sigma->0) =      -36.91480055

 average (electrostatic) potential at core
  the test charge radii are     0.6991
  (the norm of the test charge is              1.0000)
       1 -58.2388       2 -58.2388       3 -58.2388       4 -58.2388

 E-fermi :  -2.7822     XC(G=0):  -2.1559     alpha+bet : -1.9046

[...]

 k-point   247 :       0.5000    0.5000    0.0000
  band No.  band energies     occupation
      1     -17.0626      2.00000
      2     -17.0626      2.00000
      3     -15.9224      2.00000
      4     -15.9224      2.00000
      5      -9.0832      2.00000
      6      -9.0832      2.00000
      7      -5.1583      2.00000
      8      -5.1583      2.00000
      9      -1.1153      0.00000
     10      -1.1153      0.00000
     11       4.6030      0.00000
     12       4.6030      0.00000

 soft charge-density along one line, spin component           1
         0         1         2         3         4         5         6         7         8         9
 total charge-density along one line

------------------------ aborting loop because EDIFF is reached ----------------------------------------

  FORCE on cell =-STRESS in cart. coord.  units (eV):
  Direction    XX          YY          ZZ          XY          YZ          ZX
  Alpha Z     6.18334     6.18334     6.18334
  Ewald    3067.70676  3066.48345 -3602.41494    -0.00000     0.00000     0.00000
  Hartree  3003.22574  3002.81194 -2980.18000     0.00000    -0.00000    -0.00000
  E(xc)     -58.20053   -58.18867   -60.52663    -0.00000    -0.00000    -0.00000
  Local   -6243.60352 -6242.18609  6376.79670    -0.00000     0.00000     0.00000
  n-local   -13.90301   -13.57187   -12.65434     0.06933    -0.00000     0.00000
  augment    -1.51753    -1.51620    -1.39751     0.00000     0.00000    -0.00000
  Kinetic   240.10787   237.81703   274.19204    -4.61886     0.00000    -0.00000
  Fock        0.00000     0.00000     0.00000     0.00000     0.00000     0.00000
  Total      -0.00088    -2.16707    -0.00133     0.00000     0.00000     0.00000
  in kB      -0.00668   -16.46778    -0.01011     0.00000     0.00000     0.00000

 VOLUME and BASIS-vectors are now :
  energy-cutoff  :     2000.00
  volume of cell :      210.84
      direct lattice vectors                 reciprocal lattice vectors
     4.265754838  0.000000000  0.000000000     0.234425099  0.000000000  0.000000000
     0.000000000  2.491603378  0.000000000     0.000000000  0.401347987  0.000000000
     0.000000000  0.000000000 19.836903554     0.000000000  0.000000000  0.050411094

  length of vectors
     4.265754838  2.491603378 19.836903554     0.234425099  0.401347987  0.050411094

 FORCES acting on ions
    electron-ion (+dipol)            ewald-force                    non-local-force                 convergence-correction
   -.214E+01 0.185E-15 0.512E-09   0.214E+01 -.136E-15 -.111E-17   -.118E-02 0.694E-17 0.000E+00   0.139E-08 -.996E-15 -.118E-11
   0.214E+01 -.162E-12 -.401E-08   -.214E+01 0.426E-15 0.369E-18   0.118E-02 0.104E-16 0.646E-26   -.139E-08 -.450E-15 -.118E-11
   -.214E+01 -.105E-11 0.527E-09   0.214E+01 0.249E-14 0.144E-17   -.118E-02 0.694E-17 0.000E+00   0.139E-08 -.133E-14 -.119E-11
   0.214E+01 0.187E-15 -.400E-08   -.214E+01 0.305E-14 -.695E-18   0.118E-02 0.104E-16 0.000E+00   -.139E-08 -.161E-15 -.119E-11
   -.251E-06 -.121E-11 -.697E-08   0.133E-14 0.583E-14 -.289E-33   -.434E-18 0.347E-16 0.646E-26   -.190E-14 -.294E-14 -.474E-11

 POSITION                                       TOTAL-FORCE (eV/Angst)
      0.00110     -0.00000     -0.00000        -0.000000     -0.000000     -0.000000
      0.70986      1.24580      0.00000         0.000000      0.000000      0.000000
      2.13398      1.24580     -0.00000        -0.000000      0.000000     -0.000000
      2.84274      0.00000      0.00000         0.000000     -0.000000      0.000000
    total drift:                               -0.000000     -0.000000     -0.000000

  FREE ENERGIE OF THE ION-ELECTRON SYSTEM (eV)
  free  energy   TOTEN  =       -36.91481565 eV

  energy  without entropy=      -36.91478545  energy(sigma->0) =      -36.91480055

 d Force = 0.3854370E-12[ 0.256E-13, 0.745E-12]  d Energy =-0.4456524E-10 0.449E-10
 d Force =-0.2478164E-06[-0.248E-06,-0.248E-06]  d Ewald  =-0.2478164E-06 0.000E+00

 Quasi-Newton relaxation of ions (Broydens 2nd method)
  g(Force)  = 0.944E-14   g(Stress)= 0.000E+00

 retain information from N=  1 steps
 eigenvalues of (default step * inverse Hessian matrix)
  average eigenvalue of G=   0.0965
 eigenvalue spectrum of G is  0.0965

 reached required accuracy - stopping structural energy minimisation