 vasp.5.3.5 31Mar14 (build Mar 02 2015 18:14:16) complex

 executed on             LinuxIFC date 2018.08.10  15:23:40

 INCAR:
 POTCAR:   PAW_PBE C 08Apr2002
 POTCAR:   PAW_PBE C 08Apr2002
   VRHFIN =C: s2p2

   TITEL  = PAW_PBE C 08Apr2002
   POMASS =   12.011; ZVAL   =    4.000    mass and valenz
   ENMAX  =  400.000; ENMIN  =  300.000 eV
   QCUT   =   -5.516; QGAM   =   11.032    optimization parameters

   Description
     l     E      TYP  RCUT    TYP  RCUT
     0   .000     23  1.200
     0   .000     23  1.200
     1   .000     23  1.500
     1  2.500     23  1.500
     2   .000      7  1.500

 PAW_PBE C 08Apr2002                    :

 POSCAR: MD-kMC export data
  positions in direct lattice
  velocities in cartesian coordinates
 exchange correlation table for  LEXCH =        8
   RHO(1)=    0.500       N(1)  =     2000
   RHO(2)=  100.500       N(2)  =     4000

 ion  position               nearest neighbor table
   1  0.000  0.000  0.000-   4 1.42   2 1.43   2 1.43
   2  0.166  0.500  0.000-   3 1.42   1 1.43   1 1.43
   3  0.500  0.500  0.000-   2 1.42   4 1.43   4 1.43
   4  0.666  0.000  0.000-   1 1.42   3 1.43   3 1.43

  LATTYP: Found a simple orthorhombic cell.
 ALAT       =     2.4923436046
 B/A-ratio  =     1.7114462683
 C/A-ratio  =     7.9572255575

  Lattice vectors:

 A1 = (   0.0000000000,  -2.4923436046,   0.0000000000)
 A2 = (  -4.2655121613,   0.0000000000,   0.0000000000)
 A3 = (   0.0000000000,   0.0000000000, -19.8321402283)

Analysis of symmetry for initial positions (statically):
 Subroutine PRICEL returns following result:

  LATTYP: Found a base centered orthorhombic cell.
 ALAT       =     2.4923436046
 B/A-ratio  =     1.7114462683
 C/A-ratio  =     7.9572255575

[...]

   2 primitive cells build up your supercell.

 Routine SETGRP: Setting up the symmetry group for a
 simple orthorhombic supercell.

 Subroutine GETGRP returns: Found  8 space group operations
 (whereof  4 operations were pure point group operations)
 out of a pool of  8 trial point group operations.

The static configuration has the point symmetry C_2v.
 The point group associated with its full space group is D_2h.

Analysis of symmetry for dynamics (positions and initial velocities):
 Subroutine PRICEL returns following result:

  LATTYP: Found a base centered orthorhombic cell.
 ALAT       =     2.4923436046
 B/A-ratio  =     1.7114462683
 C/A-ratio  =     7.9572255575

  Lattice vectors:

 A1 = (   2.1327560807,  -1.2461718023,   0.0000000000)
 A2 = (  -2.1327560807,  -1.2461718023,   0.0000000000)
 A3 = (   0.0000000000,   0.0000000000, -19.8321402283)

   2 primitive cells build up your supercell.

 Routine SETGRP: Setting up the symmetry group for a
 simple orthorhombic supercell.

 Subroutine GETGRP returns: Found  8 space group operations
 (whereof  4 operations were pure point group operations)
 out of a pool of  8 trial point group operations.

The dynamic configuration has the point symmetry C_2v.
 The point group associated with its full space group is D_2h.

 KPOINTS: Automatic mesh

Automatic generation of k-mesh.
Space group operators:
 irot       det(A)        alpha          n_x          n_y          n_z        tau_x        tau_y        tau_z
    1     1.000000     0.000001     1.000000     0.000000     0.000000     0.000000     0.000000     0.000000
    2    -1.000000   180.000000     0.000000     0.000000     1.000000     0.000000     0.000000     0.000000
    3     1.000000   180.000000     1.000000     0.000000     0.000000     0.000000     0.000000     0.000000
    4    -1.000000   180.000000     0.000000     1.000000     0.000000     0.000000     0.000000     0.000000
    5    -1.000000     0.000001     1.000000     0.000000     0.000000     0.166667    -0.500000     0.000000
    6     1.000000   180.000000     0.000000     0.000000     1.000000     0.166667    -0.500000     0.000000
    7    -1.000000   180.000000     1.000000     0.000000     0.000000     0.166667    -0.500000     0.000000
    8     1.000000   180.000000     0.000000     1.000000     0.000000     0.166667    -0.500000     0.000000

 Subroutine IBZKPT returns following result:

 Found    247 irreducible k-points:

 Following reciprocal coordinates:
            Coordinates               Weight
  0.000000  0.000000  0.000000      1.000000
  0.041667  0.000000  0.000000      2.000000
  0.083333  0.000000  0.000000      2.000000
  0.125000  0.000000  0.000000      2.000000
  0.166667  0.000000  0.000000      2.000000
  0.208333  0.000000  0.000000      2.000000
  0.250000  0.000000  0.000000      2.000000
  0.291667  0.000000  0.000000      2.000000
  0.333333  0.000000  0.000000      2.000000
  0.375000  0.000000  0.000000      2.000000
  0.416667  0.000000  0.000000      2.000000
  0.458333  0.000000  0.000000      2.000000
  0.500000  0.000000  0.000000      1.000000
  0.000000  0.027778  0.000000      2.000000
  0.041667  0.027778  0.000000      4.000000
  0.083333  0.027778  0.000000      4.000000
  0.125000  0.027778  0.000000      4.000000
  0.166667  0.027778  0.000000      4.000000
  0.208333  0.027778  0.000000      4.000000
  0.250000  0.027778  0.000000      4.000000
  0.291667  0.027778  0.000000      4.000000
  0.333333  0.027778  0.000000      4.000000
  0.375000  0.027778  0.000000      4.000000
  0.416667  0.027778  0.000000      4.000000
  0.458333  0.027778  0.000000      4.000000
  0.500000  0.027778  0.000000      2.000000
  0.000000  0.055556  0.000000      2.000000
  0.041667  0.055556  0.000000      4.000000
  0.083333  0.055556  0.000000      4.000000
  0.125000  0.055556  0.000000      4.000000
  0.166667  0.055556  0.000000      4.000000
  0.208333  0.055556  0.000000      4.000000
  0.250000  0.055556  0.000000      4.000000
  0.291667  0.055556  0.000000      4.000000
  0.333333  0.055556  0.000000      4.000000
  0.375000  0.055556  0.000000      4.000000
  0.416667  0.055556  0.000000      4.000000
  0.458333  0.055556  0.000000      4.000000
  0.500000  0.055556  0.000000      2.000000
  0.000000  0.083333  0.000000      2.000000
  0.041667  0.083333  0.000000      4.000000
  0.083333  0.083333  0.000000      4.000000
  0.125000  0.083333  0.000000      4.000000
  0.166667  0.083333  0.000000      4.000000
  0.208333  0.083333  0.000000      4.000000
  0.250000  0.083333  0.000000      4.000000
  0.291667  0.083333  0.000000      4.000000
  0.333333  0.083333  0.000000      4.000000
  0.375000  0.083333  0.000000      4.000000
  0.416667  0.083333  0.000000      4.000000
  0.458333  0.083333  0.000000      4.000000
  0.500000  0.083333  0.000000      2.000000
  0.000000  0.111111  0.000000      2.000000
  0.041667  0.111111  0.000000      4.000000
  0.083333  0.111111  0.000000      4.000000
  0.125000  0.111111  0.000000      4.000000
  0.166667  0.111111  0.000000      4.000000
  0.208333  0.111111  0.000000      4.000000
  0.250000  0.111111  0.000000      4.000000
  0.291667  0.111111  0.000000      4.000000
[...]
  0.458333  0.472222  0.000000      4.000000
  0.500000  0.472222  0.000000      2.000000
  0.000000  0.500000  0.000000      1.000000
  0.041667  0.500000  0.000000      2.000000
  0.083333  0.500000  0.000000      2.000000
  0.125000  0.500000  0.000000      2.000000
  0.166667  0.500000  0.000000      2.000000
  0.208333  0.500000  0.000000      2.000000
  0.250000  0.500000  0.000000      2.000000
  0.291667  0.500000  0.000000      2.000000
  0.333333  0.500000  0.000000      2.000000
  0.375000  0.500000  0.000000      2.000000
  0.416667  0.500000  0.000000      2.000000
  0.458333  0.500000  0.000000      2.000000
  0.500000  0.500000  0.000000      1.000000

 Following cartesian coordinates:
            Coordinates               Weight
  0.000000  0.000000  0.000000      1.000000
  0.009768  0.000000  0.000000      2.000000
  0.019537  0.000000  0.000000      2.000000
  0.029305  0.000000  0.000000      2.000000
  0.039073  0.000000  0.000000      2.000000
  0.048841  0.000000  0.000000      2.000000
  0.058610  0.000000  0.000000      2.000000
  0.068378  0.000000  0.000000      2.000000
  0.078146  0.000000  0.000000      2.000000
  0.087914  0.000000  0.000000      2.000000
  0.097683  0.000000  0.000000      2.000000
  0.107451  0.000000  0.000000      2.000000
  0.117219  0.000000  0.000000      1.000000
  0.000000  0.011145  0.000000      2.000000
  0.009768  0.011145  0.000000      4.000000
  0.019537  0.011145  0.000000      4.000000
  0.029305  0.011145  0.000000      4.000000
  0.039073  0.011145  0.000000      4.000000
  0.048841  0.011145  0.000000      4.000000
  0.058610  0.011145  0.000000      4.000000
  0.068378  0.011145  0.000000      4.000000
  0.078146  0.011145  0.000000      4.000000
  0.087914  0.011145  0.000000      4.000000
  0.097683  0.011145  0.000000      4.000000
  0.107451  0.011145  0.000000      4.000000
  0.117219  0.011145  0.000000      2.000000
  0.000000  0.022290  0.000000      2.000000
  0.009768  0.022290  0.000000      4.000000
  0.019537  0.022290  0.000000      4.000000
  0.029305  0.022290  0.000000      4.000000
  0.039073  0.022290  0.000000      4.000000
  0.048841  0.022290  0.000000      4.000000
  0.058610  0.022290  0.000000      4.000000
  0.068378  0.022290  0.000000      4.000000
  0.078146  0.022290  0.000000      4.000000
  0.087914  0.022290  0.000000      4.000000
  0.097683  0.022290  0.000000      4.000000
  0.107451  0.022290  0.000000      4.000000
  0.117219  0.022290  0.000000      2.000000
  0.000000  0.033436  0.000000      2.000000
  0.009768  0.033436  0.000000      4.000000
  0.019537  0.033436  0.000000      4.000000
  0.029305  0.033436  0.000000      4.000000
  0.039073  0.033436  0.000000      4.000000
  0.048841  0.033436  0.000000      4.000000
  0.058610  0.033436  0.000000      4.000000
  0.068378  0.033436  0.000000      4.000000
  0.078146  0.033436  0.000000      4.000000
  0.087914  0.033436  0.000000      4.000000
  0.097683  0.033436  0.000000      4.000000
  0.107451  0.033436  0.000000      4.000000
  0.117219  0.033436  0.000000      2.000000
  0.000000  0.044581  0.000000      2.000000
  0.009768  0.044581  0.000000      4.000000
  0.019537  0.044581  0.000000      4.000000
  0.029305  0.044581  0.000000      4.000000
  0.039073  0.044581  0.000000      4.000000
  0.048841  0.044581  0.000000      4.000000
  0.058610  0.044581  0.000000      4.000000
  0.068378  0.044581  0.000000      4.000000
[...]
  0.107451  0.189469  0.000000      4.000000
  0.117219  0.189469  0.000000      2.000000
  0.000000  0.200614  0.000000      1.000000
  0.009768  0.200614  0.000000      2.000000
  0.019537  0.200614  0.000000      2.000000
  0.029305  0.200614  0.000000      2.000000
  0.039073  0.200614  0.000000      2.000000
  0.048841  0.200614  0.000000      2.000000
  0.058610  0.200614  0.000000      2.000000
  0.068378  0.200614  0.000000      2.000000
  0.078146  0.200614  0.000000      2.000000
  0.087914  0.200614  0.000000      2.000000
  0.097683  0.200614  0.000000      2.000000
  0.107451  0.200614  0.000000      2.000000
  0.117219  0.200614  0.000000      1.000000

 I would recommend the setting:
   dimension x,y,z NGX =    62 NGY =   36 NGZ =  289
[...]
 k-point ** :   0.1250 0.2778 0.0000  plane waves:   42894
 k-point ** :   0.1667 0.2778 0.0000  plane waves:   42867
 k-point ** :   0.2083 0.2778 0.0000  plane waves:   42839
 k-point ** :   0.2500 0.2778 0.0000  plane waves:   42820
 k-point ** :   0.2917 0.2778 0.0000  plane waves:   42809
 k-point ** :   0.3333 0.2778 0.0000  plane waves:   42792
 k-point ** :   0.3750 0.2778 0.0000  plane waves:   42790
 k-point ** :   0.4167 0.2778 0.0000  plane waves:   42781
 k-point ** :   0.4583 0.2778 0.0000  plane waves:   42775
 k-point ** :   0.5000 0.2778 0.0000  plane waves:   42774
 k-point ** :   0.0000 0.3056 0.0000  plane waves:   42896
 k-point ** :   0.0417 0.3056 0.0000  plane waves:   42916
 k-point ** :   0.0833 0.3056 0.0000  plane waves:   42911
 k-point ** :   0.1250 0.3056 0.0000  plane waves:   42906
 k-point ** :   0.1667 0.3056 0.0000  plane waves:   42887
 k-point ** :   0.2083 0.3056 0.0000  plane waves:   42860
 k-point ** :   0.2500 0.3056 0.0000  plane waves:   42865
 k-point ** :   0.2917 0.3056 0.0000  plane waves:   42822
 k-point ** :   0.3333 0.3056 0.0000  plane waves:   42785
 k-point ** :   0.3750 0.3056 0.0000  plane waves:   42798
 k-point ** :   0.4167 0.3056 0.0000  plane waves:   42807
 k-point ** :   0.4583 0.3056 0.0000  plane waves:   42796
 k-point ** :   0.5000 0.3056 0.0000  plane waves:   42800
 k-point ** :   0.0000 0.3333 0.0000  plane waves:   42938
 k-point ** :   0.0417 0.3333 0.0000  plane waves:   42899
 k-point ** :   0.0833 0.3333 0.0000  plane waves:   42907
[...]
 k-point ** :   0.4583 0.4722 0.0000  plane waves:   42824
 k-point ** :   0.5000 0.4722 0.0000  plane waves:   42824
 k-point ** :   0.0000 0.5000 0.0000  plane waves:   42842
 k-point ** :   0.0417 0.5000 0.0000  plane waves:   42878
 k-point ** :   0.0833 0.5000 0.0000  plane waves:   42912
 k-point ** :   0.1250 0.5000 0.0000  plane waves:   42924
 k-point ** :   0.1667 0.5000 0.0000  plane waves:   42914
 k-point ** :   0.2083 0.5000 0.0000  plane waves:   42910
 k-point ** :   0.2500 0.5000 0.0000  plane waves:   42912
 k-point ** :   0.2917 0.5000 0.0000  plane waves:   42924
 k-point ** :   0.3333 0.5000 0.0000  plane waves:   42856
 k-point ** :   0.3750 0.5000 0.0000  plane waves:   42848
 k-point ** :   0.4167 0.5000 0.0000  plane waves:   42838
 k-point ** :   0.4583 0.5000 0.0000  plane waves:   42826
 k-point ** :   0.5000 0.5000 0.0000  plane waves:   42824

 maximum and minimum number of plane-waves per node :     21491    21338

 maximum number of plane-waves:     42938
 maximum index in each direction:
   IXMAX=   15   IYMAX=    9   IZMAX=   72
   IXMIN=  -16   IYMIN=   -9   IZMIN=  -72

 NGX is ok and might be reduce to  64
 WARNING: aliasing errors must be expected set NGY to  38 to avoid them
 NGZ is ok and might be reduce to 290
 aliasing errors are usually negligible using standard VASP settings
 and one can safely disregard these warnings

 parallel 3D FFT for wavefunctions:
    minimum data exchange during FFTs selected (reduces bandwidth)
 parallel 3D FFT for charge:
    minimum data exchange during FFTs selected (reduces bandwidth)

 Broyden mixing: mesh for mixing (old mesh)
   NGX = 31   NGY = 19   NGZ =145
  (NGX  =128   NGY  = 72   NGZ  =588)
  gives a total of  85405 points

 initial charge density was supplied:
 charge density of overlapping atoms calculated
 number of electron      16.0000000 magnetization
 keeping initial charge density in first step

 Maximum index for augmentation-charges         4665 (set IRDMAX)

 First call to EWALD:  gamma=   0.298
 Maximum number of real-space cells 4x 6x 1
 Maximum number of reciprocal cells 2x 1x 8

 FEWALD executed in parallel

----------------------------------------- Iteration    1(   1)  ---------------------------------------

 eigenvalue-minimisations  :  5928
 total energy-change (2. order) : 0.1892699E+03  (-0.1058226E+04)
 number of electron      16.0000000 magnetization
 augmentation part       16.0000000 magnetization

 Free energy of the ion-electron system (eV)
  alpha Z        PSCENC =         6.18334092
  Ewald energy   TEWEN  =      2530.17412260
  -Hartree energ DENC   =     -2957.25023119
  -exchange      EXHF   =         0.00000000
  -V(xc)+E(xc)   XCENC  =        54.98296576
  PAW double counting   =       151.32577238     -155.92769107
  entropy T*S    EENTRO =        -0.00126048
  eigenvalues    EBANDS =       -28.84068221
  atomic energy  EATOM  =       588.62352690
  free energy    TOTEN  =       189.26986361 eV

  energy without entropy =      189.27112409  energy(sigma->0) =      189.27049385

[...]

 eigenvalue-minimisations  : 10496
 total energy-change (2. order) :-0.1985100E+03  (-0.1764574E+03)
 number of electron      16.0000000 magnetization
 augmentation part       16.0000000 magnetization

[...]

 Broyden mixing:
  rms(total) = 0.72549E+00    rms(broyden)= 0.72549E+00
  rms(prec ) = 0.78943E+00
  weight for this iteration     100.00

[...]

 eigenvalues of (default mixing * dielectric matrix)
  average eigenvalue GAMMA=   2.3116
  2.3116

[...]

 average (electrostatic) potential at core
  the test charge radii are     0.6991
  (the norm of the test charge is              1.0000)
       1 -58.2403       2 -58.2403       3 -58.2403       4 -58.2403

 E-fermi :  -2.7830     XC(G=0):  -2.1570     alpha+bet : -1.9046

 k-point     1 :       0.0000    0.0000    0.0000
  band No.  band energies     occupation
      1     -22.1835      2.00000
      2     -16.8906      2.00000
      3     -15.9277      2.00000
      4     -10.3047      2.00000
      5      -9.2944      2.00000
      6      -5.8764      2.00000
      7      -5.7633      2.00000
      8      -5.0257      2.00000
      9      -1.0996      0.00000
     10       0.5322      0.00000
     11       1.3320      0.00000
     12       1.7180      0.00000

[...]

 soft charge-density along one line, spin component           1
         0         1         2         3         4         5         6         7         8         9
 total charge-density along one line

------------------------ aborting loop because EDIFF is reached ----------------------------------------

  FORCE on cell =-STRESS in cart. coord.  units (eV):
  Direction    XX          YY          ZZ          XY          YZ          ZX
  Alpha Z     6.18334     6.18334     6.18334
  Ewald    3066.05947  3064.79951 -3600.68510     0.00000     0.00000    -0.00000
  Hartree  3001.62903  3001.20320 -2978.57195    -0.00000    -0.00000    -0.00000
  E(xc)     -58.19643   -58.18420   -60.52213    -0.00000    -0.00000    -0.00000
  Local   -6240.36570 -6238.90654  6373.46941     0.00000     0.00000    -0.00000
  n-local   -13.90175   -13.56067   -12.65099     0.06972    -0.00000     0.00000
  augment    -1.51682    -1.51545    -1.39701    -0.00000    -0.00000     0.00000
  Kinetic   240.10925   237.74880   274.17309    -4.61941     0.00000    -0.00000
  Fock        0.00000     0.00000     0.00000     0.00000     0.00000     0.00000
  Total       0.00040    -2.23200    -0.00134     0.00000     0.00000     0.00000
  in kB       0.00301   -16.96117    -0.01016     0.00000     0.00000     0.00000

 VOLUME and BASIS-vectors are now :
  energy-cutoff  :     2000.00
  volume of cell :      210.84
      direct lattice vectors                 reciprocal lattice vectors
     4.265512161  0.000000000  0.000000000     0.234438436  0.000000000  0.000000000
     0.000000000  2.492343605  0.000000000     0.000000000  0.401228787  0.000000000
     0.000000000  0.000000000 19.832140228     0.000000000  0.000000000  0.050423201

[...]

 FORCES acting on ions
    electron-ion (+dipol)            ewald-force                    non-local-force                 convergence-correction
   -.220E+01 0.990E-16 0.524E-09   0.221E+01 0.495E-14 0.141E-17   -.113E-02 -.347E-17 0.000E+00   -.301E-06 -.175E-14 0.191E-12
   0.220E+01 0.974E-14 -.397E-08   -.221E+01 -.751E-14 0.262E-34   0.113E-02 0.000E+00 0.000E+00   0.301E-06 -.299E-15 0.192E-12
   -.220E+01 0.588E-12 0.514E-09   0.221E+01 0.897E-14 -.141E-17   -.113E-02 -.347E-17 0.000E+00   -.301E-06 -.176E-14 0.191E-12
   0.220E+01 0.200E-16 -.398E-08   -.221E+01 -.348E-14 0.000E+00   0.113E-02 0.000E+00 0.000E+00   0.301E-06 -.335E-15 0.192E-12
   -.242E-06 0.598E-12 -.692E-08   0.178E-14 0.293E-14 0.000E+00   0.217E-18 -.694E-17 0.000E+00   0.116E-12 -.414E-14 0.767E-12

 POSITION                                       TOTAL-FORCE (eV/Angst)
      0.00113      0.00000      0.00000         0.000001      0.000000      0.000000
      0.70979      1.24617      0.00000        -0.000001      0.000000      0.000000
      2.13389      1.24617      0.00000         0.000001     -0.000000      0.000000
      2.84254      0.00000      0.00000        -0.000001      0.000000      0.000000
    total drift:                               -0.000000      0.000000     -0.000000

  FREE ENERGIE OF THE ION-ELECTRON SYSTEM (eV)
  free  energy   TOTEN  =       -36.91416233 eV

  energy  without entropy=      -36.91413471  energy(sigma->0) =      -36.91414852

 Quasi-Newton relaxation of ions (Broydens 2nd method)
  g(Force)  = 0.261E-12   g(Stress)= 0.000E+00

 Reset! Starting new Quasi-Newton update for ions

[...]

 eigenvalue-minimisations  :  4324
 total energy-change (2. order) : 0.5892389E-09  ( 0.5673240E-09)
 number of electron      16.0000000 magnetization
 augmentation part        0.3780725 magnetization

[...]

 eigenvalue-minimisations  :  1883
 total energy-change (2. order) :-0.1911076E-09  ( 0.2008064E-13)
 number of electron      16.0000000 magnetization
 augmentation part        0.3780725 magnetization

[...]

 d Force =-0.4124785E-12[-0.109E-11, 0.261E-12]  d Energy = 0.1236913E-09-0.124E-09
 d Force = 0.4948003E-06[ 0.495E-06, 0.495E-06]  d Ewald  = 0.4948070E-06-0.682E-11

[...]

 retain information from N=  1 steps
 eigenvalues of (default step * inverse Hessian matrix)
  average eigenvalue of G=   0.1937
 eigenvalue spectrum of G is  0.1937

[...]

 d Force = 0.2064825E-12[-0.463E-12, 0.875E-12]  d Energy = 0.6480150E-11-0.627E-11
 d Force =-0.3989460E-06[-0.399E-06,-0.399E-06]  d Ewald  =-0.3989462E-06 0.000E+00

[...]

 d Force = 0.2878665E-13[-0.102E-12, 0.160E-12]  d Energy =-0.1932676E-11 0.196E-11
 d Force = 0.1379088E-06[ 0.138E-06, 0.138E-06]  d Ewald  = 0.1379080E-06 0.909E-12

[...]

 FEWALD executed in parallel

[...]

 eigenvalue-minimisations  :   620
 total energy-change (2. order) :-0.7306653E-09  (-0.1023872E-14)
 number of electron      16.0000000 magnetization
 augmentation part        0.3780725 magnetization

[...]

 eigenvalue-minimisations  :   561
 total energy-change (2. order) : 0.1149374E-09  (-0.3495147E-15)
 number of electron      16.0000000 magnetization
 augmentation part        0.3780725 magnetization

[...]

 eigenvalue-minimisations  :   421
 total energy-change (2. order) : 0.9981704E-10  ( 0.0000000E+00)
 number of electron      16.0000000 magnetization
 augmentation part        0.3780725 magnetization

 Broyden mixing:
  rms(total) = 0.63942E-10    rms(broyden)= 0.63887E-10
  rms(prec ) = 0.88445E-10
  weight for this iteration     100.00

 eigenvalues of (default mixing * dielectric matrix)
  average eigenvalue GAMMA=   2.1518
  1.0753  2.6060  2.7739

[...]

----------------------------------------- Iteration    5(   5)  ---------------------------------------

 eigenvalue-minimisations  :   369
 total energy-change (2. order) :-0.6491518E-10  ( 0.0000000E+00)
 number of electron      16.0000000 magnetization
 augmentation part        0.3780725 magnetization

 Free energy of the ion-electron system (eV)
  alpha Z        PSCENC =         6.18334092
  Ewald energy   TEWEN  =      2530.17412242
  -Hartree energ DENC   =     -3024.26027553
  -exchange      EXHF   =         0.00000000
  -V(xc)+E(xc)   XCENC  =        57.36693725
  PAW double counting   =       273.67020907     -278.80357556
  entropy T*S    EENTRO =        -0.00002761
  eigenvalues    EBANDS =      -189.86842019
  atomic energy  EATOM  =       588.62352690
  free energy    TOTEN  =       -36.91416233 eV

  energy without entropy =      -36.91413471  energy(sigma->0) =      -36.91414852

 average (electrostatic) potential at core
  the test charge radii are     0.6991
  (the norm of the test charge is              1.0000)
       1 -58.2403       2 -58.2403       3 -58.2403       4 -58.2403

 E-fermi :  -2.7830     XC(G=0):  -2.1563     alpha+bet : -1.9046

[...]

 k-point   247 :       0.5000    0.5000    0.0000
  band No.  band energies     occupation
      1     -17.0638      2.00000
      2     -17.0638      2.00000
      3     -15.9209      2.00000
      4     -15.9209      2.00000
      5      -9.0808      2.00000
      6      -9.0808      2.00000
      7      -5.1598      2.00000
      8      -5.1598      2.00000
      9      -1.1165      0.00000
     10      -1.1165      0.00000
     11       4.6030      0.00000
     12       4.6030      0.00000

 soft charge-density along one line, spin component           1
         0         1         2         3         4         5         6         7         8         9
 total charge-density along one line

------------------------ aborting loop because EDIFF is reached ----------------------------------------

  FORCE on cell =-STRESS in cart. coord.  units (eV):
  Direction    XX          YY          ZZ          XY          YZ          ZX
  Alpha Z     6.18334     6.18334     6.18334
  Ewald    3066.05945  3064.79953 -3600.68510     0.00000     0.00000    -0.00000
  Hartree  3001.62902  3001.20320 -2978.57195    -0.00000    -0.00000    -0.00000
  E(xc)     -58.19643   -58.18420   -60.52213    -0.00000    -0.00000    -0.00000
  Local   -6240.36569 -6238.90656  6373.46941     0.00000    -0.00000    -0.00000
  n-local   -13.90175   -13.56067   -12.65099     0.06972    -0.00000     0.00000
  augment    -1.51682    -1.51545    -1.39701     0.00000    -0.00000     0.00000
  Kinetic   240.10926   237.74880   274.17309    -4.61941     0.00000    -0.00000
  Fock        0.00000     0.00000     0.00000     0.00000     0.00000     0.00000
  Total       0.00040    -2.23200    -0.00134     0.00000     0.00000     0.00000
  in kB       0.00303   -16.96116    -0.01015     0.00000     0.00000     0.00000

 VOLUME and BASIS-vectors are now :
  energy-cutoff  :     2000.00
  volume of cell :      210.84
      direct lattice vectors                 reciprocal lattice vectors
     4.265512161  0.000000000  0.000000000     0.234438436  0.000000000  0.000000000
     0.000000000  2.492343605  0.000000000     0.000000000  0.401228787  0.000000000
     0.000000000  0.000000000 19.832140228     0.000000000  0.000000000  0.050423201

  length of vectors
     4.265512161  2.492343605 19.832140228     0.234438436  0.401228787  0.050423201

 FORCES acting on ions
    electron-ion (+dipol)            ewald-force                    non-local-force                 convergence-correction
   -.220E+01 0.790E-16 0.525E-09   0.221E+01 -.285E-14 -.138E-18   -.114E-02 -.104E-16 -.517E-25   0.553E-10 -.206E-14 -.254E-11
   0.220E+01 -.567E-14 -.398E-08   -.221E+01 0.400E-14 0.579E-34   0.114E-02 0.104E-16 0.258E-25   -.553E-10 0.254E-15 -.253E-11
   -.220E+01 0.693E-12 0.525E-09   0.221E+01 -.254E-14 0.138E-18   -.114E-02 -.104E-16 0.517E-25   0.553E-10 -.176E-14 -.256E-11
   0.220E+01 0.574E-16 -.395E-08   -.221E+01 0.431E-14 -.963E-34   0.114E-02 0.347E-17 0.000E+00   -.553E-10 -.220E-16 -.257E-11
   -.242E-06 0.688E-12 -.688E-08   0.178E-14 0.293E-14 -.481E-34   -.217E-18 -.694E-17 0.258E-25   0.313E-14 -.358E-14 -.102E-10

 POSITION                                       TOTAL-FORCE (eV/Angst)
      0.00113     -0.00000      0.00000         0.000001      0.000000      0.000000
      0.70979      1.24617     -0.00000        -0.000001     -0.000000     -0.000000
      2.13389      1.24617      0.00000         0.000001     -0.000000      0.000000
      2.84254      0.00000     -0.00000        -0.000001      0.000000     -0.000000
    total drift:                               -0.000000      0.000000     -0.000000

  FREE ENERGIE OF THE ION-ELECTRON SYSTEM (eV)
  free  energy   TOTEN  =       -36.91416233 eV

  energy  without entropy=      -36.91413471  energy(sigma->0) =      -36.91414852

 d Force = 0.1331615E-13[-0.133E-13, 0.399E-13]  d Energy =-0.1284661E-09 0.128E-09
 d Force =-0.5381382E-07[-0.538E-07,-0.538E-07]  d Ewald  =-0.5381298E-07-0.909E-12

 Quasi-Newton relaxation of ions (Broydens 2nd method)
  g(Force)  = 0.573E-13   g(Stress)= 0.000E+00

 retain information from N=  1 steps
 eigenvalues of (default step * inverse Hessian matrix)
  average eigenvalue of G=   0.0580
 eigenvalue spectrum of G is  0.0580

 reached required accuracy - stopping structural energy minimisation