 vasp.5.3.5 31Mar14 (build Mar 02 2015 18:14:16) complex

 executed on             LinuxIFC date 2018.08.09  20:03:22

 INCAR:
 POTCAR:   PAW_PBE C 08Apr2002
 POTCAR:   PAW_PBE C 08Apr2002
   VRHFIN =C: s2p2

   TITEL  = PAW_PBE C 08Apr2002
   POMASS =   12.011; ZVAL   =    4.000    mass and valenz
   ENMAX  =  400.000; ENMIN  =  300.000 eV
   QCUT   =   -5.516; QGAM   =   11.032    optimization parameters

   Description
     l     E      TYP  RCUT    TYP  RCUT
     0   .000     23  1.200
     0   .000     23  1.200
     1   .000     23  1.500
     1  2.500     23  1.500
     2   .000      7  1.500

 PAW_PBE C 08Apr2002                    :

 POSCAR: MD-kMC export data
  positions in direct lattice
  velocities in cartesian coordinates
 exchange correlation table for  LEXCH =        8
   RHO(1)=    0.500       N(1)  =     2000
   RHO(2)=  100.500       N(2)  =     4000

 ion  position               nearest neighbor table
   1  0.000  0.000  0.000-   4 1.42   2 1.44   2 1.44
   2  0.166  0.500  0.000-   3 1.42   1 1.44   1 1.44
   3  0.500  0.500  0.000-   2 1.42   4 1.44   4 1.44
   4  0.666  0.000  0.000-   1 1.42   3 1.44   3 1.44

  LATTYP: Found a simple orthorhombic cell.
 ALAT       =     2.5040638621
 B/A-ratio  =     1.7020862905
 C/A-ratio  =     7.8891626348

  Lattice vectors:

 A1 = (   0.0000000000,  -2.5040638621,   0.0000000000)
 A2 = (  -4.2621327702,   0.0000000000,   0.0000000000)
 A3 = (   0.0000000000,   0.0000000000, -19.7549670558)

Analysis of symmetry for initial positions (statically):
 Subroutine PRICEL returns following result:

  LATTYP: Found a base centered orthorhombic cell.
 ALAT       =     2.5040638621
 B/A-ratio  =     1.7020862905
 C/A-ratio  =     7.8891626348

[...]

   2 primitive cells build up your supercell.

 Routine SETGRP: Setting up the symmetry group for a
 simple orthorhombic supercell.

 Subroutine GETGRP returns: Found  8 space group operations
 (whereof  4 operations were pure point group operations)
 out of a pool of  8 trial point group operations.

The static configuration has the point symmetry C_2v.
 The point group associated with its full space group is D_2h.

Analysis of symmetry for dynamics (positions and initial velocities):
 Subroutine PRICEL returns following result:

  LATTYP: Found a base centered orthorhombic cell.
 ALAT       =     2.5040638621
 B/A-ratio  =     1.7020862905
 C/A-ratio  =     7.8891626348

  Lattice vectors:

 A1 = (   2.1310663851,  -1.2520319310,   0.0000000000)
 A2 = (  -2.1310663851,  -1.2520319310,   0.0000000000)
 A3 = (   0.0000000000,   0.0000000000, -19.7549670558)

   2 primitive cells build up your supercell.

 Routine SETGRP: Setting up the symmetry group for a
 simple orthorhombic supercell.

 Subroutine GETGRP returns: Found  8 space group operations
 (whereof  4 operations were pure point group operations)
 out of a pool of  8 trial point group operations.

The dynamic configuration has the point symmetry C_2v.
 The point group associated with its full space group is D_2h.

 KPOINTS: Automatic mesh

Automatic generation of k-mesh.
Space group operators:
 irot       det(A)        alpha          n_x          n_y          n_z        tau_x        tau_y        tau_z
    1     1.000000     0.000000     1.000000     0.000000     0.000000     0.000000     0.000000     0.000000
    2    -1.000000   180.000000     0.000000     0.000000     1.000000     0.000000     0.000000     0.000000
    3     1.000000   180.000000     1.000000     0.000000     0.000000     0.000000     0.000000     0.000000
    4    -1.000000   180.000000     0.000000     1.000000     0.000000     0.000000     0.000000     0.000000
    5    -1.000000     0.000000     1.000000     0.000000     0.000000     0.166667    -0.500000     0.000000
    6     1.000000   180.000000     0.000000     0.000000     1.000000     0.166667    -0.500000     0.000000
    7    -1.000000   180.000000     1.000000     0.000000     0.000000     0.166667    -0.500000     0.000000
    8     1.000000   180.000000     0.000000     1.000000     0.000000     0.166667    -0.500000     0.000000

 Subroutine IBZKPT returns following result:

 Found    247 irreducible k-points:

 Following reciprocal coordinates:
            Coordinates               Weight
  0.000000  0.000000  0.000000      1.000000
  0.041667  0.000000  0.000000      2.000000
  0.083333  0.000000  0.000000      2.000000
  0.125000  0.000000  0.000000      2.000000
  0.166667  0.000000  0.000000      2.000000
  0.208333  0.000000  0.000000      2.000000
  0.250000  0.000000  0.000000      2.000000
  0.291667  0.000000  0.000000      2.000000
  0.333333  0.000000  0.000000      2.000000
  0.375000  0.000000  0.000000      2.000000
  0.416667  0.000000  0.000000      2.000000
  0.458333  0.000000  0.000000      2.000000
  0.500000  0.000000  0.000000      1.000000
  0.000000  0.027778  0.000000      2.000000
  0.041667  0.027778  0.000000      4.000000
  0.083333  0.027778  0.000000      4.000000
  0.125000  0.027778  0.000000      4.000000
  0.166667  0.027778  0.000000      4.000000
  0.208333  0.027778  0.000000      4.000000
  0.250000  0.027778  0.000000      4.000000
  0.291667  0.027778  0.000000      4.000000
  0.333333  0.027778  0.000000      4.000000
  0.375000  0.027778  0.000000      4.000000
  0.416667  0.027778  0.000000      4.000000
  0.458333  0.027778  0.000000      4.000000
  0.500000  0.027778  0.000000      2.000000
  0.000000  0.055556  0.000000      2.000000
  0.041667  0.055556  0.000000      4.000000
  0.083333  0.055556  0.000000      4.000000
  0.125000  0.055556  0.000000      4.000000
  0.166667  0.055556  0.000000      4.000000
  0.208333  0.055556  0.000000      4.000000
  0.250000  0.055556  0.000000      4.000000
  0.291667  0.055556  0.000000      4.000000
  0.333333  0.055556  0.000000      4.000000
  0.375000  0.055556  0.000000      4.000000
  0.416667  0.055556  0.000000      4.000000
  0.458333  0.055556  0.000000      4.000000
  0.500000  0.055556  0.000000      2.000000
  0.000000  0.083333  0.000000      2.000000
  0.041667  0.083333  0.000000      4.000000
  0.083333  0.083333  0.000000      4.000000
  0.125000  0.083333  0.000000      4.000000
  0.166667  0.083333  0.000000      4.000000
  0.208333  0.083333  0.000000      4.000000
  0.250000  0.083333  0.000000      4.000000
  0.291667  0.083333  0.000000      4.000000
  0.333333  0.083333  0.000000      4.000000
  0.375000  0.083333  0.000000      4.000000
  0.416667  0.083333  0.000000      4.000000
  0.458333  0.083333  0.000000      4.000000
  0.500000  0.083333  0.000000      2.000000
  0.000000  0.111111  0.000000      2.000000
  0.041667  0.111111  0.000000      4.000000
  0.083333  0.111111  0.000000      4.000000
  0.125000  0.111111  0.000000      4.000000
  0.166667  0.111111  0.000000      4.000000
  0.208333  0.111111  0.000000      4.000000
  0.250000  0.111111  0.000000      4.000000
  0.291667  0.111111  0.000000      4.000000
[...]
  0.458333  0.472222  0.000000      4.000000
  0.500000  0.472222  0.000000      2.000000
  0.000000  0.500000  0.000000      1.000000
  0.041667  0.500000  0.000000      2.000000
  0.083333  0.500000  0.000000      2.000000
  0.125000  0.500000  0.000000      2.000000
  0.166667  0.500000  0.000000      2.000000
  0.208333  0.500000  0.000000      2.000000
  0.250000  0.500000  0.000000      2.000000
  0.291667  0.500000  0.000000      2.000000
  0.333333  0.500000  0.000000      2.000000
  0.375000  0.500000  0.000000      2.000000
  0.416667  0.500000  0.000000      2.000000
  0.458333  0.500000  0.000000      2.000000
  0.500000  0.500000  0.000000      1.000000

 Following cartesian coordinates:
            Coordinates               Weight
  0.000000  0.000000  0.000000      1.000000
  0.009776  0.000000  0.000000      2.000000
  0.019552  0.000000  0.000000      2.000000
  0.029328  0.000000  0.000000      2.000000
  0.039104  0.000000  0.000000      2.000000
  0.048880  0.000000  0.000000      2.000000
  0.058656  0.000000  0.000000      2.000000
  0.068432  0.000000  0.000000      2.000000
  0.078208  0.000000  0.000000      2.000000
  0.087984  0.000000  0.000000      2.000000
  0.097760  0.000000  0.000000      2.000000
  0.107536  0.000000  0.000000      2.000000
  0.117312  0.000000  0.000000      1.000000
  0.000000  0.011093  0.000000      2.000000
  0.009776  0.011093  0.000000      4.000000
  0.019552  0.011093  0.000000      4.000000
  0.029328  0.011093  0.000000      4.000000
  0.039104  0.011093  0.000000      4.000000
  0.048880  0.011093  0.000000      4.000000
  0.058656  0.011093  0.000000      4.000000
  0.068432  0.011093  0.000000      4.000000
  0.078208  0.011093  0.000000      4.000000
  0.087984  0.011093  0.000000      4.000000
  0.097760  0.011093  0.000000      4.000000
  0.107536  0.011093  0.000000      4.000000
  0.117312  0.011093  0.000000      2.000000
  0.000000  0.022186  0.000000      2.000000
  0.009776  0.022186  0.000000      4.000000
  0.019552  0.022186  0.000000      4.000000
  0.029328  0.022186  0.000000      4.000000
  0.039104  0.022186  0.000000      4.000000
  0.048880  0.022186  0.000000      4.000000
  0.058656  0.022186  0.000000      4.000000
  0.068432  0.022186  0.000000      4.000000
  0.078208  0.022186  0.000000      4.000000
  0.087984  0.022186  0.000000      4.000000
  0.097760  0.022186  0.000000      4.000000
  0.107536  0.022186  0.000000      4.000000
  0.117312  0.022186  0.000000      2.000000
  0.000000  0.033279  0.000000      2.000000
  0.009776  0.033279  0.000000      4.000000
  0.019552  0.033279  0.000000      4.000000
  0.029328  0.033279  0.000000      4.000000
  0.039104  0.033279  0.000000      4.000000
  0.048880  0.033279  0.000000      4.000000
  0.058656  0.033279  0.000000      4.000000
  0.068432  0.033279  0.000000      4.000000
  0.078208  0.033279  0.000000      4.000000
  0.087984  0.033279  0.000000      4.000000
  0.097760  0.033279  0.000000      4.000000
  0.107536  0.033279  0.000000      4.000000
  0.117312  0.033279  0.000000      2.000000
  0.000000  0.044372  0.000000      2.000000
  0.009776  0.044372  0.000000      4.000000
  0.019552  0.044372  0.000000      4.000000
  0.029328  0.044372  0.000000      4.000000
  0.039104  0.044372  0.000000      4.000000
  0.048880  0.044372  0.000000      4.000000
  0.058656  0.044372  0.000000      4.000000
  0.068432  0.044372  0.000000      4.000000
[...]
  0.107536  0.188582  0.000000      4.000000
  0.117312  0.188582  0.000000      2.000000
  0.000000  0.199675  0.000000      1.000000
  0.009776  0.199675  0.000000      2.000000
  0.019552  0.199675  0.000000      2.000000
  0.029328  0.199675  0.000000      2.000000
  0.039104  0.199675  0.000000      2.000000
  0.048880  0.199675  0.000000      2.000000
  0.058656  0.199675  0.000000      2.000000
  0.068432  0.199675  0.000000      2.000000
  0.078208  0.199675  0.000000      2.000000
  0.087984  0.199675  0.000000      2.000000
  0.097760  0.199675  0.000000      2.000000
  0.107536  0.199675  0.000000      2.000000
  0.117312  0.199675  0.000000      1.000000

 I would recommend the setting:
   dimension x,y,z NGX =    62 NGY =   37 NGZ =  288
[...]
 k-point ** :   0.1667 0.2778 0.0000  plane waves:   42871
 k-point ** :   0.2083 0.2778 0.0000  plane waves:   42858
 k-point ** :   0.2500 0.2778 0.0000  plane waves:   42844
 k-point ** :   0.2917 0.2778 0.0000  plane waves:   42805
 k-point ** :   0.3333 0.2778 0.0000  plane waves:   42792
 k-point ** :   0.3750 0.2778 0.0000  plane waves:   42772
 k-point ** :   0.4167 0.2778 0.0000  plane waves:   42775
 k-point ** :   0.4583 0.2778 0.0000  plane waves:   42758
 k-point ** :   0.5000 0.2778 0.0000  plane waves:   42746
 k-point ** :   0.0000 0.3056 0.0000  plane waves:   42892
 k-point ** :   0.0417 0.3056 0.0000  plane waves:   42895
 k-point ** :   0.0833 0.3056 0.0000  plane waves:   42911
 k-point ** :   0.1250 0.3056 0.0000  plane waves:   42897
 k-point ** :   0.1667 0.3056 0.0000  plane waves:   42869
 k-point ** :   0.2083 0.3056 0.0000  plane waves:   42843
 k-point ** :   0.2500 0.3056 0.0000  plane waves:   42837
 k-point ** :   0.2917 0.3056 0.0000  plane waves:   42815
 k-point ** :   0.3333 0.3056 0.0000  plane waves:   42778
 k-point ** :   0.3750 0.3056 0.0000  plane waves:   42778
 k-point ** :   0.4167 0.3056 0.0000  plane waves:   42785
 k-point ** :   0.4583 0.3056 0.0000  plane waves:   42755
 k-point ** :   0.5000 0.3056 0.0000  plane waves:   42750
 k-point ** :   0.0000 0.3333 0.0000  plane waves:   42904
 k-point ** :   0.0417 0.3333 0.0000  plane waves:   42889
 k-point ** :   0.0833 0.3333 0.0000  plane waves:   42903
[...]
 k-point ** :   0.4583 0.4722 0.0000  plane waves:   42835
 k-point ** :   0.5000 0.4722 0.0000  plane waves:   42810
 k-point ** :   0.0000 0.5000 0.0000  plane waves:   42862
 k-point ** :   0.0417 0.5000 0.0000  plane waves:   42838
 k-point ** :   0.0833 0.5000 0.0000  plane waves:   42868
 k-point ** :   0.1250 0.5000 0.0000  plane waves:   42874
 k-point ** :   0.1667 0.5000 0.0000  plane waves:   42908
 k-point ** :   0.2083 0.5000 0.0000  plane waves:   42876
 k-point ** :   0.2500 0.5000 0.0000  plane waves:   42896
 k-point ** :   0.2917 0.5000 0.0000  plane waves:   42888
 k-point ** :   0.3333 0.5000 0.0000  plane waves:   42892
 k-point ** :   0.3750 0.5000 0.0000  plane waves:   42878
 k-point ** :   0.4167 0.5000 0.0000  plane waves:   42856
 k-point ** :   0.4583 0.5000 0.0000  plane waves:   42880
 k-point ** :   0.5000 0.5000 0.0000  plane waves:   42784

 maximum and minimum number of plane-waves per node :     21495    21316

 maximum number of plane-waves:     42922
 maximum index in each direction:
   IXMAX=   15   IYMAX=    9   IZMAX=   72
   IXMIN=  -16   IYMIN=   -9   IZMIN=  -72

 NGX is ok and might be reduce to  64
 NGY is ok and might be reduce to  38
 WARNING: aliasing errors must be expected set NGZ to 290 to avoid them
 aliasing errors are usually negligible using standard VASP settings
 and one can safely disregard these warnings

 parallel 3D FFT for wavefunctions:
    minimum data exchange during FFTs selected (reduces bandwidth)
 parallel 3D FFT for charge:
    minimum data exchange during FFTs selected (reduces bandwidth)

 Broyden mixing: mesh for mixing (old mesh)
   NGX = 31   NGY = 19   NGZ =145
  (NGX  =128   NGY  = 80   NGZ  =576)
  gives a total of  85405 points

 initial charge density was supplied:
 charge density of overlapping atoms calculated
 number of electron      16.0000000 magnetization
 keeping initial charge density in first step

 Maximum index for augmentation-charges         5073 (set IRDMAX)

 First call to EWALD:  gamma=   0.298
 Maximum number of real-space cells 4x 6x 1
 Maximum number of reciprocal cells 2x 1x 8

 FEWALD executed in parallel

----------------------------------------- Iteration    1(   1)  ---------------------------------------

 eigenvalue-minimisations  :  5928
 total energy-change (2. order) : 0.1881370E+03  (-0.1056048E+04)
 number of electron      16.0000000 magnetization
 augmentation part       16.0000000 magnetization

 Free energy of the ion-electron system (eV)
  alpha Z        PSCENC =         6.18334092
  Ewald energy   TEWEN  =      2504.28900898
  -Hartree energ DENC   =     -2932.14095217
  -exchange      EXHF   =         0.00000000
  -V(xc)+E(xc)   XCENC  =        54.93007445
  PAW double counting   =       151.32577238     -155.92769107
  entropy T*S    EENTRO =        -0.00143667
  eigenvalues    EBANDS =       -29.14462929
  atomic energy  EATOM  =       588.62352690
  free energy    TOTEN  =       188.13701443 eV

  energy without entropy =      188.13845110  energy(sigma->0) =      188.13773276

[...]

 eigenvalue-minimisations  : 10444
 total energy-change (2. order) :-0.1976306E+03  (-0.1756290E+03)
 number of electron      16.0000000 magnetization
 augmentation part       16.0000000 magnetization

[...]

 Broyden mixing:
  rms(total) = 0.72044E+00    rms(broyden)= 0.72044E+00
  rms(prec ) = 0.78424E+00
  weight for this iteration     100.00

[...]

 eigenvalues of (default mixing * dielectric matrix)
  average eigenvalue GAMMA=   2.3117
  2.3117

[...]

 average (electrostatic) potential at core
  the test charge radii are     0.6991
  (the norm of the test charge is              1.0000)
       1 -58.2640       2 -58.2640       3 -58.2640       4 -58.2640

 E-fermi :  -2.7963     XC(G=0):  -2.1660     alpha+bet : -1.9046

 k-point     1 :       0.0000    0.0000    0.0000
  band No.  band energies     occupation
      1     -22.1507      2.00000
      2     -16.8310      2.00000
      3     -15.9066      2.00000
      4     -10.2795      2.00000
      5      -9.3544      2.00000
      6      -5.9161      2.00000
      7      -5.7542      2.00000
      8      -4.9873      2.00000
      9      -1.1118      0.00000
     10       0.5360      0.00000
     11       1.3348      0.00000
     12       1.7179      0.00000

[...]

 soft charge-density along one line, spin component           1
         0         1         2         3         4         5         6         7         8         9
 total charge-density along one line

------------------------ aborting loop because EDIFF is reached ----------------------------------------

  FORCE on cell =-STRESS in cart. coord.  units (eV):
  Direction    XX          YY          ZZ          XY          YZ          ZX
  Alpha Z     6.18334     6.18334     6.18334
  Ewald    3039.40938  3037.59620 -3572.71681     0.00000     0.00000     0.00000
  Hartree  2975.81193  2975.20490 -2952.57746    -0.00000    -0.00000    -0.00000
  E(xc)     -58.12983   -58.11169   -60.44924    -0.00000     0.00000    -0.00000
  Local   -6188.00065 -6185.91320  6319.67844    -0.00000     0.00000    -0.00000
  n-local   -13.87709   -13.38306   -12.59667     0.07584    -0.00000     0.00000
  augment    -1.50527    -1.50329    -1.38891    -0.00000     0.00000    -0.00000
  Kinetic   240.10667   236.67068   273.86596    -4.62719     0.00000    -0.00000
  Fock        0.00000     0.00000     0.00000     0.00000     0.00000     0.00000
  Total      -0.00152    -3.25612    -0.00135     0.00000     0.00000     0.00000
  in kB      -0.01157   -24.74357    -0.01028     0.00000     0.00000     0.00000

 VOLUME and BASIS-vectors are now :
  energy-cutoff  :     2000.00
  volume of cell :      210.84
      direct lattice vectors                 reciprocal lattice vectors
     4.262132770  0.000000000  0.000000000     0.234624319  0.000000000  0.000000000
     0.000000000  2.504063862  0.000000000     0.000000000  0.399350837  0.000000000
     0.000000000  0.000000000 19.754967056     0.000000000  0.000000000  0.050620181

[...]

 FORCES acting on ions
    electron-ion (+dipol)            ewald-force                    non-local-force                 convergence-correction
   -.320E+01 -.791E-15 0.664E-09   0.320E+01 0.942E-15 -.137E-18   -.330E-03 0.139E-16 0.000E+00   0.105E-05 -.396E-14 -.830E-13
   0.320E+01 0.194E-12 -.327E-08   -.320E+01 -.582E-15 0.111E-33   0.330E-03 -.173E-16 0.000E+00   -.105E-05 0.283E-15 -.835E-13
   -.320E+01 -.149E-12 0.664E-09   0.320E+01 0.155E-14 0.137E-18   -.330E-03 0.694E-17 0.000E+00   0.105E-05 -.334E-14 -.830E-13
   0.320E+01 -.103E-14 -.324E-08   -.320E+01 0.269E-16 -.108E-33   0.330E-03 -.347E-17 0.000E+00   -.105E-05 -.350E-15 -.835E-13
   -.210E-06 0.432E-13 -.518E-08   -.266E-14 0.194E-14 0.120E-34   0.542E-19 0.000E+00 0.000E+00   0.373E-12 -.737E-14 -.333E-12

 POSITION                                       TOTAL-FORCE (eV/Angst)
      0.00168      0.00000      0.00000        -0.001750      0.000000     -0.000000
      0.70868      1.25203      0.00000         0.001750      0.000000      0.000000
      2.13274      1.25203      0.00000        -0.001750     -0.000000     -0.000000
      2.83974      0.00000      0.00000         0.001750      0.000000      0.000000
    total drift:                               -0.000000      0.000000     -0.000000

  FREE ENERGIE OF THE ION-ELECTRON SYSTEM (eV)
  free  energy   TOTEN  =       -36.90128366 eV

  energy  without entropy=      -36.90127872  energy(sigma->0) =      -36.90128119

 Quasi-Newton relaxation of ions (Broydens 2nd method)
  g(Force)  = 0.591E-06   g(Stress)= 0.000E+00

 Reset! Starting new Quasi-Newton update for ions

[...]

WARNING in EDDRMM: call to ZHEGV failed, returncode =   6  3  1

[...]

 d Force =-0.9099970E-06[-0.241E-05, 0.591E-06]  d Energy =-0.8982763E-06-0.117E-07
 d Force =-0.1084574E-02[-0.109E-02,-0.108E-02]  d Ewald  =-0.1084574E-02-0.481E-09

[...]

 retain information from N=  1 steps
 eigenvalues of (default step * inverse Hessian matrix)
  average eigenvalue of G=   0.1969
 eigenvalue spectrum of G is  0.1969

[...]

 d Force = 0.9687173E-06[ 0.102E-08, 0.194E-05]  d Energy = 0.9589103E-06 0.981E-08
 d Force = 0.8717937E-03[ 0.869E-03, 0.875E-03]  d Ewald  = 0.8717935E-03 0.246E-09

[...]

 eigenvalue-minimisations  :  4704
 total energy-change (2. order) : 0.5272796E-09  ( 0.6109811E-09)
 number of electron      16.0000000 magnetization
 augmentation part        0.3763162 magnetization

[...]

 eigenvalue-minimisations  :  1937
 total energy-change (2. order) :-0.8764118E-09  ( 0.4804799E-14)
 number of electron      16.0000000 magnetization
 augmentation part        0.3763162 magnetization

[...]

 d Force =-0.4772655E-13[-0.632E-12, 0.536E-12]  d Energy = 0.3375362E-09-0.338E-09
 d Force = 0.4572900E-06[ 0.457E-06, 0.457E-06]  d Ewald  = 0.4572903E-06-0.455E-12

[...]

 FEWALD executed in parallel

[...]

 eigenvalue-minimisations  :  1316
 total energy-change (2. order) :-0.5547918E-10  ( 0.1484409E-13)
 number of electron      16.0000000 magnetization
 augmentation part        0.3763162 magnetization

[...]

 eigenvalue-minimisations  :  1257
 total energy-change (2. order) : 0.4957883E-09  (-0.1644775E-13)
 number of electron      16.0000000 magnetization
 augmentation part        0.3763162 magnetization

[...]

 eigenvalue-minimisations  :  1032
 total energy-change (2. order) :-0.4250751E-09  (-0.2216334E-14)
 number of electron      16.0000000 magnetization
 augmentation part        0.3763162 magnetization

 Broyden mixing:
  rms(total) = 0.14259E-09    rms(broyden)= 0.14221E-09
  rms(prec ) = 0.25939E-09
  weight for this iteration     100.00

 eigenvalues of (default mixing * dielectric matrix)
  average eigenvalue GAMMA=   2.2655
  5.5203  2.7912  2.5545  1.0786  0.8243  0.8243

[...]

----------------------------------------- Iteration    5(   8)  ---------------------------------------

 eigenvalue-minimisations  :  1021
 total energy-change (2. order) : 0.3865352E-10  ( 0.3647288E-14)
 number of electron      16.0000000 magnetization
 augmentation part        0.3763162 magnetization

 Free energy of the ion-electron system (eV)
  alpha Z        PSCENC =         6.18334092
  Ewald energy   TEWEN  =      2504.28922155
  -Hartree energ DENC   =     -2998.43956084
  -exchange      EXHF   =         0.00000000
  -V(xc)+E(xc)   XCENC  =        57.29510552
  PAW double counting   =       272.11235177     -277.23867132
  entropy T*S    EENTRO =        -0.00000487
  eigenvalues    EBANDS =      -189.72659336
  atomic energy  EATOM  =       588.62352690
  free energy    TOTEN  =       -36.90128372 eV

  energy without entropy =      -36.90127886  energy(sigma->0) =      -36.90128129

 average (electrostatic) potential at core
  the test charge radii are     0.6991
  (the norm of the test charge is              1.0000)
       1 -58.2640       2 -58.2640       3 -58.2640       4 -58.2640

 E-fermi :  -2.7963     XC(G=0):  -2.1630     alpha+bet : -1.9046

[...]

 k-point   247 :       0.5000    0.5000    0.0000
  band No.  band energies     occupation
      1     -17.0829      2.00000
      2     -17.0829      2.00000
      3     -15.8961      2.00000
      4     -15.8961      2.00000
      5      -9.0448      2.00000
      6      -9.0448      2.00000
      7      -5.1817      2.00000
      8      -5.1817      2.00000
      9      -1.1352      0.00000
     10      -1.1352      0.00000
     11       4.5995      0.00000
     12       4.5995      0.00000

 soft charge-density along one line, spin component           1
         0         1         2         3         4         5         6         7         8         9
 total charge-density along one line

------------------------ aborting loop because EDIFF is reached ----------------------------------------

  FORCE on cell =-STRESS in cart. coord.  units (eV):
  Direction    XX          YY          ZZ          XY          YZ          ZX
  Alpha Z     6.18334     6.18334     6.18334
  Ewald    3039.42382  3037.58198 -3572.71681     0.00000     0.00000     0.00000
  Hartree  2975.81397  2975.20304 -2952.57745    -0.00000    -0.00000    -0.00000
  E(xc)     -58.12979   -58.11175   -60.44926     0.00000     0.00000    -0.00000
  Local   -6188.01430 -6185.89982  6319.67838    -0.00000    -0.00000     0.00000
  n-local   -13.87697   -13.38319   -12.59668     0.07582    -0.00000     0.00000
  augment    -1.50530    -1.50327    -1.38891    -0.00000     0.00000     0.00000
  Kinetic   240.10457   236.67291   273.86603    -4.62711    -0.00000    -0.00000
  Fock        0.00000     0.00000     0.00000     0.00000     0.00000     0.00000
  Total      -0.00066    -3.25676    -0.00134     0.00000     0.00000     0.00000
  in kB      -0.00504   -24.74841    -0.01020     0.00000     0.00000     0.00000

 VOLUME and BASIS-vectors are now :
  energy-cutoff  :     2000.00
  volume of cell :      210.84
      direct lattice vectors                 reciprocal lattice vectors
     4.262132770  0.000000000  0.000000000     0.234624319  0.000000000  0.000000000
     0.000000000  2.504063862  0.000000000     0.000000000  0.399350837  0.000000000
     0.000000000  0.000000000 19.754967056     0.000000000  0.000000000  0.050620181

  length of vectors
     4.262132770  2.504063862 19.754967056     0.234624319  0.399350837  0.050620181

 FORCES acting on ions
    electron-ion (+dipol)            ewald-force                    non-local-force                 convergence-correction
   -.320E+01 -.218E-15 0.661E-09   0.320E+01 -.339E-14 0.113E-17   0.287E-03 0.173E-16 0.646E-26   0.143E-08 -.357E-14 0.127E-12
   0.320E+01 -.424E-14 -.329E-08   -.320E+01 0.754E-14 -.111E-17   -.287E-03 0.173E-16 -.646E-26   -.143E-08 -.870E-15 0.128E-12
   -.320E+01 -.152E-12 0.638E-09   0.320E+01 -.657E-14 0.105E-17   0.287E-03 -.347E-17 0.000E+00   0.143E-08 -.180E-14 0.124E-12
   0.320E+01 -.273E-15 -.329E-08   -.320E+01 0.436E-14 -.107E-17   -.287E-03 -.347E-17 0.000E+00   -.143E-08 -.260E-14 0.124E-12
   -.210E-06 -.157E-12 -.528E-08   -.266E-14 0.194E-14 0.000E+00   0.542E-19 0.278E-16 0.000E+00   0.154E-14 -.883E-14 0.503E-12

 POSITION                                       TOTAL-FORCE (eV/Angst)
      0.00166     -0.00000      0.00000        -0.000001      0.000000     -0.000000
      0.70869      1.25203     -0.00000         0.000001     -0.000000      0.000000
      2.13273      1.25203      0.00000        -0.000001     -0.000000     -0.000000
      2.83976     -0.00000     -0.00000         0.000001      0.000000      0.000000
    total drift:                               -0.000000     -0.000000     -0.000000

  FREE ENERGIE OF THE ION-ELECTRON SYSTEM (eV)
  free  energy   TOTEN  =       -36.90128372 eV

  energy  without entropy=      -36.90127886  energy(sigma->0) =      -36.90128129

 d Force = 0.1906614E-12[ 0.396E-13, 0.342E-12]  d Energy = 0.7048584E-11-0.686E-11
 d Force =-0.2473245E-06[-0.247E-06,-0.247E-06]  d Ewald  =-0.2473253E-06 0.909E-12

 Quasi-Newton relaxation of ions (Broydens 2nd method)
  g(Force)  = 0.506E-13   g(Stress)= 0.000E+00

 retain information from N=  1 steps
 eigenvalues of (default step * inverse Hessian matrix)
  average eigenvalue of G=   0.1023
 eigenvalue spectrum of G is  0.1023

 reached required accuracy - stopping structural energy minimisation