 vasp.5.3.5 31Mar14 (build Mar 02 2015 18:14:16) complex

 executed on             LinuxIFC date 2018.08.09  14:13:10

 INCAR:
 POTCAR:   PAW_PBE C 08Apr2002
 POTCAR:   PAW_PBE C 08Apr2002
   VRHFIN =C: s2p2

   TITEL  = PAW_PBE C 08Apr2002
   POMASS =   12.011; ZVAL   =    4.000    mass and valenz
   ENMAX  =  400.000; ENMIN  =  300.000 eV
   QCUT   =   -5.516; QGAM   =   11.032    optimization parameters

   Description
     l     E      TYP  RCUT    TYP  RCUT
     0   .000     23  1.200
     0   .000     23  1.200
     1   .000     23  1.500
     1  2.500     23  1.500
     2   .000      7  1.500

 PAW_PBE C 08Apr2002                    :

 POSCAR: MD-kMC export data
  positions in direct lattice
  velocities in cartesian coordinates
 exchange correlation table for  LEXCH =        8
   RHO(1)=    0.500       N(1)  =     2000
   RHO(2)=  100.500       N(2)  =     4000

 ion  position               nearest neighbor table
   1  0.999  0.000  0.000-   2 1.43   2 1.43   4 1.46
   2  0.167  0.500  0.000-   1 1.43   1 1.43   3 1.46
   3  0.499  0.500  0.000-   4 1.43   4 1.43   2 1.46
   4  0.667  0.000  0.000-   3 1.43   3 1.43   1 1.46

  LATTYP: Found a simple orthorhombic cell.
 ALAT       =     2.4571365678
 B/A-ratio  =     1.7827760935
 C/A-ratio  =     7.9719395578

  Lattice vectors:

 A1 = (   0.0000000000,  -2.4571365678,   0.0000000000)
 A2 = (  -4.3805243316,   0.0000000000,   0.0000000000)
 A3 = (   0.0000000000,   0.0000000000, -19.5881442039)

Analysis of symmetry for initial positions (statically):
 Subroutine PRICEL returns following result:

  LATTYP: Found a base centered orthorhombic cell.
 ALAT       =     2.4571365678
 B/A-ratio  =     1.7827760935
 C/A-ratio  =     7.9719395578

[...]

   2 primitive cells build up your supercell.

 Routine SETGRP: Setting up the symmetry group for a
 simple orthorhombic supercell.

 Subroutine GETGRP returns: Found  8 space group operations
 (whereof  4 operations were pure point group operations)
 out of a pool of  8 trial point group operations.

The static configuration has the point symmetry C_2v.
 The point group associated with its full space group is D_2h.

Analysis of symmetry for dynamics (positions and initial velocities):
 Subroutine PRICEL returns following result:

  LATTYP: Found a base centered orthorhombic cell.
 ALAT       =     2.4571365678
 B/A-ratio  =     1.7827760935
 C/A-ratio  =     7.9719395578

  Lattice vectors:

 A1 = (   2.1902621658,  -1.2285682839,   0.0000000000)
 A2 = (  -2.1902621658,  -1.2285682839,   0.0000000000)
 A3 = (   0.0000000000,   0.0000000000, -19.5881442039)

   2 primitive cells build up your supercell.

 Routine SETGRP: Setting up the symmetry group for a
 simple orthorhombic supercell.

 Subroutine GETGRP returns: Found  8 space group operations
 (whereof  4 operations were pure point group operations)
 out of a pool of  8 trial point group operations.

The dynamic configuration has the point symmetry C_2v.
 The point group associated with its full space group is D_2h.

 KPOINTS: Automatic mesh

Automatic generation of k-mesh.
Space group operators:
 irot       det(A)        alpha          n_x          n_y          n_z        tau_x        tau_y        tau_z
    1     1.000000     0.000000     1.000000     0.000000     0.000000     0.000000     0.000000     0.000000
    2    -1.000000   180.000000     0.000000     0.000000     1.000000     0.000000     0.000000     0.000000
    3     1.000000   180.000000     1.000000     0.000000     0.000000     0.000000     0.000000     0.000000
    4    -1.000000   180.000000     0.000000     1.000000     0.000000     0.000000     0.000000     0.000000
    5    -1.000000     0.000000     1.000000     0.000000     0.000000     0.166667    -0.500000     0.000000
    6     1.000000   180.000000     0.000000     0.000000     1.000000     0.166667    -0.500000     0.000000
    7    -1.000000   180.000000     1.000000     0.000000     0.000000     0.166667    -0.500000     0.000000
    8     1.000000   180.000000     0.000000     1.000000     0.000000     0.166667    -0.500000     0.000000

 Subroutine IBZKPT returns following result:

 Found    247 irreducible k-points:

 Following reciprocal coordinates:
            Coordinates               Weight
  0.000000  0.000000  0.000000      1.000000
  0.041667  0.000000  0.000000      2.000000
  0.083333  0.000000  0.000000      2.000000
  0.125000  0.000000  0.000000      2.000000
  0.166667  0.000000  0.000000      2.000000
  0.208333  0.000000  0.000000      2.000000
  0.250000  0.000000  0.000000      2.000000
  0.291667  0.000000  0.000000      2.000000
  0.333333  0.000000  0.000000      2.000000
  0.375000  0.000000  0.000000      2.000000
  0.416667  0.000000  0.000000      2.000000
  0.458333  0.000000  0.000000      2.000000
  0.500000  0.000000  0.000000      1.000000
  0.000000  0.027778  0.000000      2.000000
  0.041667  0.027778  0.000000      4.000000
  0.083333  0.027778  0.000000      4.000000
  0.125000  0.027778  0.000000      4.000000
  0.166667  0.027778  0.000000      4.000000
  0.208333  0.027778  0.000000      4.000000
  0.250000  0.027778  0.000000      4.000000
  0.291667  0.027778  0.000000      4.000000
  0.333333  0.027778  0.000000      4.000000
  0.375000  0.027778  0.000000      4.000000
  0.416667  0.027778  0.000000      4.000000
  0.458333  0.027778  0.000000      4.000000
  0.500000  0.027778  0.000000      2.000000
  0.000000  0.055556  0.000000      2.000000
  0.041667  0.055556  0.000000      4.000000
  0.083333  0.055556  0.000000      4.000000
  0.125000  0.055556  0.000000      4.000000
  0.166667  0.055556  0.000000      4.000000
  0.208333  0.055556  0.000000      4.000000
  0.250000  0.055556  0.000000      4.000000
  0.291667  0.055556  0.000000      4.000000
  0.333333  0.055556  0.000000      4.000000
  0.375000  0.055556  0.000000      4.000000
  0.416667  0.055556  0.000000      4.000000
  0.458333  0.055556  0.000000      4.000000
  0.500000  0.055556  0.000000      2.000000
  0.000000  0.083333  0.000000      2.000000
  0.041667  0.083333  0.000000      4.000000
  0.083333  0.083333  0.000000      4.000000
  0.125000  0.083333  0.000000      4.000000
  0.166667  0.083333  0.000000      4.000000
  0.208333  0.083333  0.000000      4.000000
  0.250000  0.083333  0.000000      4.000000
  0.291667  0.083333  0.000000      4.000000
  0.333333  0.083333  0.000000      4.000000
  0.375000  0.083333  0.000000      4.000000
  0.416667  0.083333  0.000000      4.000000
  0.458333  0.083333  0.000000      4.000000
  0.500000  0.083333  0.000000      2.000000
  0.000000  0.111111  0.000000      2.000000
  0.041667  0.111111  0.000000      4.000000
  0.083333  0.111111  0.000000      4.000000
  0.125000  0.111111  0.000000      4.000000
  0.166667  0.111111  0.000000      4.000000
  0.208333  0.111111  0.000000      4.000000
  0.250000  0.111111  0.000000      4.000000
  0.291667  0.111111  0.000000      4.000000
[...]
  0.458333  0.472222  0.000000      4.000000
  0.500000  0.472222  0.000000      2.000000
  0.000000  0.500000  0.000000      1.000000
  0.041667  0.500000  0.000000      2.000000
  0.083333  0.500000  0.000000      2.000000
  0.125000  0.500000  0.000000      2.000000
  0.166667  0.500000  0.000000      2.000000
  0.208333  0.500000  0.000000      2.000000
  0.250000  0.500000  0.000000      2.000000
  0.291667  0.500000  0.000000      2.000000
  0.333333  0.500000  0.000000      2.000000
  0.375000  0.500000  0.000000      2.000000
  0.416667  0.500000  0.000000      2.000000
  0.458333  0.500000  0.000000      2.000000
  0.500000  0.500000  0.000000      1.000000

 Following cartesian coordinates:
            Coordinates               Weight
  0.000000  0.000000  0.000000      1.000000
  0.009512  0.000000  0.000000      2.000000
  0.019024  0.000000  0.000000      2.000000
  0.028535  0.000000  0.000000      2.000000
  0.038047  0.000000  0.000000      2.000000
  0.047559  0.000000  0.000000      2.000000
  0.057071  0.000000  0.000000      2.000000
  0.066583  0.000000  0.000000      2.000000
  0.076094  0.000000  0.000000      2.000000
  0.085606  0.000000  0.000000      2.000000
  0.095118  0.000000  0.000000      2.000000
  0.104630  0.000000  0.000000      2.000000
  0.114142  0.000000  0.000000      1.000000
  0.000000  0.011305  0.000000      2.000000
  0.009512  0.011305  0.000000      4.000000
  0.019024  0.011305  0.000000      4.000000
  0.028535  0.011305  0.000000      4.000000
  0.038047  0.011305  0.000000      4.000000
  0.047559  0.011305  0.000000      4.000000
  0.057071  0.011305  0.000000      4.000000
  0.066583  0.011305  0.000000      4.000000
  0.076094  0.011305  0.000000      4.000000
  0.085606  0.011305  0.000000      4.000000
  0.095118  0.011305  0.000000      4.000000
  0.104630  0.011305  0.000000      4.000000
  0.114142  0.011305  0.000000      2.000000
  0.000000  0.022610  0.000000      2.000000
  0.009512  0.022610  0.000000      4.000000
  0.019024  0.022610  0.000000      4.000000
  0.028535  0.022610  0.000000      4.000000
  0.038047  0.022610  0.000000      4.000000
  0.047559  0.022610  0.000000      4.000000
  0.057071  0.022610  0.000000      4.000000
  0.066583  0.022610  0.000000      4.000000
  0.076094  0.022610  0.000000      4.000000
  0.085606  0.022610  0.000000      4.000000
  0.095118  0.022610  0.000000      4.000000
  0.104630  0.022610  0.000000      4.000000
  0.114142  0.022610  0.000000      2.000000
  0.000000  0.033915  0.000000      2.000000
  0.009512  0.033915  0.000000      4.000000
  0.019024  0.033915  0.000000      4.000000
  0.028535  0.033915  0.000000      4.000000
  0.038047  0.033915  0.000000      4.000000
  0.047559  0.033915  0.000000      4.000000
  0.057071  0.033915  0.000000      4.000000
  0.066583  0.033915  0.000000      4.000000
  0.076094  0.033915  0.000000      4.000000
  0.085606  0.033915  0.000000      4.000000
  0.095118  0.033915  0.000000      4.000000
  0.104630  0.033915  0.000000      4.000000
  0.114142  0.033915  0.000000      2.000000
  0.000000  0.045220  0.000000      2.000000
  0.009512  0.045220  0.000000      4.000000
  0.019024  0.045220  0.000000      4.000000
  0.028535  0.045220  0.000000      4.000000
  0.038047  0.045220  0.000000      4.000000
  0.047559  0.045220  0.000000      4.000000
  0.057071  0.045220  0.000000      4.000000
  0.066583  0.045220  0.000000      4.000000
[...]
  0.104630  0.192184  0.000000      4.000000
  0.114142  0.192184  0.000000      2.000000
  0.000000  0.203489  0.000000      1.000000
  0.009512  0.203489  0.000000      2.000000
  0.019024  0.203489  0.000000      2.000000
  0.028535  0.203489  0.000000      2.000000
  0.038047  0.203489  0.000000      2.000000
  0.047559  0.203489  0.000000      2.000000
  0.057071  0.203489  0.000000      2.000000
  0.066583  0.203489  0.000000      2.000000
  0.076094  0.203489  0.000000      2.000000
  0.085606  0.203489  0.000000      2.000000
  0.095118  0.203489  0.000000      2.000000
  0.104630  0.203489  0.000000      2.000000
  0.114142  0.203489  0.000000      1.000000

 I would recommend the setting:
   dimension x,y,z NGX =    64 NGY =   36 NGZ =  286
[...]
 k-point ** :   0.3333 0.2500 0.0000  plane waves:   42838
 k-point ** :   0.3750 0.2500 0.0000  plane waves:   42819
 k-point ** :   0.4167 0.2500 0.0000  plane waves:   42812
 k-point ** :   0.4583 0.2500 0.0000  plane waves:   42795
 k-point ** :   0.5000 0.2500 0.0000  plane waves:   42822
 k-point ** :   0.0000 0.2778 0.0000  plane waves:   42844
 k-point ** :   0.0417 0.2778 0.0000  plane waves:   42828
 k-point ** :   0.0833 0.2778 0.0000  plane waves:   42819
 k-point ** :   0.1250 0.2778 0.0000  plane waves:   42828
 k-point ** :   0.1667 0.2778 0.0000  plane waves:   42853
 k-point ** :   0.2083 0.2778 0.0000  plane waves:   42860
 k-point ** :   0.2500 0.2778 0.0000  plane waves:   42871
 k-point ** :   0.2917 0.2778 0.0000  plane waves:   42856
 k-point ** :   0.3333 0.2778 0.0000  plane waves:   42850
 k-point ** :   0.3750 0.2778 0.0000  plane waves:   42845
 k-point ** :   0.4167 0.2778 0.0000  plane waves:   42838
 k-point ** :   0.4583 0.2778 0.0000  plane waves:   42855
 k-point ** :   0.5000 0.2778 0.0000  plane waves:   42868
 k-point ** :   0.0000 0.3056 0.0000  plane waves:   42794
 k-point ** :   0.0417 0.3056 0.0000  plane waves:   42821
 k-point ** :   0.0833 0.3056 0.0000  plane waves:   42834
 k-point ** :   0.1250 0.3056 0.0000  plane waves:   42846
 k-point ** :   0.1667 0.3056 0.0000  plane waves:   42863
 k-point ** :   0.2083 0.3056 0.0000  plane waves:   42861
 k-point ** :   0.2500 0.3056 0.0000  plane waves:   42859
 k-point ** :   0.2917 0.3056 0.0000  plane waves:   42869
 k-point ** :   0.3333 0.3056 0.0000  plane waves:   42867
 k-point ** :   0.3750 0.3056 0.0000  plane waves:   42880
 k-point ** :   0.4167 0.3056 0.0000  plane waves:   42886
 k-point ** :   0.4583 0.3056 0.0000  plane waves:   42882
 k-point ** :   0.5000 0.3056 0.0000  plane waves:   42892
 k-point ** :   0.0000 0.3333 0.0000  plane waves:   42818
 k-point ** :   0.0417 0.3333 0.0000  plane waves:   42820
 k-point ** :   0.0833 0.3333 0.0000  plane waves:   42838
[...]
 k-point ** :   0.4583 0.4722 0.0000  plane waves:   42978
 k-point ** :   0.5000 0.4722 0.0000  plane waves:   42940
 k-point ** :   0.0000 0.5000 0.0000  plane waves:   42834
 k-point ** :   0.0417 0.5000 0.0000  plane waves:   42828
 k-point ** :   0.0833 0.5000 0.0000  plane waves:   42824
 k-point ** :   0.1250 0.5000 0.0000  plane waves:   42872
 k-point ** :   0.1667 0.5000 0.0000  plane waves:   42864
 k-point ** :   0.2083 0.5000 0.0000  plane waves:   42890
 k-point ** :   0.2500 0.5000 0.0000  plane waves:   42874
 k-point ** :   0.2917 0.5000 0.0000  plane waves:   42926
 k-point ** :   0.3333 0.5000 0.0000  plane waves:   42920
 k-point ** :   0.3750 0.5000 0.0000  plane waves:   42918
 k-point ** :   0.4167 0.5000 0.0000  plane waves:   42940
 k-point ** :   0.4583 0.5000 0.0000  plane waves:   42952
 k-point ** :   0.5000 0.5000 0.0000  plane waves:   42968

 maximum and minimum number of plane-waves per node :     21501    21320

 maximum number of plane-waves:     42978
 maximum index in each direction:
   IXMAX=   15   IYMAX=    8   IZMAX=   71
   IXMIN=  -16   IYMIN=   -9   IZMIN=  -71

 NGX is ok and might be reduce to  64
 NGY is ok and might be reduce to  36
 NGZ is ok and might be reduce to 286

 parallel 3D FFT for wavefunctions:
    minimum data exchange during FFTs selected (reduces bandwidth)
 parallel 3D FFT for charge:
    minimum data exchange during FFTs selected (reduces bandwidth)

 Broyden mixing: mesh for mixing (old mesh)
   NGX = 31   NGY = 17   NGZ =143
  (NGX  =128   NGY  = 72   NGZ  =576)
  gives a total of  75361 points

 initial charge density was supplied:
 charge density of overlapping atoms calculated
 number of electron      16.0000000 magnetization
 keeping initial charge density in first step

 Maximum index for augmentation-charges         4565 (set IRDMAX)

 First call to EWALD:  gamma=   0.298
 Maximum number of real-space cells 4x 6x 1
 Maximum number of reciprocal cells 2x 1x 8

 FEWALD executed in parallel

----------------------------------------- Iteration    1(   1)  ---------------------------------------

 eigenvalue-minimisations  :  5928
 total energy-change (2. order) : 0.1871760E+03  (-0.1059942E+04)
 number of electron      16.0000000 magnetization
 augmentation part       16.0000000 magnetization

 Free energy of the ion-electron system (eV)
  alpha Z        PSCENC =         6.18334092
  Ewald energy   TEWEN  =      2448.72722818
  -Hartree energ DENC   =     -2878.24289211
  -exchange      EXHF   =         0.00000000
  -V(xc)+E(xc)   XCENC  =        54.81560005
  PAW double counting   =       151.32577238     -155.92769107
  entropy T*S    EENTRO =        -0.00147937
  eigenvalues    EBANDS =       -28.32738195
  atomic energy  EATOM  =       588.62352690
  free energy    TOTEN  =       187.17602394 eV

  energy without entropy =      187.17750331  energy(sigma->0) =      187.17676362

[...]

 eigenvalue-minimisations  : 10440
 total energy-change (2. order) :-0.1967303E+03  (-0.1748952E+03)
 number of electron      16.0000000 magnetization
 augmentation part       16.0000000 magnetization

[...]

 Broyden mixing:
  rms(total) = 0.70968E+00    rms(broyden)= 0.70968E+00
  rms(prec ) = 0.77335E+00
  weight for this iteration     100.00

[...]

 eigenvalues of (default mixing * dielectric matrix)
  average eigenvalue GAMMA=   2.3101
  2.3101

[...]

WARNING in EDDRMM: call to ZHEGV failed, returncode =   6  3  1
WARNING in EDDRMM: call to ZHEGV failed, returncode =   6  3  1
WARNING in EDDRMM: call to ZHEGV failed, returncode =   6  3  1
WARNING in EDDRMM: call to ZHEGV failed, returncode =   6  3  1
WARNING in EDDRMM: call to ZHEGV failed, returncode =   6  3  1
WARNING in EDDRMM: call to ZHEGV failed, returncode =   6  3  1

[...]

 average (electrostatic) potential at core
  the test charge radii are     0.6991
  (the norm of the test charge is              1.0000)
       1 -58.3154       2 -58.3154       3 -58.3154       4 -58.3154

 E-fermi :  -2.8245     XC(G=0):  -2.1801     alpha+bet : -1.9046

 k-point     1 :       0.0000    0.0000    0.0000
  band No.  band energies     occupation
      1     -22.0799      2.00000
      2     -17.2585      2.00000
      3     -15.8319      2.00000
      4     -10.2248      2.00000
      5      -8.8033      2.00000
      6      -6.0074      2.00000
      7      -5.7269      2.00000
      8      -5.3363      2.00000
      9      -1.1864      0.00000
     10       0.5447      0.00000
     11       1.3423      0.00000
     12       1.7304      0.00000

[...]

 soft charge-density along one line, spin component           1
         0         1         2         3         4         5         6         7         8         9
 total charge-density along one line

------------------------ aborting loop because EDIFF is reached ----------------------------------------

  FORCE on cell =-STRESS in cart. coord.  units (eV):
  Direction    XX          YY          ZZ          XY          YZ          ZX
  Alpha Z     6.18334     6.18334     6.18334
  Ewald    2978.95267  2982.40559 -3512.63123    -0.00000     0.00000     0.00000
  Hartree  2919.29741  2920.47836 -2896.76168    -0.00000    -0.00000    -0.00000
  E(xc)     -57.95620   -57.98421   -60.29153    -0.00000    -0.00000    -0.00000
  Local   -6071.79193 -6075.88551  6204.14633    -0.00000     0.00000     0.00000
  n-local   -13.00611   -13.81699   -12.47918     0.06780    -0.00000    -0.00000
  augment    -1.47785    -1.48018    -1.37144    -0.00000    -0.00000     0.00000
  Kinetic   234.36384   240.09942   273.20405    -4.45227     0.00000     0.00000
  Fock        0.00000     0.00000     0.00000     0.00000     0.00000     0.00000
  Total      -5.43485    -0.00017    -0.00136     0.00000     0.00000     0.00000
  in kB     -41.29991    -0.00133    -0.01033     0.00000     0.00000     0.00000

 VOLUME and BASIS-vectors are now :
  energy-cutoff  :     2000.00
  volume of cell :      210.84
      direct lattice vectors                 reciprocal lattice vectors
     4.380524332  0.000000000  0.000000000     0.228283174  0.000000000  0.000000000
     0.000000000  2.457136568  0.000000000     0.000000000  0.406977786  0.000000000
     0.000000000  0.000000000 19.588144204     0.000000000  0.000000000  0.051051288

[...]

 FORCES acting on ions
    electron-ion (+dipol)            ewald-force                    non-local-force                 convergence-correction
   0.537E+01 0.117E-15 -.249E-08   -.537E+01 0.150E-14 -.440E-19   -.499E-02 0.000E+00 0.000E+00   -.281E-06 0.890E-15 -.832E-13
   -.537E+01 -.677E-14 -.109E-07   0.537E+01 -.135E-14 -.592E-33   0.499E-02 0.000E+00 0.000E+00   0.281E-06 0.130E-16 -.821E-13
   0.537E+01 -.158E-12 -.247E-08   -.537E+01 -.204E-15 0.440E-19   -.499E-02 0.000E+00 0.000E+00   -.281E-06 0.977E-15 -.834E-13
   -.537E+01 0.815E-15 -.109E-07   0.537E+01 -.306E-14 0.578E-33   0.499E-02 0.000E+00 0.000E+00   0.281E-06 -.116E-15 -.824E-13
   -.947E-06 -.164E-12 -.268E-07   0.178E-14 -.311E-14 -.120E-34   -.260E-17 0.000E+00 0.000E+00   -.158E-12 0.176E-14 -.331E-12

 POSITION                                       TOTAL-FORCE (eV/Angst)
      4.37815      0.00000      0.00000         0.000013      0.000000      0.000000
      0.73246      1.22857      0.00000        -0.000013      0.000000     -0.000000
      2.18789      1.22857      0.00000         0.000013     -0.000000      0.000000
      2.92272      0.00000      0.00000        -0.000013      0.000000     -0.000000
    total drift:                               -0.000001     -0.000000     -0.000000

  FREE ENERGIE OF THE ION-ELECTRON SYSTEM (eV)
  free  energy   TOTEN  =       -36.85787511 eV

  energy  without entropy=      -36.85787509  energy(sigma->0) =      -36.85787510

 Quasi-Newton relaxation of ions (Broydens 2nd method)
  g(Force)  = 0.333E-10   g(Stress)= 0.000E+00

 Reset! Starting new Quasi-Newton update for ions

[...]

 eigenvalue-minimisations  :  6536
 total energy-change (2. order) : 0.1022045E-09  ( 0.9203920E-10)
 number of electron      16.0000000 magnetization
 augmentation part        0.3725275 magnetization

[...]

 d Force =-0.4554138E-10[-0.124E-09, 0.333E-10]  d Energy = 0.3694822E-09-0.415E-09
 d Force =-0.1359994E-04[-0.136E-04,-0.136E-04]  d Ewald  =-0.1359994E-04-0.455E-12

[...]

 retain information from N=  1 steps
 eigenvalues of (default step * inverse Hessian matrix)
  average eigenvalue of G=   0.2111
 eigenvalue spectrum of G is  0.2111

 FEWALD executed in parallel

[...]

 eigenvalue-minimisations  :  6352
 total energy-change (2. order) : 0.4151843E-09  ( 0.2635503E-09)
 number of electron      16.0000000 magnetization
 augmentation part        0.3725275 magnetization

[...]

 eigenvalue-minimisations  :  1722
 total energy-change (2. order) :-0.3545892E-09  (-0.4430818E-13)
 number of electron      16.0000000 magnetization
 augmentation part        0.3725275 magnetization

[...]

 Broyden mixing:
  rms(total) = 0.55665E-07    rms(broyden)= 0.55665E-07
  rms(prec ) = 0.60330E-07
  weight for this iteration     100.00

 eigenvalues of (default mixing * dielectric matrix)
  average eigenvalue GAMMA=   1.1543
  2.8208  2.5186  0.8017  0.8017  0.9709  0.9709  0.4799  0.5121  0.5121

[...]

----------------------------------------- Iteration    3(  11)  ---------------------------------------

 eigenvalue-minimisations  :  1445
 total energy-change (2. order) : 0.8174084E-10  (-0.9369871E-13)
 number of electron      16.0000000 magnetization
 augmentation part        0.3725275 magnetization

 Free energy of the ion-electron system (eV)
  alpha Z        PSCENC =         6.18334092
  Ewald energy   TEWEN  =      2448.72723105
  -Hartree energ DENC   =     -2943.01410797
  -exchange      EXHF   =         0.00000000
  -V(xc)+E(xc)   XCENC  =        57.13961822
  PAW double counting   =       268.77689235     -273.88819318
  entropy T*S    EENTRO =        -0.00000002
  eigenvalues    EBANDS =      -189.40618338
  atomic energy  EATOM  =       588.62352690
  free energy    TOTEN  =       -36.85787511 eV

  energy without entropy =      -36.85787509  energy(sigma->0) =      -36.85787510

 average (electrostatic) potential at core
  the test charge radii are     0.6991
  (the norm of the test charge is              1.0000)
       1 -58.3154       2 -58.3154       3 -58.3154       4 -58.3154

 E-fermi :  -2.8245     XC(G=0):  -2.1774     alpha+bet : -1.9046

[...]

 k-point   247 :       0.5000    0.5000    0.0000
  band No.  band energies     occupation
      1     -16.8445      2.00000
      2     -16.8445      2.00000
      3     -15.8570      2.00000
      4     -15.8570      2.00000
      5      -9.3032      2.00000
      6      -9.3032      2.00000
      7      -5.0115      2.00000
      8      -5.0115      2.00000
      9      -1.1522      0.00000
     10      -1.1522      0.00000
     11       3.8926      0.00000
     12       3.8926      0.00000

 soft charge-density along one line, spin component           1
         0         1         2         3         4         5         6         7         8         9
 total charge-density along one line

------------------------ aborting loop because EDIFF is reached ----------------------------------------

  FORCE on cell =-STRESS in cart. coord.  units (eV):
  Direction    XX          YY          ZZ          XY          YZ          ZX
  Alpha Z     6.18334     6.18334     6.18334
  Ewald    2978.95255  2982.40571 -3512.63123    -0.00000     0.00000     0.00000
  Hartree  2919.29741  2920.47840 -2896.76170     0.00000    -0.00000    -0.00000
  E(xc)     -57.95621   -57.98421   -60.29153     0.00000    -0.00000    -0.00000
  Local   -6071.79184 -6075.88564  6204.14635    -0.00000    -0.00000     0.00000
  n-local   -13.00612   -13.81699   -12.47919     0.06780     0.00000     0.00000
  augment    -1.47785    -1.48018    -1.37144     0.00000    -0.00000     0.00000
  Kinetic   234.36386   240.09941   273.20406    -4.45227    -0.00000    -0.00000
  Fock        0.00000     0.00000     0.00000     0.00000     0.00000     0.00000
  Total      -5.43485    -0.00017    -0.00134     0.00000     0.00000     0.00000
  in kB     -41.29991    -0.00127    -0.01016     0.00000     0.00000     0.00000

 VOLUME and BASIS-vectors are now :
  energy-cutoff  :     2000.00
  volume of cell :      210.84
      direct lattice vectors                 reciprocal lattice vectors
     4.380524332  0.000000000  0.000000000     0.228283174  0.000000000  0.000000000
     0.000000000  2.457136568  0.000000000     0.000000000  0.406977786  0.000000000
     0.000000000  0.000000000 19.588144204     0.000000000  0.000000000  0.051051288

  length of vectors
     4.380524332  2.457136568 19.588144204     0.228283174  0.406977786  0.051051288

 FORCES acting on ions
    electron-ion (+dipol)            ewald-force                    non-local-force                 convergence-correction
   0.537E+01 0.416E-15 -.245E-08   -.537E+01 -.480E-14 -.556E-18   -.499E-02 0.694E-17 0.000E+00   -.856E-06 0.204E-14 -.305E-11
   -.537E+01 0.778E-14 -.109E-07   0.537E+01 0.607E-14 0.150E-17   0.499E-02 -.139E-16 0.000E+00   0.856E-06 -.316E-14 -.304E-11
   0.537E+01 -.156E-12 -.248E-08   -.537E+01 -.763E-14 -.118E-17   -.499E-02 0.694E-17 0.000E+00   -.856E-06 0.185E-14 -.303E-11
   -.537E+01 -.184E-15 -.109E-07   0.537E+01 0.325E-14 0.237E-18   0.499E-02 -.139E-16 0.000E+00   0.856E-06 -.293E-14 -.304E-11
   -.947E-06 -.148E-12 -.268E-07   0.178E-14 -.311E-14 -.963E-34   0.867E-18 -.139E-16 0.000E+00   -.485E-12 -.220E-14 -.122E-10

 POSITION                                       TOTAL-FORCE (eV/Angst)
      4.37815      0.00000      0.00000         0.000001      0.000000      0.000000
      0.73246      1.22857     -0.00000        -0.000001     -0.000000     -0.000000
      2.18789      1.22857      0.00000         0.000001      0.000000      0.000000
      2.92272      0.00000     -0.00000        -0.000001     -0.000000     -0.000000
    total drift:                               -0.000001     -0.000000     -0.000000

  FREE ENERGIE OF THE ION-ELECTRON SYSTEM (eV)
  free  energy   TOTEN  =       -36.85787511 eV

  energy  without entropy=      -36.85787509  energy(sigma->0) =      -36.85787510

 d Force = 0.4823398E-10[-0.164E-11, 0.981E-10]  d Energy =-0.2489742E-10 0.731E-10
 d Force = 0.1072893E-04[ 0.107E-04, 0.107E-04]  d Ewald  = 0.1072893E-04 0.000E+00

 Quasi-Newton relaxation of ions (Broydens 2nd method)
  g(Force)  = 0.130E-12   g(Stress)= 0.000E+00

 retain information from N=  1 steps
 eigenvalues of (default step * inverse Hessian matrix)
  average eigenvalue of G=   0.2076
 eigenvalue spectrum of G is  0.2076

 reached required accuracy - stopping structural energy minimisation