 vasp.5.3.5 31Mar14 (build Mar 02 2015 18:14:16) complex

 executed on             LinuxIFC date 2018.08.08  18:47:37

 INCAR:
 POTCAR:   PAW_PBE C 08Apr2002
 POTCAR:   PAW_PBE C 08Apr2002
   VRHFIN =C: s2p2

   TITEL  = PAW_PBE C 08Apr2002
   POMASS =   12.011; ZVAL   =    4.000    mass and valenz
   ENMAX  =  400.000; ENMIN  =  300.000 eV
   QCUT   =   -5.516; QGAM   =   11.032    optimization parameters

   Description
     l     E      TYP  RCUT    TYP  RCUT
     0   .000     23  1.200
     0   .000     23  1.200
     1   .000     23  1.500
     1  2.500     23  1.500
     2   .000      7  1.500

 PAW_PBE C 08Apr2002                    :

 POSCAR: MD-kMC export data
  positions in direct lattice
  velocities in cartesian coordinates
 exchange correlation table for  LEXCH =        8
   RHO(1)=    0.500       N(1)  =     2000
   RHO(2)=  100.500       N(2)  =     4000

 ion  position               nearest neighbor table
   1  1.000  0.000  0.000-   2 1.43   2 1.43   4 1.45
   2  0.167  0.500  0.000-   1 1.43   1 1.43   3 1.45
   3  0.500  0.500  0.000-   4 1.43   4 1.43   2 1.45
   4  0.667  0.000  0.000-   3 1.43   3 1.43   1 1.45

  LATTYP: Found a simple orthorhombic cell.
 ALAT       =     2.4588379335
 B/A-ratio  =     1.7732865925
 C/A-ratio  =     7.9979749703

  Lattice vectors:

 A1 = (   0.0000000000,  -2.4588379335,   0.0000000000)
 A2 = (  -4.3602243407,   0.0000000000,   0.0000000000)
 A3 = (   0.0000000000,   0.0000000000, -19.6657242484)

Analysis of symmetry for initial positions (statically):
 Subroutine PRICEL returns following result:

  LATTYP: Found a base centered orthorhombic cell.
 ALAT       =     2.4588379335
 B/A-ratio  =     1.7732865925
 C/A-ratio  =     7.9979749703

[...]

   2 primitive cells build up your supercell.

 Routine SETGRP: Setting up the symmetry group for a
 simple orthorhombic supercell.

 Subroutine GETGRP returns: Found  8 space group operations
 (whereof  4 operations were pure point group operations)
 out of a pool of  8 trial point group operations.

The static configuration has the point symmetry C_2v.
 The point group associated with its full space group is D_2h.

Analysis of symmetry for dynamics (positions and initial velocities):
 Subroutine PRICEL returns following result:

  LATTYP: Found a base centered orthorhombic cell.
 ALAT       =     2.4588379335
 B/A-ratio  =     1.7732865925
 C/A-ratio  =     7.9979749703

  Lattice vectors:

 A1 = (   2.1801121704,  -1.2294189668,   0.0000000000)
 A2 = (  -2.1801121704,  -1.2294189668,   0.0000000000)
 A3 = (   0.0000000000,   0.0000000000, -19.6657242484)

   2 primitive cells build up your supercell.

 Routine SETGRP: Setting up the symmetry group for a
 simple orthorhombic supercell.

 Subroutine GETGRP returns: Found  8 space group operations
 (whereof  4 operations were pure point group operations)
 out of a pool of  8 trial point group operations.

The dynamic configuration has the point symmetry C_2v.
 The point group associated with its full space group is D_2h.

 KPOINTS: Automatic mesh

Automatic generation of k-mesh.
Space group operators:
 irot       det(A)        alpha          n_x          n_y          n_z        tau_x        tau_y        tau_z
    1     1.000000     0.000001     1.000000     0.000000     0.000000     0.000000     0.000000     0.000000
    2    -1.000000   180.000000     0.000000     0.000000     1.000000     0.000000     0.000000     0.000000
    3     1.000000   179.999999     1.000000     0.000000     0.000000     0.000000     0.000000     0.000000
    4    -1.000000   179.999999     0.000000     1.000000     0.000000     0.000000     0.000000     0.000000
    5    -1.000000     0.000001     1.000000     0.000000     0.000000     0.166667    -0.500000     0.000000
    6     1.000000   180.000000     0.000000     0.000000     1.000000     0.166667    -0.500000     0.000000
    7    -1.000000   179.999999     1.000000     0.000000     0.000000     0.166667    -0.500000     0.000000
    8     1.000000   179.999999     0.000000     1.000000     0.000000     0.166667    -0.500000     0.000000

 Subroutine IBZKPT returns following result:

 Found    247 irreducible k-points:

 Following reciprocal coordinates:
            Coordinates               Weight
  0.000000  0.000000  0.000000      1.000000
  0.041667  0.000000  0.000000      2.000000
  0.083333  0.000000  0.000000      2.000000
  0.125000  0.000000  0.000000      2.000000
  0.166667  0.000000  0.000000      2.000000
  0.208333  0.000000  0.000000      2.000000
  0.250000  0.000000  0.000000      2.000000
  0.291667  0.000000  0.000000      2.000000
  0.333333  0.000000  0.000000      2.000000
  0.375000  0.000000  0.000000      2.000000
  0.416667  0.000000  0.000000      2.000000
  0.458333  0.000000  0.000000      2.000000
  0.500000  0.000000  0.000000      1.000000
  0.000000  0.027778  0.000000      2.000000
  0.041667  0.027778  0.000000      4.000000
  0.083333  0.027778  0.000000      4.000000
  0.125000  0.027778  0.000000      4.000000
  0.166667  0.027778  0.000000      4.000000
  0.208333  0.027778  0.000000      4.000000
  0.250000  0.027778  0.000000      4.000000
  0.291667  0.027778  0.000000      4.000000
  0.333333  0.027778  0.000000      4.000000
  0.375000  0.027778  0.000000      4.000000
  0.416667  0.027778  0.000000      4.000000
  0.458333  0.027778  0.000000      4.000000
  0.500000  0.027778  0.000000      2.000000
  0.000000  0.055556  0.000000      2.000000
  0.041667  0.055556  0.000000      4.000000
  0.083333  0.055556  0.000000      4.000000
  0.125000  0.055556  0.000000      4.000000
  0.166667  0.055556  0.000000      4.000000
  0.208333  0.055556  0.000000      4.000000
  0.250000  0.055556  0.000000      4.000000
  0.291667  0.055556  0.000000      4.000000
  0.333333  0.055556  0.000000      4.000000
  0.375000  0.055556  0.000000      4.000000
  0.416667  0.055556  0.000000      4.000000
  0.458333  0.055556  0.000000      4.000000
  0.500000  0.055556  0.000000      2.000000
  0.000000  0.083333  0.000000      2.000000
  0.041667  0.083333  0.000000      4.000000
  0.083333  0.083333  0.000000      4.000000
  0.125000  0.083333  0.000000      4.000000
  0.166667  0.083333  0.000000      4.000000
  0.208333  0.083333  0.000000      4.000000
  0.250000  0.083333  0.000000      4.000000
  0.291667  0.083333  0.000000      4.000000
  0.333333  0.083333  0.000000      4.000000
  0.375000  0.083333  0.000000      4.000000
  0.416667  0.083333  0.000000      4.000000
  0.458333  0.083333  0.000000      4.000000
  0.500000  0.083333  0.000000      2.000000
  0.000000  0.111111  0.000000      2.000000
  0.041667  0.111111  0.000000      4.000000
  0.083333  0.111111  0.000000      4.000000
  0.125000  0.111111  0.000000      4.000000
  0.166667  0.111111  0.000000      4.000000
  0.208333  0.111111  0.000000      4.000000
  0.250000  0.111111  0.000000      4.000000
  0.291667  0.111111  0.000000      4.000000
[...]
  0.458333  0.472222  0.000000      4.000000
  0.500000  0.472222  0.000000      2.000000
  0.000000  0.500000  0.000000      1.000000
  0.041667  0.500000  0.000000      2.000000
  0.083333  0.500000  0.000000      2.000000
  0.125000  0.500000  0.000000      2.000000
  0.166667  0.500000  0.000000      2.000000
  0.208333  0.500000  0.000000      2.000000
  0.250000  0.500000  0.000000      2.000000
  0.291667  0.500000  0.000000      2.000000
  0.333333  0.500000  0.000000      2.000000
  0.375000  0.500000  0.000000      2.000000
  0.416667  0.500000  0.000000      2.000000
  0.458333  0.500000  0.000000      2.000000
  0.500000  0.500000  0.000000      1.000000

 Following cartesian coordinates:
            Coordinates               Weight
  0.000000  0.000000  0.000000      1.000000
  0.009556  0.000000  0.000000      2.000000
  0.019112  0.000000  0.000000      2.000000
  0.028668  0.000000  0.000000      2.000000
  0.038224  0.000000  0.000000      2.000000
  0.047780  0.000000  0.000000      2.000000
  0.057336  0.000000  0.000000      2.000000
  0.066893  0.000000  0.000000      2.000000
  0.076449  0.000000  0.000000      2.000000
  0.086005  0.000000  0.000000      2.000000
  0.095561  0.000000  0.000000      2.000000
  0.105117  0.000000  0.000000      2.000000
  0.114673  0.000000  0.000000      1.000000
  0.000000  0.011297  0.000000      2.000000
  0.009556  0.011297  0.000000      4.000000
  0.019112  0.011297  0.000000      4.000000
  0.028668  0.011297  0.000000      4.000000
  0.038224  0.011297  0.000000      4.000000
  0.047780  0.011297  0.000000      4.000000
  0.057336  0.011297  0.000000      4.000000
  0.066893  0.011297  0.000000      4.000000
  0.076449  0.011297  0.000000      4.000000
  0.086005  0.011297  0.000000      4.000000
  0.095561  0.011297  0.000000      4.000000
  0.105117  0.011297  0.000000      4.000000
  0.114673  0.011297  0.000000      2.000000
  0.000000  0.022594  0.000000      2.000000
  0.009556  0.022594  0.000000      4.000000
  0.019112  0.022594  0.000000      4.000000
  0.028668  0.022594  0.000000      4.000000
  0.038224  0.022594  0.000000      4.000000
  0.047780  0.022594  0.000000      4.000000
  0.057336  0.022594  0.000000      4.000000
  0.066893  0.022594  0.000000      4.000000
  0.076449  0.022594  0.000000      4.000000
  0.086005  0.022594  0.000000      4.000000
  0.095561  0.022594  0.000000      4.000000
  0.105117  0.022594  0.000000      4.000000
  0.114673  0.022594  0.000000      2.000000
  0.000000  0.033891  0.000000      2.000000
  0.009556  0.033891  0.000000      4.000000
  0.019112  0.033891  0.000000      4.000000
  0.028668  0.033891  0.000000      4.000000
  0.038224  0.033891  0.000000      4.000000
  0.047780  0.033891  0.000000      4.000000
  0.057336  0.033891  0.000000      4.000000
  0.066893  0.033891  0.000000      4.000000
  0.076449  0.033891  0.000000      4.000000
  0.086005  0.033891  0.000000      4.000000
  0.095561  0.033891  0.000000      4.000000
  0.105117  0.033891  0.000000      4.000000
  0.114673  0.033891  0.000000      2.000000
  0.000000  0.045188  0.000000      2.000000
  0.009556  0.045188  0.000000      4.000000
  0.019112  0.045188  0.000000      4.000000
  0.028668  0.045188  0.000000      4.000000
  0.038224  0.045188  0.000000      4.000000
  0.047780  0.045188  0.000000      4.000000
  0.057336  0.045188  0.000000      4.000000
  0.066893  0.045188  0.000000      4.000000
[...]
  0.105117  0.192051  0.000000      4.000000
  0.114673  0.192051  0.000000      2.000000
  0.000000  0.203348  0.000000      1.000000
  0.009556  0.203348  0.000000      2.000000
  0.019112  0.203348  0.000000      2.000000
  0.028668  0.203348  0.000000      2.000000
  0.038224  0.203348  0.000000      2.000000
  0.047780  0.203348  0.000000      2.000000
  0.057336  0.203348  0.000000      2.000000
  0.066893  0.203348  0.000000      2.000000
  0.076449  0.203348  0.000000      2.000000
  0.086005  0.203348  0.000000      2.000000
  0.095561  0.203348  0.000000      2.000000
  0.105117  0.203348  0.000000      2.000000
  0.114673  0.203348  0.000000      1.000000

 I would recommend the setting:
   dimension x,y,z NGX =    64 NGY =   36 NGZ =  287
[...]
 k-point ** :   0.1250 0.2778 0.0000  plane waves:   42850
 k-point ** :   0.1667 0.2778 0.0000  plane waves:   42847
 k-point ** :   0.2083 0.2778 0.0000  plane waves:   42854
 k-point ** :   0.2500 0.2778 0.0000  plane waves:   42869
 k-point ** :   0.2917 0.2778 0.0000  plane waves:   42851
 k-point ** :   0.3333 0.2778 0.0000  plane waves:   42862
 k-point ** :   0.3750 0.2778 0.0000  plane waves:   42841
 k-point ** :   0.4167 0.2778 0.0000  plane waves:   42841
 k-point ** :   0.4583 0.2778 0.0000  plane waves:   42825
 k-point ** :   0.5000 0.2778 0.0000  plane waves:   42834
 k-point ** :   0.0000 0.3056 0.0000  plane waves:   42856
 k-point ** :   0.0417 0.3056 0.0000  plane waves:   42837
 k-point ** :   0.0833 0.3056 0.0000  plane waves:   42856
 k-point ** :   0.1250 0.3056 0.0000  plane waves:   42848
 k-point ** :   0.1667 0.3056 0.0000  plane waves:   42833
 k-point ** :   0.2083 0.3056 0.0000  plane waves:   42842
 k-point ** :   0.2500 0.3056 0.0000  plane waves:   42862
 k-point ** :   0.2917 0.3056 0.0000  plane waves:   42856
 k-point ** :   0.3333 0.3056 0.0000  plane waves:   42867
 k-point ** :   0.3750 0.3056 0.0000  plane waves:   42876
 k-point ** :   0.4167 0.3056 0.0000  plane waves:   42863
 k-point ** :   0.4583 0.3056 0.0000  plane waves:   42867
 k-point ** :   0.5000 0.3056 0.0000  plane waves:   42866
 k-point ** :   0.0000 0.3333 0.0000  plane waves:   42852
 k-point ** :   0.0417 0.3333 0.0000  plane waves:   42844
 k-point ** :   0.0833 0.3333 0.0000  plane waves:   42852
[...]
 k-point ** :   0.4583 0.4722 0.0000  plane waves:   42947
 k-point ** :   0.5000 0.4722 0.0000  plane waves:   42976
 k-point ** :   0.0000 0.5000 0.0000  plane waves:   42842
 k-point ** :   0.0417 0.5000 0.0000  plane waves:   42846
 k-point ** :   0.0833 0.5000 0.0000  plane waves:   42862
 k-point ** :   0.1250 0.5000 0.0000  plane waves:   42866
 k-point ** :   0.1667 0.5000 0.0000  plane waves:   42860
 k-point ** :   0.2083 0.5000 0.0000  plane waves:   42868
 k-point ** :   0.2500 0.5000 0.0000  plane waves:   42858
 k-point ** :   0.2917 0.5000 0.0000  plane waves:   42886
 k-point ** :   0.3333 0.5000 0.0000  plane waves:   42884
 k-point ** :   0.3750 0.5000 0.0000  plane waves:   42886
 k-point ** :   0.4167 0.5000 0.0000  plane waves:   42914
 k-point ** :   0.4583 0.5000 0.0000  plane waves:   42932
 k-point ** :   0.5000 0.5000 0.0000  plane waves:   42936

 maximum and minimum number of plane-waves per node :     21488    21268

 maximum number of plane-waves:     42976
 maximum index in each direction:
   IXMAX=   15   IYMAX=    8   IZMAX=   71
   IXMIN=  -16   IYMIN=   -9   IZMIN=  -71

 NGX is ok and might be reduce to  64
 NGY is ok and might be reduce to  36
 NGZ is ok and might be reduce to 286

 parallel 3D FFT for wavefunctions:
    minimum data exchange during FFTs selected (reduces bandwidth)
 parallel 3D FFT for charge:
    minimum data exchange during FFTs selected (reduces bandwidth)

 Broyden mixing: mesh for mixing (old mesh)
   NGX = 31   NGY = 17   NGZ =143
  (NGX  =128   NGY  = 72   NGZ  =576)
  gives a total of  75361 points

 initial charge density was supplied:
 charge density of overlapping atoms calculated
 number of electron      16.0000000 magnetization
 keeping initial charge density in first step

 Maximum index for augmentation-charges         4565 (set IRDMAX)

 First call to EWALD:  gamma=   0.298
 Maximum number of real-space cells 4x 6x 1
 Maximum number of reciprocal cells 2x 1x 8

 FEWALD executed in parallel

----------------------------------------- Iteration    1(   1)  ---------------------------------------

 eigenvalue-minimisations  :  5928
 total energy-change (2. order) : 0.1875039E+03  (-0.1056359E+04)
 number of electron      16.0000000 magnetization
 augmentation part       16.0000000 magnetization

 Free energy of the ion-electron system (eV)
  alpha Z        PSCENC =         6.18334092
  Ewald energy   TEWEN  =      2474.50048104
  -Hartree energ DENC   =     -2903.24388512
  -exchange      EXHF   =         0.00000000
  -V(xc)+E(xc)   XCENC  =        54.86889454
  PAW double counting   =       151.32577238     -155.92769107
  entropy T*S    EENTRO =        -0.00099984
  eigenvalues    EBANDS =       -28.82549835
  atomic energy  EATOM  =       588.62352690
  free energy    TOTEN  =       187.50394141 eV

  energy without entropy =      187.50494125  energy(sigma->0) =      187.50444133

[...]

 eigenvalue-minimisations  : 10356
 total energy-change (2. order) :-0.1966190E+03  (-0.1741352E+03)
 number of electron      16.0000000 magnetization
 augmentation part       16.0000000 magnetization

[...]

 Broyden mixing:
  rms(total) = 0.71247E+00    rms(broyden)= 0.71247E+00
  rms(prec ) = 0.77593E+00
  weight for this iteration     100.00

[...]

 eigenvalues of (default mixing * dielectric matrix)
  average eigenvalue GAMMA=   2.3256
  2.3256

[...]

WARNING in EDDRMM: call to ZHEGV failed, returncode =   6  3  1

[...]

 average (electrostatic) potential at core
  the test charge radii are     0.6991
  (the norm of the test charge is              1.0000)
       1 -58.2914       2 -58.2914       3 -58.2914       4 -58.2914

 E-fermi :  -2.8115     XC(G=0):  -2.1713     alpha+bet : -1.9046

 k-point     1 :       0.0000    0.0000    0.0000
  band No.  band energies     occupation
      1     -22.1129      2.00000
      2     -17.2160      2.00000
      3     -15.8601      2.00000
      4     -10.2503      2.00000
      5      -8.8682      2.00000
      6      -5.9676      2.00000
      7      -5.7373      2.00000
      8      -5.2951      2.00000
      9      -1.1668      0.00000
     10       0.5408      0.00000
     11       1.3394      0.00000
     12       1.7295      0.00000

[...]

 soft charge-density along one line, spin component           1
         0         1         2         3         4         5         6         7         8         9
 total charge-density along one line

------------------------ aborting loop because EDIFF is reached ----------------------------------------

  FORCE on cell =-STRESS in cart. coord.  units (eV):
  Direction    XX          YY          ZZ          XY          YZ          ZX
  Alpha Z     6.18334     6.18334     6.18334
  Ewald    3006.13913  3008.87144 -3540.51032    -0.00000     0.00000    -0.00000
  Hartree  2945.21909  2946.15958 -2922.65455    -0.00000    -0.00000    -0.00000
  E(xc)     -58.02878   -58.05186   -60.36496    -0.00000    -0.00000    -0.00000
  Local   -6124.69839 -6127.93397  6257.74682     0.00000    -0.00000    -0.00000
  n-local   -13.18116   -13.84558   -12.53399     0.06538     0.00000    -0.00000
  augment    -1.48970    -1.49174    -1.37957    -0.00000     0.00000    -0.00000
  Kinetic   235.42556   240.11096   273.51189    -4.47861    -0.00000     0.00000
  Fock        0.00000     0.00000     0.00000     0.00000     0.00000     0.00000
  Total      -4.43091     0.00217    -0.00135     0.00000     0.00000     0.00000
  in kB     -33.67090     0.01651    -0.01023     0.00000     0.00000     0.00000

 VOLUME and BASIS-vectors are now :
  energy-cutoff  :     2000.00
  volume of cell :      210.84
      direct lattice vectors                 reciprocal lattice vectors
     4.360224341  0.000000000  0.000000000     0.229345997  0.000000000  0.000000000
     0.000000000  2.458837934  0.000000000     0.000000000  0.406696182  0.000000000
     0.000000000  0.000000000 19.665724248     0.000000000  0.000000000  0.050849894

[...]

 FORCES acting on ions
    electron-ion (+dipol)            ewald-force                    non-local-force                 convergence-correction
   0.437E+01 -.325E-16 -.185E-08   -.437E+01 0.556E-14 0.105E-17   -.226E-02 -.347E-17 0.000E+00   -.406E-07 -.149E-14 -.816E-13
   -.437E+01 -.187E-12 -.970E-08   0.437E+01 0.770E-15 -.312E-33   0.226E-02 0.000E+00 0.000E+00   0.406E-07 -.509E-15 -.822E-13
   0.437E+01 -.208E-12 -.186E-08   -.437E+01 0.474E-14 -.105E-17   -.226E-02 -.347E-17 0.000E+00   -.406E-07 -.158E-14 -.816E-13
   -.437E+01 0.756E-16 -.969E-08   0.437E+01 -.496E-16 0.385E-33   0.226E-02 0.000E+00 0.000E+00   0.406E-07 -.365E-15 -.821E-13
   -.116E-05 -.395E-12 -.231E-07   0.888E-15 0.110E-13 0.000E+00   0.000E+00 -.694E-17 0.000E+00   -.305E-13 -.395E-14 -.327E-12

 POSITION                                       TOTAL-FORCE (eV/Angst)
      4.35823      0.00000      0.00000        -0.002044     -0.000000     -0.000000
      0.72870      1.22942      0.00000         0.002044      0.000000      0.000000
      2.17812      1.22942      0.00000        -0.002044      0.000000     -0.000000
      2.90881      0.00000      0.00000         0.002044     -0.000000      0.000000
    total drift:                               -0.000001     -0.000000     -0.000000

  FREE ENERGIE OF THE ION-ELECTRON SYSTEM (eV)
  free  energy   TOTEN  =       -36.88079090 eV

  energy  without entropy=      -36.88079056  energy(sigma->0) =      -36.88079073

 Quasi-Newton relaxation of ions (Broydens 2nd method)
  g(Force)  = 0.807E-06   g(Stress)= 0.000E+00

 Reset! Starting new Quasi-Newton update for ions

[...]

 d Force =-0.1124571E-05[-0.306E-05, 0.807E-06]  d Energy =-0.1143992E-05 0.194E-07
 d Force = 0.1718065E-02[ 0.171E-02, 0.172E-02]  d Ewald  = 0.1718066E-02-0.733E-09

[...]

 retain information from N=  1 steps
 eigenvalues of (default step * inverse Hessian matrix)
  average eigenvalue of G=   0.2088
 eigenvalue spectrum of G is  0.2088

[...]

WARNING in EDDRMM: call to ZHEGV failed, returncode =   6  3  1

[...]

 d Force = 0.1209017E-05[ 0.470E-09, 0.242E-05]  d Energy = 0.1223868E-05-0.149E-07
 d Force =-0.1358179E-02[-0.136E-02,-0.135E-02]  d Ewald  =-0.1358179E-02 0.363E-09

[...]

 eigenvalue-minimisations  :  4692
 total energy-change (2. order) : 0.2671641E-09  ( 0.5425252E-09)
 number of electron      16.0000000 magnetization
 augmentation part        0.3742903 magnetization

[...]

 eigenvalue-minimisations  :  1367
 total energy-change (2. order) :-0.2360139E-09  ( 0.2388213E-13)
 number of electron      16.0000000 magnetization
 augmentation part        0.3742903 magnetization

[...]

 eigenvalue-minimisations  :  1352
 total energy-change (2. order) : 0.4695266E-09  (-0.4272303E-14)
 number of electron      16.0000000 magnetization
 augmentation part        0.3742903 magnetization

[...]

 d Force =-0.1776870E-13[-0.127E-12, 0.912E-13]  d Energy = 0.4752110E-10-0.475E-10
 d Force =-0.2646764E-06[-0.265E-06,-0.265E-06]  d Ewald  =-0.2646761E-06-0.455E-12

[...]

 FEWALD executed in parallel

[...]

 eigenvalue-minimisations  :  1104
 total energy-change (2. order) :-0.4365575E-10  ( 0.6784696E-15)
 number of electron      16.0000000 magnetization
 augmentation part        0.3742903 magnetization

[...]

 eigenvalue-minimisations  :  1093
 total energy-change (2. order) : 0.1570015E-09  ( 0.3774758E-14)
 number of electron      16.0000000 magnetization
 augmentation part        0.3742903 magnetization

 Broyden mixing:
  rms(total) = 0.13705E-09    rms(broyden)= 0.13699E-09
  rms(prec ) = 0.27375E-09
  weight for this iteration     100.00

 eigenvalues of (default mixing * dielectric matrix)
  average eigenvalue GAMMA=   2.2761
  3.7633  1.0181  2.5593  1.7636

[...]

----------------------------------------- Iteration    5(   6)  ---------------------------------------

 eigenvalue-minimisations  :  1087
 total energy-change (2. order) :-0.1443823E-10  (-0.7039636E-14)
 number of electron      16.0000000 magnetization
 augmentation part        0.3742903 magnetization

 Free energy of the ion-electron system (eV)
  alpha Z        PSCENC =         6.18334092
  Ewald energy   TEWEN  =      2474.50012127
  -Hartree energ DENC   =     -2968.72381659
  -exchange      EXHF   =         0.00000000
  -V(xc)+E(xc)   XCENC  =        57.21199543
  PAW double counting   =       270.32316500     -275.44141721
  entropy T*S    EENTRO =        -0.00000035
  eigenvalues    EBANDS =      -189.55770636
  atomic energy  EATOM  =       588.62352690
  free energy    TOTEN  =       -36.88079098 eV

  energy without entropy =      -36.88079063  energy(sigma->0) =      -36.88079081

 average (electrostatic) potential at core
  the test charge radii are     0.6991
  (the norm of the test charge is              1.0000)
       1 -58.2915       2 -58.2915       3 -58.2915       4 -58.2915

 E-fermi :  -2.8115     XC(G=0):  -2.1707     alpha+bet : -1.9046

[...]

 k-point   247 :       0.5000    0.5000    0.0000
  band No.  band energies     occupation
      1     -16.8776      2.00000
      2     -16.8776      2.00000
      3     -15.8785      2.00000
      4     -15.8785      2.00000
      5      -9.2794      2.00000
      6      -9.2794      2.00000
      7      -5.0304      2.00000
      8      -5.0304      2.00000
      9      -1.1366      0.00000
     10      -1.1366      0.00000
     11       4.0242      0.00000
     12       4.0242      0.00000

 soft charge-density along one line, spin component           1
         0         1         2         3         4         5         6         7         8         9
 total charge-density along one line

------------------------ aborting loop because EDIFF is reached ----------------------------------------

  FORCE on cell =-STRESS in cart. coord.  units (eV):
  Direction    XX          YY          ZZ          XY          YZ          ZX
  Alpha Z     6.18334     6.18334     6.18334
  Ewald    3006.15678  3008.85344 -3540.51032    -0.00000     0.00000     0.00000
  Hartree  2945.22149  2946.15690 -2922.65457    -0.00000    -0.00000    -0.00000
  E(xc)     -58.02869   -58.05191   -60.36495    -0.00000    -0.00000    -0.00000
  Local   -6124.71526 -6127.91666  6257.74693    -0.00000    -0.00000    -0.00000
  n-local   -13.18101   -13.84572   -12.53398     0.06536     0.00000    -0.00000
  augment    -1.48972    -1.49171    -1.37957     0.00000    -0.00000    -0.00000
  Kinetic   235.42269   240.11362   273.51177    -4.47853    -0.00000     0.00000
  Fock        0.00000     0.00000     0.00000     0.00000     0.00000     0.00000
  Total      -4.43038     0.00128    -0.00135     0.00000     0.00000     0.00000
  in kB     -33.66689     0.00975    -0.01023     0.00000     0.00000     0.00000

 VOLUME and BASIS-vectors are now :
  energy-cutoff  :     2000.00
  volume of cell :      210.84
      direct lattice vectors                 reciprocal lattice vectors
     4.360224341  0.000000000  0.000000000     0.229345997  0.000000000  0.000000000
     0.000000000  2.458837934  0.000000000     0.000000000  0.406696182  0.000000000
     0.000000000  0.000000000 19.665724248     0.000000000  0.000000000  0.050849894

  length of vectors
     4.360224341  2.458837934 19.665724248     0.229345997  0.406696182  0.050849894

 FORCES acting on ions
    electron-ion (+dipol)            ewald-force                    non-local-force                 convergence-correction
   0.437E+01 -.487E-15 -.191E-08   -.436E+01 0.213E-14 -.310E-18   -.153E-02 -.104E-16 0.000E+00   -.437E-09 0.115E-14 -.385E-12
   -.437E+01 0.198E-12 -.972E-08   0.436E+01 0.579E-14 0.124E-18   0.153E-02 0.139E-16 -.323E-26   0.437E-09 -.506E-15 -.384E-12
   0.437E+01 -.158E-12 -.190E-08   -.436E+01 -.280E-15 -.124E-18   -.153E-02 -.347E-17 0.000E+00   -.437E-09 0.102E-14 -.390E-12
   -.437E+01 0.711E-15 -.974E-08   0.436E+01 0.338E-14 0.310E-18   0.153E-02 0.000E+00 0.000E+00   0.437E-09 -.440E-15 -.392E-12
   -.116E-05 0.394E-13 -.233E-07   0.888E-15 0.110E-13 0.481E-34   0.108E-17 0.000E+00 -.323E-26   0.272E-14 0.122E-14 -.155E-11

 POSITION                                       TOTAL-FORCE (eV/Angst)
      4.35821     -0.00000     -0.00000         0.000000     -0.000000     -0.000000
      0.72872      1.22942      0.00000        -0.000000      0.000000      0.000000
      2.17810      1.22942     -0.00000         0.000000      0.000000     -0.000000
      2.90883      0.00000      0.00000        -0.000000      0.000000      0.000000
    total drift:                               -0.000001      0.000000     -0.000000

  FREE ENERGIE OF THE ION-ELECTRON SYSTEM (eV)
  free  energy   TOTEN  =       -36.88079098 eV

  energy  without entropy=      -36.88079063  energy(sigma->0) =      -36.88079081

 d Force = 0.3461017E-13[-0.449E-14, 0.737E-13]  d Energy = 0.1105036E-09-0.110E-09
 d Force = 0.1539123E-06[ 0.154E-06, 0.154E-06]  d Ewald  = 0.1539120E-06 0.455E-12

 Quasi-Newton relaxation of ions (Broydens 2nd method)
  g(Force)  = 0.314E-14   g(Stress)= 0.000E+00

 retain information from N=  1 steps
 eigenvalues of (default step * inverse Hessian matrix)
  average eigenvalue of G=   0.0824
 eigenvalue spectrum of G is  0.0824

 reached required accuracy - stopping structural energy minimisation