 vasp.5.3.5 31Mar14 (build Mar 02 2015 18:14:16) complex

 executed on             LinuxIFC date 2018.08.11  01:37:37

 INCAR:
 POTCAR:   PAW_PBE C 08Apr2002
 POTCAR:   PAW_PBE C 08Apr2002
   VRHFIN =C: s2p2

   TITEL  = PAW_PBE C 08Apr2002
   POMASS =   12.011; ZVAL   =    4.000    mass and valenz
   ENMAX  =  400.000; ENMIN  =  300.000 eV
   QCUT   =   -5.516; QGAM   =   11.032    optimization parameters

   Description
     l     E      TYP  RCUT    TYP  RCUT
     0   .000     23  1.200
     0   .000     23  1.200
     1   .000     23  1.500
     1  2.500     23  1.500
     2   .000      7  1.500

 PAW_PBE C 08Apr2002                    :

 POSCAR: MD-kMC export data
  positions in direct lattice
  velocities in cartesian coordinates
 exchange correlation table for  LEXCH =        8
   RHO(1)=    0.500       N(1)  =     2000
   RHO(2)=  100.500       N(2)  =     4000

 ion  position               nearest neighbor table
   1  0.000  0.000  0.000-   2 1.42   2 1.42   4 1.43
   2  0.167  0.500  0.000-   1 1.42   1 1.42   3 1.43
   3  0.500  0.500  0.000-   4 1.42   4 1.42   2 1.43
   4  0.667  0.000  0.000-   3 1.42   3 1.42   1 1.43

  LATTYP: Found a simple orthorhombic cell.
 ALAT       =     2.4669291514
 B/A-ratio  =     1.7324599535
 C/A-ratio  =     8.1061651810

  Lattice vectors:

 A1 = (   0.0000000000,  -2.4669291514,   0.0000000000)
 A2 = (  -4.2738559630,   0.0000000000,   0.0000000000)
 A3 = (   0.0000000000,   0.0000000000, -19.9973351912)

Analysis of symmetry for initial positions (statically):
 Subroutine PRICEL returns following result:

  LATTYP: Found a base centered orthorhombic cell.
 ALAT       =     2.4669291514
 B/A-ratio  =     1.7324599535
 C/A-ratio  =     8.1061651810

[...]

   2 primitive cells build up your supercell.

 Routine SETGRP: Setting up the symmetry group for a
 simple orthorhombic supercell.

 Subroutine GETGRP returns: Found  8 space group operations
 (whereof  4 operations were pure point group operations)
 out of a pool of  8 trial point group operations.

The static configuration has the point symmetry C_2v.
 The point group associated with its full space group is D_2h.

Analysis of symmetry for dynamics (positions and initial velocities):
 Subroutine PRICEL returns following result:

  LATTYP: Found a base centered orthorhombic cell.
 ALAT       =     2.4669291514
 B/A-ratio  =     1.7324599535
 C/A-ratio  =     8.1061651810

  Lattice vectors:

 A1 = (   2.1369279815,  -1.2334645757,   0.0000000000)
 A2 = (  -2.1369279815,  -1.2334645757,   0.0000000000)
 A3 = (   0.0000000000,   0.0000000000, -19.9973351912)

   2 primitive cells build up your supercell.

 Routine SETGRP: Setting up the symmetry group for a
 simple orthorhombic supercell.

 Subroutine GETGRP returns: Found  8 space group operations
 (whereof  4 operations were pure point group operations)
 out of a pool of  8 trial point group operations.

The dynamic configuration has the point symmetry C_2v.
 The point group associated with its full space group is D_2h.

 KPOINTS: Automatic mesh

Automatic generation of k-mesh.
Space group operators:
 irot       det(A)        alpha          n_x          n_y          n_z        tau_x        tau_y        tau_z
    1     1.000000     0.000000     1.000000     0.000000     0.000000     0.000000     0.000000     0.000000
    2    -1.000000   180.000000     0.000000     0.000000     1.000000     0.000000     0.000000     0.000000
    3     1.000000   180.000000     1.000000     0.000000     0.000000     0.000000     0.000000     0.000000
    4    -1.000000   180.000000     0.000000     1.000000     0.000000     0.000000     0.000000     0.000000
    5    -1.000000     0.000000     1.000000     0.000000     0.000000     0.166667    -0.500000     0.000000
    6     1.000000   180.000000     0.000000     0.000000     1.000000     0.166667    -0.500000     0.000000
    7    -1.000000   180.000000     1.000000     0.000000     0.000000     0.166667    -0.500000     0.000000
    8     1.000000   180.000000     0.000000     1.000000     0.000000     0.166667    -0.500000     0.000000

 Subroutine IBZKPT returns following result:

 Found    247 irreducible k-points:

 Following reciprocal coordinates:
            Coordinates               Weight
  0.000000  0.000000  0.000000      1.000000
  0.041667  0.000000  0.000000      2.000000
  0.083333  0.000000  0.000000      2.000000
  0.125000  0.000000  0.000000      2.000000
  0.166667  0.000000  0.000000      2.000000
  0.208333  0.000000  0.000000      2.000000
  0.250000  0.000000  0.000000      2.000000
  0.291667  0.000000  0.000000      2.000000
  0.333333  0.000000  0.000000      2.000000
  0.375000  0.000000  0.000000      2.000000
  0.416667  0.000000  0.000000      2.000000
  0.458333  0.000000  0.000000      2.000000
  0.500000  0.000000  0.000000      1.000000
  0.000000  0.027778  0.000000      2.000000
  0.041667  0.027778  0.000000      4.000000
  0.083333  0.027778  0.000000      4.000000
  0.125000  0.027778  0.000000      4.000000
  0.166667  0.027778  0.000000      4.000000
  0.208333  0.027778  0.000000      4.000000
  0.250000  0.027778  0.000000      4.000000
  0.291667  0.027778  0.000000      4.000000
  0.333333  0.027778  0.000000      4.000000
  0.375000  0.027778  0.000000      4.000000
  0.416667  0.027778  0.000000      4.000000
  0.458333  0.027778  0.000000      4.000000
  0.500000  0.027778  0.000000      2.000000
  0.000000  0.055556  0.000000      2.000000
  0.041667  0.055556  0.000000      4.000000
  0.083333  0.055556  0.000000      4.000000
  0.125000  0.055556  0.000000      4.000000
  0.166667  0.055556  0.000000      4.000000
  0.208333  0.055556  0.000000      4.000000
  0.250000  0.055556  0.000000      4.000000
  0.291667  0.055556  0.000000      4.000000
  0.333333  0.055556  0.000000      4.000000
  0.375000  0.055556  0.000000      4.000000
  0.416667  0.055556  0.000000      4.000000
  0.458333  0.055556  0.000000      4.000000
  0.500000  0.055556  0.000000      2.000000
  0.000000  0.083333  0.000000      2.000000
  0.041667  0.083333  0.000000      4.000000
  0.083333  0.083333  0.000000      4.000000
  0.125000  0.083333  0.000000      4.000000
  0.166667  0.083333  0.000000      4.000000
  0.208333  0.083333  0.000000      4.000000
  0.250000  0.083333  0.000000      4.000000
  0.291667  0.083333  0.000000      4.000000
  0.333333  0.083333  0.000000      4.000000
  0.375000  0.083333  0.000000      4.000000
  0.416667  0.083333  0.000000      4.000000
  0.458333  0.083333  0.000000      4.000000
  0.500000  0.083333  0.000000      2.000000
  0.000000  0.111111  0.000000      2.000000
  0.041667  0.111111  0.000000      4.000000
  0.083333  0.111111  0.000000      4.000000
  0.125000  0.111111  0.000000      4.000000
  0.166667  0.111111  0.000000      4.000000
  0.208333  0.111111  0.000000      4.000000
  0.250000  0.111111  0.000000      4.000000
  0.291667  0.111111  0.000000      4.000000
[...]
  0.458333  0.472222  0.000000      4.000000
  0.500000  0.472222  0.000000      2.000000
  0.000000  0.500000  0.000000      1.000000
  0.041667  0.500000  0.000000      2.000000
  0.083333  0.500000  0.000000      2.000000
  0.125000  0.500000  0.000000      2.000000
  0.166667  0.500000  0.000000      2.000000
  0.208333  0.500000  0.000000      2.000000
  0.250000  0.500000  0.000000      2.000000
  0.291667  0.500000  0.000000      2.000000
  0.333333  0.500000  0.000000      2.000000
  0.375000  0.500000  0.000000      2.000000
  0.416667  0.500000  0.000000      2.000000
  0.458333  0.500000  0.000000      2.000000
  0.500000  0.500000  0.000000      1.000000

 Following cartesian coordinates:
            Coordinates               Weight
  0.000000  0.000000  0.000000      1.000000
  0.009749  0.000000  0.000000      2.000000
  0.019498  0.000000  0.000000      2.000000
  0.029248  0.000000  0.000000      2.000000
  0.038997  0.000000  0.000000      2.000000
  0.048746  0.000000  0.000000      2.000000
  0.058495  0.000000  0.000000      2.000000
  0.068244  0.000000  0.000000      2.000000
  0.077994  0.000000  0.000000      2.000000
  0.087743  0.000000  0.000000      2.000000
  0.097492  0.000000  0.000000      2.000000
  0.107241  0.000000  0.000000      2.000000
  0.116990  0.000000  0.000000      1.000000
  0.000000  0.011260  0.000000      2.000000
  0.009749  0.011260  0.000000      4.000000
  0.019498  0.011260  0.000000      4.000000
  0.029248  0.011260  0.000000      4.000000
  0.038997  0.011260  0.000000      4.000000
  0.048746  0.011260  0.000000      4.000000
  0.058495  0.011260  0.000000      4.000000
  0.068244  0.011260  0.000000      4.000000
  0.077994  0.011260  0.000000      4.000000
  0.087743  0.011260  0.000000      4.000000
  0.097492  0.011260  0.000000      4.000000
  0.107241  0.011260  0.000000      4.000000
  0.116990  0.011260  0.000000      2.000000
  0.000000  0.022520  0.000000      2.000000
  0.009749  0.022520  0.000000      4.000000
  0.019498  0.022520  0.000000      4.000000
  0.029248  0.022520  0.000000      4.000000
  0.038997  0.022520  0.000000      4.000000
  0.048746  0.022520  0.000000      4.000000
  0.058495  0.022520  0.000000      4.000000
  0.068244  0.022520  0.000000      4.000000
  0.077994  0.022520  0.000000      4.000000
  0.087743  0.022520  0.000000      4.000000
  0.097492  0.022520  0.000000      4.000000
  0.107241  0.022520  0.000000      4.000000
  0.116990  0.022520  0.000000      2.000000
  0.000000  0.033780  0.000000      2.000000
  0.009749  0.033780  0.000000      4.000000
  0.019498  0.033780  0.000000      4.000000
  0.029248  0.033780  0.000000      4.000000
  0.038997  0.033780  0.000000      4.000000
  0.048746  0.033780  0.000000      4.000000
  0.058495  0.033780  0.000000      4.000000
  0.068244  0.033780  0.000000      4.000000
  0.077994  0.033780  0.000000      4.000000
  0.087743  0.033780  0.000000      4.000000
  0.097492  0.033780  0.000000      4.000000
  0.107241  0.033780  0.000000      4.000000
  0.116990  0.033780  0.000000      2.000000
  0.000000  0.045040  0.000000      2.000000
  0.009749  0.045040  0.000000      4.000000
  0.019498  0.045040  0.000000      4.000000
  0.029248  0.045040  0.000000      4.000000
  0.038997  0.045040  0.000000      4.000000
  0.048746  0.045040  0.000000      4.000000
  0.058495  0.045040  0.000000      4.000000
  0.068244  0.045040  0.000000      4.000000
[...]
  0.107241  0.191421  0.000000      4.000000
  0.116990  0.191421  0.000000      2.000000
  0.000000  0.202681  0.000000      1.000000
  0.009749  0.202681  0.000000      2.000000
  0.019498  0.202681  0.000000      2.000000
  0.029248  0.202681  0.000000      2.000000
  0.038997  0.202681  0.000000      2.000000
  0.048746  0.202681  0.000000      2.000000
  0.058495  0.202681  0.000000      2.000000
  0.068244  0.202681  0.000000      2.000000
  0.077994  0.202681  0.000000      2.000000
  0.087743  0.202681  0.000000      2.000000
  0.097492  0.202681  0.000000      2.000000
  0.107241  0.202681  0.000000      2.000000
  0.116990  0.202681  0.000000      1.000000

 I would recommend the setting:
   dimension x,y,z NGX =    62 NGY =   36 NGZ =  292
[...]
 k-point ** :   0.3750 0.2778 0.0000  plane waves:   42819
 k-point ** :   0.4167 0.2778 0.0000  plane waves:   42806
 k-point ** :   0.4583 0.2778 0.0000  plane waves:   42822
 k-point ** :   0.5000 0.2778 0.0000  plane waves:   42834
 k-point ** :   0.0000 0.3056 0.0000  plane waves:   42888
 k-point ** :   0.0417 0.3056 0.0000  plane waves:   42904
 k-point ** :   0.0833 0.3056 0.0000  plane waves:   42871
 k-point ** :   0.1250 0.3056 0.0000  plane waves:   42867
 k-point ** :   0.1667 0.3056 0.0000  plane waves:   42886
 k-point ** :   0.2083 0.3056 0.0000  plane waves:   42864
 k-point ** :   0.2500 0.3056 0.0000  plane waves:   42847
 k-point ** :   0.2917 0.3056 0.0000  plane waves:   42837
 k-point ** :   0.3333 0.3056 0.0000  plane waves:   42846
 k-point ** :   0.3750 0.3056 0.0000  plane waves:   42832
 k-point ** :   0.4167 0.3056 0.0000  plane waves:   42820
 k-point ** :   0.4583 0.3056 0.0000  plane waves:   42816
 k-point ** :   0.5000 0.3056 0.0000  plane waves:   42852
 k-point ** :   0.0000 0.3333 0.0000  plane waves:   42912
 k-point ** :   0.0417 0.3333 0.0000  plane waves:   42899
 k-point ** :   0.0833 0.3333 0.0000  plane waves:   42869
[...]
 k-point ** :   0.4583 0.4722 0.0000  plane waves:   42817
 k-point ** :   0.5000 0.4722 0.0000  plane waves:   42834
 k-point ** :   0.0000 0.5000 0.0000  plane waves:   42878
 k-point ** :   0.0417 0.5000 0.0000  plane waves:   42948
 k-point ** :   0.0833 0.5000 0.0000  plane waves:   42928
 k-point ** :   0.1250 0.5000 0.0000  plane waves:   42930
 k-point ** :   0.1667 0.5000 0.0000  plane waves:   42910
 k-point ** :   0.2083 0.5000 0.0000  plane waves:   42938
 k-point ** :   0.2500 0.5000 0.0000  plane waves:   42932
 k-point ** :   0.2917 0.5000 0.0000  plane waves:   42888
 k-point ** :   0.3333 0.5000 0.0000  plane waves:   42854
 k-point ** :   0.3750 0.5000 0.0000  plane waves:   42814
 k-point ** :   0.4167 0.5000 0.0000  plane waves:   42792
 k-point ** :   0.4583 0.5000 0.0000  plane waves:   42822
 k-point ** :   0.5000 0.5000 0.0000  plane waves:   42816

 maximum and minimum number of plane-waves per node :     21511    21250

 maximum number of plane-waves:     42948
 maximum index in each direction:
   IXMAX=   15   IYMAX=    8   IZMAX=   72
   IXMIN=  -16   IYMIN=   -9   IZMIN=  -72

 NGX is ok and might be reduce to  64
 NGY is ok and might be reduce to  36
 NGZ is ok and might be reduce to 290

 parallel 3D FFT for wavefunctions:
    minimum data exchange during FFTs selected (reduces bandwidth)
 parallel 3D FFT for charge:
    minimum data exchange during FFTs selected (reduces bandwidth)

 Broyden mixing: mesh for mixing (old mesh)
   NGX = 31   NGY = 17   NGZ =145
  (NGX  =128   NGY  = 72   NGZ  =588)
  gives a total of  76415 points

 initial charge density was supplied:
 charge density of overlapping atoms calculated
 number of electron      16.0000000 magnetization
 keeping initial charge density in first step

 Maximum index for augmentation-charges         4659 (set IRDMAX)

 First call to EWALD:  gamma=   0.298
 Maximum number of real-space cells 4x 6x 1
 Maximum number of reciprocal cells 2x 1x 8

 FEWALD executed in parallel

----------------------------------------- Iteration    1(   1)  ---------------------------------------

 eigenvalue-minimisations  :  5928
 total energy-change (2. order) : 0.1906763E+03  (-0.1058787E+04)
 number of electron      16.0000000 magnetization
 augmentation part       16.0000000 magnetization

 Free energy of the ion-electron system (eV)
  alpha Z        PSCENC =         6.18334092
  Ewald energy   TEWEN  =      2585.96128102
  -Hartree energ DENC   =     -3011.36863731
  -exchange      EXHF   =         0.00000000
  -V(xc)+E(xc)   XCENC  =        55.09583789
  PAW double counting   =       151.32577238     -155.92769107
  entropy T*S    EENTRO =        -0.00131853
  eigenvalues    EBANDS =       -29.21579682
  atomic energy  EATOM  =       588.62352690
  free energy    TOTEN  =       190.67631539 eV

  energy without entropy =      190.67763392  energy(sigma->0) =      190.67697466

[...]

 eigenvalue-minimisations  : 10476
 total energy-change (2. order) :-0.1999063E+03  (-0.1774075E+03)
 number of electron      16.0000000 magnetization
 augmentation part       16.0000000 magnetization

[...]

 Broyden mixing:
  rms(total) = 0.73704E+00    rms(broyden)= 0.73704E+00
  rms(prec ) = 0.80127E+00
  weight for this iteration     100.00

[...]

 eigenvalues of (default mixing * dielectric matrix)
  average eigenvalue GAMMA=   2.3119
  2.3119

[...]

WARNING in EDDRMM: call to ZHEGV failed, returncode =   6  3  1

[...]

 average (electrostatic) potential at core
  the test charge radii are     0.6991
  (the norm of the test charge is              1.0000)
       1 -58.1899       2 -58.1899       3 -58.1899       4 -58.1899

 E-fermi :  -2.7539     XC(G=0):  -2.1423     alpha+bet : -1.9046

 k-point     1 :       0.0000    0.0000    0.0000
  band No.  band energies     occupation
      1     -22.2533      2.00000
      2     -17.0270      2.00000
      3     -15.9630      2.00000
      4     -10.3587      2.00000
      5      -9.1634      2.00000
      6      -5.8023      2.00000
      7      -5.7697      2.00000
      8      -5.1205      2.00000
      9      -1.0622      0.00000
     10       0.5239      0.00000
     11       1.3250      0.00000
     12       1.7080      0.00000

[...]

 soft charge-density along one line, spin component           1
         0         1         2         3         4         5         6         7         8         9
 total charge-density along one line

------------------------ aborting loop because EDIFF is reached ----------------------------------------

  FORCE on cell =-STRESS in cart. coord.  units (eV):
  Direction    XX          YY          ZZ          XY          YZ          ZX
  Alpha Z     6.18334     6.18334     6.18334
  Ewald    3122.91565  3123.96524 -3660.91988    -0.00000     0.00000     0.00000
  Hartree  3057.17165  3057.32165 -3034.58465    -0.00000    -0.00000    -0.00000
  E(xc)     -58.34041   -58.33676   -60.67762    -0.00000     0.00000    -0.00000
  Local   -6352.63747 -6353.63697  6489.34815     0.00000    -0.00000    -0.00000
  n-local   -13.94776   -13.94637   -12.76664     0.05682    -0.00000     0.00000
  augment    -1.54085    -1.54246    -1.41429     0.00000    -0.00000     0.00000
  Kinetic   240.15230   240.03662   274.83028    -4.60140     0.00000    -0.00000
  Fock        0.00000     0.00000     0.00000     0.00000     0.00000     0.00000
  Total      -0.04355     0.04430    -0.00132     0.00000     0.00000     0.00000
  in kB      -0.33092     0.33661    -0.01003     0.00000     0.00000     0.00000

 VOLUME and BASIS-vectors are now :
  energy-cutoff  :     2000.00
  volume of cell :      210.84
      direct lattice vectors                 reciprocal lattice vectors
     4.273855963  0.000000000  0.000000000     0.233980744  0.000000000  0.000000000
     0.000000000  2.466929151  0.000000000     0.000000000  0.405362270  0.000000000
     0.000000000  0.000000000 19.997335191     0.000000000  0.000000000  0.050006663

[...]

 FORCES acting on ions
    electron-ion (+dipol)            ewald-force                    non-local-force                 convergence-correction
   0.212E+00 0.681E-15 0.286E-09   -.251E+00 0.102E-14 0.809E-32   -.216E-01 0.000E+00 -.310E-24   -.279E-07 0.405E-14 0.191E-12
   -.212E+00 0.120E-13 -.453E-08   0.251E+00 -.479E-14 -.115E-18   0.216E-01 0.000E+00 0.000E+00   0.279E-07 -.193E-14 0.193E-12
   0.212E+00 0.587E-12 0.300E-09   -.251E+00 0.161E-14 -.809E-32   -.216E-01 0.000E+00 -.207E-24   -.279E-07 0.434E-14 0.192E-12
   -.212E+00 -.907E-15 -.454E-08   0.251E+00 -.420E-14 0.115E-18   0.216E-01 0.000E+00 0.000E+00   0.279E-07 -.231E-14 0.193E-12
   -.456E-06 0.599E-12 -.849E-08   0.316E-14 -.636E-14 0.000E+00   0.347E-17 0.000E+00 -.517E-24   -.132E-12 0.414E-14 0.769E-12

 POSITION                                       TOTAL-FORCE (eV/Angst)
      0.00056      0.00000      0.00000        -0.060169      0.000000     -0.000000
      0.71175      1.23346      0.00000         0.060169     -0.000000      0.000000
      2.13749      1.23346      0.00000        -0.060169     -0.000000     -0.000000
      2.84867      0.00000      0.00000         0.060169      0.000000      0.000000
    total drift:                               -0.000000      0.000000     -0.000000

  FREE ENERGIE OF THE ION-ELECTRON SYSTEM (eV)
  free  energy   TOTEN  =       -36.92541563 eV

  energy  without entropy=      -36.92528922  energy(sigma->0) =      -36.92535242

 Quasi-Newton relaxation of ions (Broydens 2nd method)
  g(Force)  = 0.699E-03   g(Stress)= 0.000E+00

 Reset! Starting new Quasi-Newton update for ions

[...]

 d Force =-0.1061613E-02[-0.282E-02, 0.699E-03]  d Energy =-0.1053742E-02-0.787E-05
 d Force =-0.3104706E-02[-0.912E-02, 0.292E-02]  d Ewald  =-0.3085077E-02-0.196E-04

[...]

 retain information from N=  1 steps
 eigenvalues of (default step * inverse Hessian matrix)
  average eigenvalue of G=   0.1984
 eigenvalue spectrum of G is  0.1984

[...]

 d Force = 0.1128418E-02[-0.502E-05, 0.226E-02]  d Energy = 0.1123678E-02 0.474E-05
 d Force = 0.3438621E-02[-0.437E-03, 0.731E-02]  d Ewald  = 0.3428507E-02 0.101E-04

[...]

WARNING in EDDRMM: call to ZHEGV failed, returncode =   6  3  1

[...]

 eigenvalue-minimisations  :  1918
 total energy-change (2. order) : 0.9890755E-10  (-0.1022384E-12)
 number of electron      16.0000000 magnetization
 augmentation part        0.3818271 magnetization

[...]

 d Force = 0.5518827E-08[-0.956E-10, 0.111E-07]  d Energy = 0.5967195E-08-0.448E-09
 d Force = 0.9485768E-06[ 0.930E-06, 0.967E-06]  d Ewald  = 0.9485771E-06 0.000E+00

[...]

 eigenvalue-minimisations  :  5004
 total energy-change (2. order) : 0.9328005E-09  ( 0.5780129E-09)
 number of electron      16.0000000 magnetization
 augmentation part        0.3818271 magnetization

[...]

 eigenvalue-minimisations  :  1441
 total energy-change (2. order) :-0.6940581E-09  ( 0.7389562E-13)
 number of electron      16.0000000 magnetization
 augmentation part        0.3818271 magnetization

[...]

 eigenvalue-minimisations  :  1363
 total energy-change (2. order) :-0.1932676E-10  (-0.9149060E-14)
 number of electron      16.0000000 magnetization
 augmentation part        0.3818271 magnetization

[...]

 d Force = 0.5430451E-12[ 0.273E-12, 0.813E-12]  d Energy = 0.6741629E-10-0.669E-10
 d Force =-0.7913047E-08[-0.791E-08,-0.791E-08]  d Ewald  =-0.7913059E-08 0.000E+00

[...]

 d Force =-0.1709521E-14[-0.141E-12, 0.138E-12]  d Energy =-0.1477929E-11 0.148E-11
 d Force =-0.3998041E-08[-0.400E-08,-0.400E-08]  d Ewald  =-0.3997684E-08-0.455E-12

[...]

 FEWALD executed in parallel

[...]

 eigenvalue-minimisations  :   268
 total energy-change (2. order) : 0.9515588E-10  ( 0.0000000E+00)
 number of electron      16.0000000 magnetization
 augmentation part        0.3818271 magnetization

 Broyden mixing:
  rms(total) = 0.59064E-10    rms(broyden)= 0.58998E-10
  rms(prec ) = 0.84625E-10
  weight for this iteration     100.00

 eigenvalues of (default mixing * dielectric matrix)
  average eigenvalue GAMMA=   2.4501
  2.7256  2.5621  2.0626

[...]

----------------------------------------- Iteration    7(   5)  ---------------------------------------

 eigenvalue-minimisations  :   588
 total energy-change (2. order) :-0.4547474E-12  ( 0.0000000E+00)
 number of electron      16.0000000 magnetization
 augmentation part        0.3818271 magnetization

 Free energy of the ion-electron system (eV)
  alpha Z        PSCENC =         6.18334092
  Ewald energy   TEWEN  =      2585.96093665
  -Hartree energ DENC   =     -3079.90837578
  -exchange      EXHF   =         0.00000000
  -V(xc)+E(xc)   XCENC  =        57.52016445
  PAW double counting   =       277.02660645     -282.17522956
  entropy T*S    EENTRO =        -0.00013051
  eigenvalues    EBANDS =      -190.15632508
  atomic energy  EATOM  =       588.62352690
  free energy    TOTEN  =       -36.92548557 eV

  energy without entropy =      -36.92535505  energy(sigma->0) =      -36.92542031

 average (electrostatic) potential at core
  the test charge radii are     0.6991
  (the norm of the test charge is              1.0000)
       1 -58.1899       2 -58.1899       3 -58.1899       4 -58.1899

 E-fermi :  -2.7539     XC(G=0):  -2.1423     alpha+bet : -1.9046

[...]

 k-point   247 :       0.5000    0.5000    0.0000
  band No.  band energies     occupation
      1     -17.0191      2.00000
      2     -17.0191      2.00000
      3     -15.9728      2.00000
      4     -15.9728      2.00000
      5      -9.1598      2.00000
      6      -9.1598      2.00000
      7      -5.1096      2.00000
      8      -5.1096      2.00000
      9      -1.0753      0.00000
     10      -1.0753      0.00000
     11       4.6044      0.00000
     12       4.6044      0.00000

 soft charge-density along one line, spin component           1
         0         1         2         3         4         5         6         7         8         9
 total charge-density along one line

------------------------ aborting loop because EDIFF is reached ----------------------------------------

  FORCE on cell =-STRESS in cart. coord.  units (eV):
  Direction    XX          YY          ZZ          XY          YZ          ZX
  Alpha Z     6.18334     6.18334     6.18334
  Ewald    3123.42500  3123.45555 -3660.91988    -0.00000     0.00000     0.00000
  Hartree  3057.24165  3057.25136 -3034.58464    -0.00000    -0.00000    -0.00000
  E(xc)     -58.33847   -58.33867   -60.67761    -0.00000    -0.00000    -0.00000
  Local   -6353.11941 -6353.15468  6489.34823    -0.00000     0.00000     0.00000
  n-local   -13.94364   -13.95049   -12.76663     0.05615    -0.00000    -0.00000
  augment    -1.54165    -1.54165    -1.41429    -0.00000    -0.00000     0.00000
  Kinetic   240.07188   240.11678   274.83015    -4.59886     0.00000     0.00000
  Fock        0.00000     0.00000     0.00000     0.00000     0.00000     0.00000
  Total      -0.02129     0.02155    -0.00132     0.00000     0.00000     0.00000
  in kB      -0.16182     0.16376    -0.01005     0.00000     0.00000     0.00000

 VOLUME and BASIS-vectors are now :
  energy-cutoff  :     2000.00
  volume of cell :      210.84
      direct lattice vectors                 reciprocal lattice vectors
     4.273855963  0.000000000  0.000000000     0.233980744  0.000000000  0.000000000
     0.000000000  2.466929151  0.000000000     0.000000000  0.405362270  0.000000000
     0.000000000  0.000000000 19.997335191     0.000000000  0.000000000  0.050006663

  length of vectors
     4.273855963  2.466929151 19.997335191     0.233980744  0.405362270  0.050006663

 FORCES acting on ions
    electron-ion (+dipol)            ewald-force                    non-local-force                 convergence-correction
   0.451E-01 -.135E-15 -.106E-10   -.451E-01 0.815E-15 0.100E-17   0.408E-04 0.347E-17 0.000E+00   -.778E-10 -.103E-14 0.321E-11
   -.451E-01 0.123E-13 -.520E-08   0.451E-01 -.329E-14 0.661E-19   -.408E-04 0.000E+00 0.000E+00   0.778E-10 -.126E-14 0.321E-11
   0.451E-01 -.156E-12 -.285E-10   -.451E-01 0.105E-15 -.111E-17   0.408E-04 0.347E-17 0.000E+00   -.778E-10 -.167E-14 0.323E-11
   -.451E-01 0.758E-15 -.519E-08   0.451E-01 -.400E-14 0.424E-19   -.408E-04 0.000E+00 -.404E-27   0.778E-10 -.661E-15 0.323E-11
   -.480E-06 -.143E-12 -.104E-07   0.326E-14 -.636E-14 -.542E-34   0.203E-19 0.694E-17 -.404E-27   0.313E-14 -.462E-14 0.129E-10

 POSITION                                       TOTAL-FORCE (eV/Angst)
     -0.00002      0.00000     -0.00000         0.000001     -0.000000      0.000000
      0.71233      1.23346      0.00000        -0.000001     -0.000000      0.000000
      2.13691      1.23346     -0.00000         0.000001     -0.000000      0.000000
      2.84926      0.00000      0.00000        -0.000001      0.000000      0.000000
    total drift:                               -0.000000     -0.000000     -0.000000

  FREE ENERGIE OF THE ION-ELECTRON SYSTEM (eV)
  free  energy   TOTEN  =       -36.92548557 eV

  energy  without entropy=      -36.92535505  energy(sigma->0) =      -36.92542031

 d Force = 0.1448172E-13[-0.425E-13, 0.715E-13]  d Energy =-0.1523404E-10 0.152E-10
 d Force = 0.2023595E-08[ 0.202E-08, 0.202E-08]  d Ewald  = 0.2023171E-08 0.455E-12

 Quasi-Newton relaxation of ions (Broydens 2nd method)
  g(Force)  = 0.173E-12   g(Stress)= 0.000E+00

 retain information from N=  1 steps
 eigenvalues of (default step * inverse Hessian matrix)
  average eigenvalue of G=   0.0915
 eigenvalue spectrum of G is  0.0915

 reached required accuracy - stopping structural energy minimisation