 vasp.5.3.5 31Mar14 (build Mar 02 2015 18:14:16) complex

 executed on             LinuxIFC date 2018.08.09  19:27:48

 INCAR:
 POTCAR:   PAW_PBE C 08Apr2002
 POTCAR:   PAW_PBE C 08Apr2002
   VRHFIN =C: s2p2

   TITEL  = PAW_PBE C 08Apr2002
   POMASS =   12.011; ZVAL   =    4.000    mass and valenz
   ENMAX  =  400.000; ENMIN  =  300.000 eV
   QCUT   =   -5.516; QGAM   =   11.032    optimization parameters

   Description
     l     E      TYP  RCUT    TYP  RCUT
     0   .000     23  1.200
     0   .000     23  1.200
     1   .000     23  1.500
     1  2.500     23  1.500
     2   .000      7  1.500

 PAW_PBE C 08Apr2002                    :

 POSCAR: MD-kMC export data
  positions in direct lattice
  velocities in cartesian coordinates
 exchange correlation table for  LEXCH =        8
   RHO(1)=    0.500       N(1)  =     2000
   RHO(2)=  100.500       N(2)  =     4000

 ion  position               nearest neighbor table
   1  0.000  0.000  0.000-   4 1.42   2 1.43   2 1.43
   2  0.166  0.500  0.000-   3 1.42   1 1.43   1 1.43
   3  0.500  0.500  0.000-   2 1.42   4 1.43   4 1.43
   4  0.666  0.000  0.000-   1 1.42   3 1.43   3 1.43

  LATTYP: Found a simple orthorhombic cell.
 ALAT       =     2.4922202334
 B/A-ratio  =     1.7115472181
 C/A-ratio  =     7.9579379240

  Lattice vectors:

 A1 = (   0.0000000000,  -2.4922202334,   0.0000000000)
 A2 = (  -4.2655526074,   0.0000000000,   0.0000000000)
 A3 = (   0.0000000000,   0.0000000000, -19.8329339105)

Analysis of symmetry for initial positions (statically):
 Subroutine PRICEL returns following result:

  LATTYP: Found a base centered orthorhombic cell.
 ALAT       =     2.4922202334
 B/A-ratio  =     1.7115472181
 C/A-ratio  =     7.9579379240

[...]

   2 primitive cells build up your supercell.

 Routine SETGRP: Setting up the symmetry group for a
 simple orthorhombic supercell.

 Subroutine GETGRP returns: Found  8 space group operations
 (whereof  4 operations were pure point group operations)
 out of a pool of  8 trial point group operations.

The static configuration has the point symmetry C_2v.
 The point group associated with its full space group is D_2h.

Analysis of symmetry for dynamics (positions and initial velocities):
 Subroutine PRICEL returns following result:

  LATTYP: Found a base centered orthorhombic cell.
 ALAT       =     2.4922202334
 B/A-ratio  =     1.7115472181
 C/A-ratio  =     7.9579379240

  Lattice vectors:

 A1 = (   2.1327763037,  -1.2461101167,   0.0000000000)
 A2 = (  -2.1327763037,  -1.2461101167,   0.0000000000)
 A3 = (   0.0000000000,   0.0000000000, -19.8329339105)

   2 primitive cells build up your supercell.

 Routine SETGRP: Setting up the symmetry group for a
 simple orthorhombic supercell.

 Subroutine GETGRP returns: Found  8 space group operations
 (whereof  4 operations were pure point group operations)
 out of a pool of  8 trial point group operations.

The dynamic configuration has the point symmetry C_2v.
 The point group associated with its full space group is D_2h.

 KPOINTS: Automatic mesh

Automatic generation of k-mesh.
Space group operators:
 irot       det(A)        alpha          n_x          n_y          n_z        tau_x        tau_y        tau_z
    1     1.000000     0.000001     1.000000     0.000000     0.000000     0.000000     0.000000     0.000000
    2    -1.000000   179.999999     0.000000     0.000000     1.000000     0.000000     0.000000     0.000000
    3     1.000000   179.999999     1.000000     0.000000     0.000000     0.000000     0.000000     0.000000
    4    -1.000000   179.999999     0.000000     1.000000     0.000000     0.000000     0.000000     0.000000
    5    -1.000000     0.000001     1.000000     0.000000     0.000000     0.166667    -0.500000     0.000000
    6     1.000000   179.999999     0.000000     0.000000     1.000000     0.166667    -0.500000     0.000000
    7    -1.000000   179.999999     1.000000     0.000000     0.000000     0.166667    -0.500000     0.000000
    8     1.000000   179.999999     0.000000     1.000000     0.000000     0.166667    -0.500000     0.000000

 Subroutine IBZKPT returns following result:

 Found    247 irreducible k-points:

 Following reciprocal coordinates:
            Coordinates               Weight
  0.000000  0.000000  0.000000      1.000000
  0.041667  0.000000  0.000000      2.000000
  0.083333  0.000000  0.000000      2.000000
  0.125000  0.000000  0.000000      2.000000
  0.166667  0.000000  0.000000      2.000000
  0.208333  0.000000  0.000000      2.000000
  0.250000  0.000000  0.000000      2.000000
  0.291667  0.000000  0.000000      2.000000
  0.333333  0.000000  0.000000      2.000000
  0.375000  0.000000  0.000000      2.000000
  0.416667  0.000000  0.000000      2.000000
  0.458333  0.000000  0.000000      2.000000
  0.500000  0.000000  0.000000      1.000000
  0.000000  0.027778  0.000000      2.000000
  0.041667  0.027778  0.000000      4.000000
  0.083333  0.027778  0.000000      4.000000
  0.125000  0.027778  0.000000      4.000000
  0.166667  0.027778  0.000000      4.000000
  0.208333  0.027778  0.000000      4.000000
  0.250000  0.027778  0.000000      4.000000
  0.291667  0.027778  0.000000      4.000000
  0.333333  0.027778  0.000000      4.000000
  0.375000  0.027778  0.000000      4.000000
  0.416667  0.027778  0.000000      4.000000
  0.458333  0.027778  0.000000      4.000000
  0.500000  0.027778  0.000000      2.000000
  0.000000  0.055556  0.000000      2.000000
  0.041667  0.055556  0.000000      4.000000
  0.083333  0.055556  0.000000      4.000000
  0.125000  0.055556  0.000000      4.000000
  0.166667  0.055556  0.000000      4.000000
  0.208333  0.055556  0.000000      4.000000
  0.250000  0.055556  0.000000      4.000000
  0.291667  0.055556  0.000000      4.000000
  0.333333  0.055556  0.000000      4.000000
  0.375000  0.055556  0.000000      4.000000
  0.416667  0.055556  0.000000      4.000000
  0.458333  0.055556  0.000000      4.000000
  0.500000  0.055556  0.000000      2.000000
  0.000000  0.083333  0.000000      2.000000
  0.041667  0.083333  0.000000      4.000000
  0.083333  0.083333  0.000000      4.000000
  0.125000  0.083333  0.000000      4.000000
  0.166667  0.083333  0.000000      4.000000
  0.208333  0.083333  0.000000      4.000000
  0.250000  0.083333  0.000000      4.000000
  0.291667  0.083333  0.000000      4.000000
  0.333333  0.083333  0.000000      4.000000
  0.375000  0.083333  0.000000      4.000000
  0.416667  0.083333  0.000000      4.000000
  0.458333  0.083333  0.000000      4.000000
  0.500000  0.083333  0.000000      2.000000
  0.000000  0.111111  0.000000      2.000000
  0.041667  0.111111  0.000000      4.000000
  0.083333  0.111111  0.000000      4.000000
  0.125000  0.111111  0.000000      4.000000
  0.166667  0.111111  0.000000      4.000000
  0.208333  0.111111  0.000000      4.000000
  0.250000  0.111111  0.000000      4.000000
  0.291667  0.111111  0.000000      4.000000
[...]
  0.458333  0.472222  0.000000      4.000000
  0.500000  0.472222  0.000000      2.000000
  0.000000  0.500000  0.000000      1.000000
  0.041667  0.500000  0.000000      2.000000
  0.083333  0.500000  0.000000      2.000000
  0.125000  0.500000  0.000000      2.000000
  0.166667  0.500000  0.000000      2.000000
  0.208333  0.500000  0.000000      2.000000
  0.250000  0.500000  0.000000      2.000000
  0.291667  0.500000  0.000000      2.000000
  0.333333  0.500000  0.000000      2.000000
  0.375000  0.500000  0.000000      2.000000
  0.416667  0.500000  0.000000      2.000000
  0.458333  0.500000  0.000000      2.000000
  0.500000  0.500000  0.000000      1.000000

 Following cartesian coordinates:
            Coordinates               Weight
  0.000000  0.000000  0.000000      1.000000
  0.009768  0.000000  0.000000      2.000000
  0.019536  0.000000  0.000000      2.000000
  0.029305  0.000000  0.000000      2.000000
  0.039073  0.000000  0.000000      2.000000
  0.048841  0.000000  0.000000      2.000000
  0.058609  0.000000  0.000000      2.000000
  0.068377  0.000000  0.000000      2.000000
  0.078145  0.000000  0.000000      2.000000
  0.087914  0.000000  0.000000      2.000000
  0.097682  0.000000  0.000000      2.000000
  0.107450  0.000000  0.000000      2.000000
  0.117218  0.000000  0.000000      1.000000
  0.000000  0.011146  0.000000      2.000000
  0.009768  0.011146  0.000000      4.000000
  0.019536  0.011146  0.000000      4.000000
  0.029305  0.011146  0.000000      4.000000
  0.039073  0.011146  0.000000      4.000000
  0.048841  0.011146  0.000000      4.000000
  0.058609  0.011146  0.000000      4.000000
  0.068377  0.011146  0.000000      4.000000
  0.078145  0.011146  0.000000      4.000000
  0.087914  0.011146  0.000000      4.000000
  0.097682  0.011146  0.000000      4.000000
  0.107450  0.011146  0.000000      4.000000
  0.117218  0.011146  0.000000      2.000000
  0.000000  0.022292  0.000000      2.000000
  0.009768  0.022292  0.000000      4.000000
  0.019536  0.022292  0.000000      4.000000
  0.029305  0.022292  0.000000      4.000000
  0.039073  0.022292  0.000000      4.000000
  0.048841  0.022292  0.000000      4.000000
  0.058609  0.022292  0.000000      4.000000
  0.068377  0.022292  0.000000      4.000000
  0.078145  0.022292  0.000000      4.000000
  0.087914  0.022292  0.000000      4.000000
  0.097682  0.022292  0.000000      4.000000
  0.107450  0.022292  0.000000      4.000000
  0.117218  0.022292  0.000000      2.000000
  0.000000  0.033437  0.000000      2.000000
  0.009768  0.033437  0.000000      4.000000
  0.019536  0.033437  0.000000      4.000000
  0.029305  0.033437  0.000000      4.000000
  0.039073  0.033437  0.000000      4.000000
  0.048841  0.033437  0.000000      4.000000
  0.058609  0.033437  0.000000      4.000000
  0.068377  0.033437  0.000000      4.000000
  0.078145  0.033437  0.000000      4.000000
  0.087914  0.033437  0.000000      4.000000
  0.097682  0.033437  0.000000      4.000000
  0.107450  0.033437  0.000000      4.000000
  0.117218  0.033437  0.000000      2.000000
  0.000000  0.044583  0.000000      2.000000
  0.009768  0.044583  0.000000      4.000000
  0.019536  0.044583  0.000000      4.000000
  0.029305  0.044583  0.000000      4.000000
  0.039073  0.044583  0.000000      4.000000
  0.048841  0.044583  0.000000      4.000000
  0.058609  0.044583  0.000000      4.000000
  0.068377  0.044583  0.000000      4.000000
[...]
  0.107450  0.189479  0.000000      4.000000
  0.117218  0.189479  0.000000      2.000000
  0.000000  0.200624  0.000000      1.000000
  0.009768  0.200624  0.000000      2.000000
  0.019536  0.200624  0.000000      2.000000
  0.029305  0.200624  0.000000      2.000000
  0.039073  0.200624  0.000000      2.000000
  0.048841  0.200624  0.000000      2.000000
  0.058609  0.200624  0.000000      2.000000
  0.068377  0.200624  0.000000      2.000000
  0.078145  0.200624  0.000000      2.000000
  0.087914  0.200624  0.000000      2.000000
  0.097682  0.200624  0.000000      2.000000
  0.107450  0.200624  0.000000      2.000000
  0.117218  0.200624  0.000000      1.000000

 I would recommend the setting:
   dimension x,y,z NGX =    62 NGY =   36 NGZ =  289
[...]
 k-point ** :   0.2500 0.2778 0.0000  plane waves:   42822
 k-point ** :   0.2917 0.2778 0.0000  plane waves:   42809
 k-point ** :   0.3333 0.2778 0.0000  plane waves:   42792
 k-point ** :   0.3750 0.2778 0.0000  plane waves:   42792
 k-point ** :   0.4167 0.2778 0.0000  plane waves:   42781
 k-point ** :   0.4583 0.2778 0.0000  plane waves:   42773
 k-point ** :   0.5000 0.2778 0.0000  plane waves:   42774
 k-point ** :   0.0000 0.3056 0.0000  plane waves:   42896
 k-point ** :   0.0417 0.3056 0.0000  plane waves:   42918
 k-point ** :   0.0833 0.3056 0.0000  plane waves:   42913
 k-point ** :   0.1250 0.3056 0.0000  plane waves:   42910
 k-point ** :   0.1667 0.3056 0.0000  plane waves:   42885
 k-point ** :   0.2083 0.3056 0.0000  plane waves:   42860
 k-point ** :   0.2500 0.3056 0.0000  plane waves:   42863
 k-point ** :   0.2917 0.3056 0.0000  plane waves:   42826
 k-point ** :   0.3333 0.3056 0.0000  plane waves:   42789
 k-point ** :   0.3750 0.3056 0.0000  plane waves:   42796
 k-point ** :   0.4167 0.3056 0.0000  plane waves:   42807
 k-point ** :   0.4583 0.3056 0.0000  plane waves:   42796
 k-point ** :   0.5000 0.3056 0.0000  plane waves:   42800
 k-point ** :   0.0000 0.3333 0.0000  plane waves:   42934
 k-point ** :   0.0417 0.3333 0.0000  plane waves:   42901
 k-point ** :   0.0833 0.3333 0.0000  plane waves:   42909
[...]
 k-point ** :   0.4583 0.4722 0.0000  plane waves:   42822
 k-point ** :   0.5000 0.4722 0.0000  plane waves:   42824
 k-point ** :   0.0000 0.5000 0.0000  plane waves:   42842
 k-point ** :   0.0417 0.5000 0.0000  plane waves:   42878
 k-point ** :   0.0833 0.5000 0.0000  plane waves:   42912
 k-point ** :   0.1250 0.5000 0.0000  plane waves:   42924
 k-point ** :   0.1667 0.5000 0.0000  plane waves:   42914
 k-point ** :   0.2083 0.5000 0.0000  plane waves:   42914
 k-point ** :   0.2500 0.5000 0.0000  plane waves:   42912
 k-point ** :   0.2917 0.5000 0.0000  plane waves:   42924
 k-point ** :   0.3333 0.5000 0.0000  plane waves:   42856
 k-point ** :   0.3750 0.5000 0.0000  plane waves:   42848
 k-point ** :   0.4167 0.5000 0.0000  plane waves:   42838
 k-point ** :   0.4583 0.5000 0.0000  plane waves:   42818
 k-point ** :   0.5000 0.5000 0.0000  plane waves:   42816

 maximum and minimum number of plane-waves per node :     21522    21334

 maximum number of plane-waves:     42934
 maximum index in each direction:
   IXMAX=   15   IYMAX=    9   IZMAX=   72
   IXMIN=  -16   IYMIN=   -9   IZMIN=  -72

 NGX is ok and might be reduce to  64
 WARNING: aliasing errors must be expected set NGY to  38 to avoid them
 NGZ is ok and might be reduce to 290
 aliasing errors are usually negligible using standard VASP settings
 and one can safely disregard these warnings

 parallel 3D FFT for wavefunctions:
    minimum data exchange during FFTs selected (reduces bandwidth)
 parallel 3D FFT for charge:
    minimum data exchange during FFTs selected (reduces bandwidth)

 Broyden mixing: mesh for mixing (old mesh)
   NGX = 31   NGY = 19   NGZ =145
  (NGX  =128   NGY  = 72   NGZ  =588)
  gives a total of  85405 points

 initial charge density was supplied:
 charge density of overlapping atoms calculated
 number of electron      16.0000000 magnetization
 keeping initial charge density in first step

 Maximum index for augmentation-charges         4665 (set IRDMAX)

 First call to EWALD:  gamma=   0.298
 Maximum number of real-space cells 4x 6x 1
 Maximum number of reciprocal cells 2x 1x 8

 FEWALD executed in parallel

----------------------------------------- Iteration    1(   1)  ---------------------------------------

 eigenvalue-minimisations  :  5928
 total energy-change (2. order) : 0.1912383E+03  (-0.1056874E+04)
 number of electron      16.0000000 magnetization
 augmentation part       16.0000000 magnetization

 Free energy of the ion-electron system (eV)
  alpha Z        PSCENC =         6.18334092
  Ewald energy   TEWEN  =      2530.44097105
  -Hartree energ DENC   =     -2957.50905348
  -exchange      EXHF   =         0.00000000
  -V(xc)+E(xc)   XCENC  =        54.98351024
  PAW double counting   =       151.32577238     -155.92769107
  entropy T*S    EENTRO =        -0.00139603
  eigenvalues    EBANDS =       -26.88063478
  atomic energy  EATOM  =       588.62352690
  free energy    TOTEN  =       191.23834614 eV

  energy without entropy =      191.23974217  energy(sigma->0) =      191.23904415

[...]

 eigenvalue-minimisations  : 10444
 total energy-change (2. order) :-0.2003372E+03  (-0.1785183E+03)
 number of electron      16.0000000 magnetization
 augmentation part       16.0000000 magnetization

[...]

 Broyden mixing:
  rms(total) = 0.72520E+00    rms(broyden)= 0.72520E+00
  rms(prec ) = 0.78910E+00
  weight for this iteration     100.00

[...]

 eigenvalues of (default mixing * dielectric matrix)
  average eigenvalue GAMMA=   2.3131
  2.3131

[...]

 average (electrostatic) potential at core
  the test charge radii are     0.6991
  (the norm of the test charge is              1.0000)
       1 -58.2400       2 -58.2400       3 -58.2400       4 -58.2400

 E-fermi :  -2.7829     XC(G=0):  -2.1595     alpha+bet : -1.9046

 k-point     1 :       0.0000    0.0000    0.0000
  band No.  band energies     occupation
      1     -22.1838      2.00000
      2     -16.8912      2.00000
      3     -15.9280      2.00000
      4     -10.3050      2.00000
      5      -9.2937      2.00000
      6      -5.8758      2.00000
      7      -5.7635      2.00000
      8      -5.0260      2.00000
      9      -1.0996      0.00000
     10       0.5320      0.00000
     11       1.3313      0.00000
     12       1.7128      0.00000

[...]

 soft charge-density along one line, spin component           1
         0         1         2         3         4         5         6         7         8         9
 total charge-density along one line

------------------------ aborting loop because EDIFF is reached ----------------------------------------

  FORCE on cell =-STRESS in cart. coord.  units (eV):
  Direction    XX          YY          ZZ          XY          YZ          ZX
  Alpha Z     6.18334     6.18334     6.18334
  Ewald    3066.33899  3065.07505 -3600.97330    -0.00000     0.00000     0.00000
  Hartree  3001.89575  3001.47055 -2978.83985    -0.00000    -0.00000    -0.00000
  E(xc)     -58.19709   -58.18496   -60.52288    -0.00000    -0.00000    -0.00000
  Local   -6240.90993 -6239.44820  6374.02374    -0.00000    -0.00000    -0.00000
  n-local   -13.90192   -13.56258   -12.65155     0.06964    -0.00000     0.00000
  augment    -1.51695    -1.51556    -1.39709     0.00000    -0.00000    -0.00000
  Kinetic   240.10827   237.76095   274.17626    -4.61930     0.00000    -0.00000
  Fock        0.00000     0.00000     0.00000     0.00000     0.00000     0.00000
  Total       0.00046    -2.22141    -0.00134     0.00000     0.00000     0.00000
  in kB       0.00350   -16.88071    -0.01018     0.00000     0.00000     0.00000

 VOLUME and BASIS-vectors are now :
  energy-cutoff  :     2000.00
  volume of cell :      210.84
      direct lattice vectors                 reciprocal lattice vectors
     4.265552607  0.000000000  0.000000000     0.234436213  0.000000000  0.000000000
     0.000000000  2.492220233  0.000000000     0.000000000  0.401248648  0.000000000
     0.000000000  0.000000000 19.832933910     0.000000000  0.000000000  0.050421183

[...]

 FORCES acting on ions
    electron-ion (+dipol)            ewald-force                    non-local-force                 convergence-correction
   -.219E+01 0.119E-15 0.520E-09   0.220E+01 0.740E-14 -.990E-18   -.925E-03 0.104E-16 0.000E+00   0.791E-06 -.210E-14 0.192E-12
   0.219E+01 0.182E-12 -.398E-08   -.220E+01 -.422E-14 -.910E-34   0.925E-03 -.347E-17 0.000E+00   -.791E-06 -.795E-16 0.194E-12
   -.219E+01 -.157E-12 0.520E-09   0.220E+01 0.601E-14 0.990E-18   -.925E-03 0.173E-16 0.000E+00   0.791E-06 -.219E-14 0.193E-12
   0.219E+01 0.102E-15 -.399E-08   -.220E+01 -.561E-14 0.963E-34   0.925E-03 0.173E-16 -.905E-25   -.791E-06 0.348E-16 0.193E-12
   -.244E-06 0.261E-13 -.693E-08   0.311E-14 0.358E-14 0.963E-34   0.651E-18 0.416E-16 -.905E-25   -.868E-12 -.433E-14 0.772E-12

 POSITION                                       TOTAL-FORCE (eV/Angst)
      0.00112      0.00000      0.00000         0.000613      0.000000      0.000000
      0.70980      1.24611      0.00000        -0.000613     -0.000000      0.000000
      2.13390      1.24611      0.00000         0.000613     -0.000000      0.000000
      2.84258      0.00000      0.00000        -0.000613     -0.000000      0.000000
    total drift:                               -0.000000      0.000000     -0.000000

  FREE ENERGIE OF THE ION-ELECTRON SYSTEM (eV)
  free  energy   TOTEN  =       -36.91427254 eV

  energy  without entropy=      -36.91424461  energy(sigma->0) =      -36.91425858

 Quasi-Newton relaxation of ions (Broydens 2nd method)
  g(Force)  = 0.726E-07   g(Stress)= 0.000E+00

 Reset! Starting new Quasi-Newton update for ions

[...]

WARNING in EDDRMM: call to ZHEGV failed, returncode =   6  3  1

[...]

 d Force =-0.1115913E-06[-0.296E-06, 0.726E-07]  d Energy =-0.1141868E-06 0.260E-08
 d Force = 0.2594015E-03[ 0.259E-03, 0.260E-03]  d Ewald  = 0.2594015E-03 0.200E-10

[...]

 retain information from N=  1 steps
 eigenvalues of (default step * inverse Hessian matrix)
  average eigenvalue of G=   0.1971
 eigenvalue spectrum of G is  0.1971

[...]

WARNING in EDDRMM: call to ZHEGV failed, returncode =   6  3  1

[...]

 d Force = 0.1188163E-06[ 0.137E-09, 0.237E-06]  d Energy = 0.1212522E-06-0.244E-08
 d Force =-0.2081745E-03[-0.209E-03,-0.208E-03]  d Ewald  =-0.2081745E-03-0.114E-10

[...]

 eigenvalue-minimisations  :  4716
 total energy-change (2. order) : 0.8313918E-09  ( 0.5699272E-09)
 number of electron      16.0000000 magnetization
 augmentation part        0.3780905 magnetization

[...]

 eigenvalue-minimisations  :  1870
 total energy-change (2. order) :-0.6900791E-09  ( 0.1622448E-12)
 number of electron      16.0000000 magnetization
 augmentation part        0.3780905 magnetization

[...]

 d Force =-0.1820218E-13[-0.115E-12, 0.787E-13]  d Energy =-0.6082246E-10 0.608E-10
 d Force =-0.1201354E-06[-0.120E-06,-0.120E-06]  d Ewald  =-0.1201361E-06 0.455E-12

[...]

 FEWALD executed in parallel

[...]

 eigenvalue-minimisations  :  4548
 total energy-change (2. order) : 0.5011316E-09  ( 0.5716624E-09)
 number of electron      16.0000000 magnetization
 augmentation part        0.3780905 magnetization

[...]

 eigenvalue-minimisations  :  1195
 total energy-change (2. order) : 0.4358753E-09  (-0.9893321E-14)
 number of electron      16.0000000 magnetization
 augmentation part        0.3780905 magnetization

[...]

 eigenvalue-minimisations  :  1296
 total energy-change (2. order) :-0.1638227E-09  ( 0.9749403E-14)
 number of electron      16.0000000 magnetization
 augmentation part        0.3780905 magnetization

 Broyden mixing:
  rms(total) = 0.16183E-09    rms(broyden)= 0.16178E-09
  rms(prec ) = 0.30843E-09
  weight for this iteration     100.00

 eigenvalues of (default mixing * dielectric matrix)
  average eigenvalue GAMMA=   1.5673
  2.5267  2.5267  1.1208  0.8313  0.8313

[...]

----------------------------------------- Iteration    5(   7)  ---------------------------------------

 eigenvalue-minimisations  :  1138
 total energy-change (2. order) :-0.9538326E-10  (-0.1653410E-13)
 number of electron      16.0000000 magnetization
 augmentation part        0.3780905 magnetization

 Free energy of the ion-electron system (eV)
  alpha Z        PSCENC =         6.18334092
  Ewald energy   TEWEN  =      2530.44091987
  -Hartree energ DENC   =     -3024.52640992
  -exchange      EXHF   =         0.00000000
  -V(xc)+E(xc)   XCENC  =        57.36767527
  PAW double counting   =       273.68626794     -278.81970715
  entropy T*S    EENTRO =        -0.00002803
  eigenvalues    EBANDS =      -189.86985835
  atomic energy  EATOM  =       588.62352690
  free energy    TOTEN  =       -36.91427255 eV

  energy without entropy =      -36.91424451  energy(sigma->0) =      -36.91425853

 average (electrostatic) potential at core
  the test charge radii are     0.6991
  (the norm of the test charge is              1.0000)
       1 -58.2400       2 -58.2400       3 -58.2400       4 -58.2400

 E-fermi :  -2.7829     XC(G=0):  -2.1563     alpha+bet : -1.9046

[...]

 k-point   247 :       0.5000    0.5000    0.0000
  band No.  band energies     occupation
      1     -17.0636      2.00000
      2     -17.0636      2.00000
      3     -15.9211      2.00000
      4     -15.9211      2.00000
      5      -9.0812      2.00000
      6      -9.0812      2.00000
      7      -5.1595      2.00000
      8      -5.1595      2.00000
      9      -1.1163      0.00000
     10      -1.1163      0.00000
     11       4.6030      0.00000
     12       4.6030      0.00000

 soft charge-density along one line, spin component           1
         0         1         2         3         4         5         6         7         8         9
 total charge-density along one line

------------------------ aborting loop because EDIFF is reached ----------------------------------------

  FORCE on cell =-STRESS in cart. coord.  units (eV):
  Direction    XX          YY          ZZ          XY          YZ          ZX
  Alpha Z     6.18334     6.18334     6.18334
  Ewald    3066.33391  3065.08007 -3600.97330    -0.00000     0.00000    -0.00000
  Hartree  3001.89505  3001.47122 -2978.83986     0.00000    -0.00000    -0.00000
  E(xc)     -58.19711   -58.18494   -60.52288    -0.00000    -0.00000    -0.00000
  Local   -6240.90514 -6239.45294  6374.02376     0.00000    -0.00000     0.00000
  n-local   -13.90196   -13.56254   -12.65155     0.06965     0.00000     0.00000
  augment    -1.51694    -1.51557    -1.39709    -0.00000     0.00000     0.00000
  Kinetic   240.10902   237.76017   274.17625    -4.61932    -0.00000    -0.00000
  Fock        0.00000     0.00000     0.00000     0.00000     0.00000     0.00000
  Total       0.00018    -2.22118    -0.00133     0.00000     0.00000     0.00000
  in kB       0.00139   -16.87896    -0.01014     0.00000     0.00000     0.00000

 VOLUME and BASIS-vectors are now :
  energy-cutoff  :     2000.00
  volume of cell :      210.84
      direct lattice vectors                 reciprocal lattice vectors
     4.265552607  0.000000000  0.000000000     0.234436213  0.000000000  0.000000000
     0.000000000  2.492220233  0.000000000     0.000000000  0.401248648  0.000000000
     0.000000000  0.000000000 19.832933910     0.000000000  0.000000000  0.050421183

  length of vectors
     4.265552607  2.492220233 19.832933910     0.234436213  0.401248648  0.050421183

 FORCES acting on ions
    electron-ion (+dipol)            ewald-force                    non-local-force                 convergence-correction
   -.219E+01 0.282E-15 0.522E-09   0.219E+01 -.108E-14 0.124E-18   -.114E-02 -.694E-17 0.000E+00   -.112E-08 -.227E-14 0.191E-11
   0.219E+01 0.215E-12 -.398E-08   -.219E+01 0.252E-16 -.233E-18   0.114E-02 0.139E-16 0.000E+00   0.112E-08 0.249E-14 0.190E-11
   -.219E+01 0.709E-12 0.514E-09   0.219E+01 0.176E-14 -.448E-18   -.114E-02 -.694E-17 -.162E-26   -.112E-08 0.235E-14 0.187E-11
   0.219E+01 0.518E-15 -.397E-08   -.219E+01 0.287E-14 0.557E-18   0.114E-02 0.000E+00 0.202E-26   0.112E-08 -.216E-14 0.188E-11
   -.244E-06 0.924E-12 -.692E-08   0.311E-14 0.358E-14 0.000E+00   0.000E+00 0.000E+00 0.404E-27   0.304E-14 0.414E-15 0.756E-11

 POSITION                                       TOTAL-FORCE (eV/Angst)
      0.00113      0.00000     -0.00000         0.000001      0.000000     -0.000000
      0.70980      1.24611      0.00000        -0.000001     -0.000000      0.000000
      2.13390      1.24611     -0.00000         0.000001     -0.000000     -0.000000
      2.84257      0.00000      0.00000        -0.000001      0.000000      0.000000
    total drift:                               -0.000000      0.000000     -0.000000

  FREE ENERGIE OF THE ION-ELECTRON SYSTEM (eV)
  free  energy   TOTEN  =       -36.91427255 eV

  energy  without entropy=      -36.91424451  energy(sigma->0) =      -36.91425853

 d Force = 0.4950636E-13[ 0.306E-13, 0.684E-13]  d Energy = 0.3581135E-10-0.358E-10
 d Force = 0.7134536E-07[ 0.713E-07, 0.713E-07]  d Ewald  = 0.7134531E-07 0.000E+00

 Quasi-Newton relaxation of ions (Broydens 2nd method)
  g(Force)  = 0.171E-12   g(Stress)= 0.000E+00

 retain information from N=  1 steps
 eigenvalues of (default step * inverse Hessian matrix)
  average eigenvalue of G=   0.1451
 eigenvalue spectrum of G is  0.1451

 reached required accuracy - stopping structural energy minimisation