     Program PWSCF v.6.7MaX starts on 12Feb2021 at 10:17: 7

     Reading input from si.vc_relax.in

     Current dimensions of program PWSCF are:
     Max number of different atomic species (ntypx) = 10
     Max number of k-points (npk) =  40000
     Max angular momentum in pseudopotentials (lmaxx) =  3

     bravais-lattice index     =            2
     lattice parameter (alat)  =      14.0000  a.u.
     unit-cell volume          =     686.0000 (a.u.)^3
     number of atoms/cell      =            2
     number of atomic types    =            1
     number of electrons       =         8.00
     number of Kohn-Sham states=            4
     kinetic-energy cutoff     =      30.0000  Ry
     charge density cutoff     =     120.0000  Ry
     scf convergence threshold =      1.0E-07
     mixing beta               =       0.7000
     number of iterations used =            8  plain     mixing
     energy convergence thresh.=      1.0E-05
     force convergence thresh. =      1.0E-04
     press convergence thresh. =      5.0E-01
     Exchange-correlation= PBE
                           (   1   4   3   4   0   0   0)
     nstep                     =           50

     celldm(1)=  14.000000  celldm(2)=   0.000000  celldm(3)=   0.000000
     celldm(4)=   0.000000  celldm(5)=   0.000000  celldm(6)=   0.000000

     crystal axes: (cart. coord. in units of alat)
               a(1) = (  -0.500000   0.000000   0.500000 )
               a(2) = (   0.000000   0.500000   0.500000 )
               a(3) = (  -0.500000   0.500000   0.000000 )

     reciprocal axes: (cart. coord. in units 2 pi/alat)
               b(1) = ( -1.000000 -1.000000  1.000000 )
               b(2) = (  1.000000  1.000000  1.000000 )
               b(3) = ( -1.000000  1.000000 -1.000000 )

     PseudoPot. # 1 for Si read from file:
     /home/natan/mphys/qe_pseudos/Si.pbe-n-rrkjus_psl.1.0.0.UPF
     MD5 check sum: 0b0bb1205258b0d07b9f9672cf965d36
     Pseudo is Ultrasoft + core correction, Zval =  4.0
     Generated using "atomic" code by A. Dal Corso  v.5.1
     Using radial grid of 1141 points,  6 beta functions with:
                l(1) =   0
                l(2) =   0
                l(3) =   1
                l(4) =   1
                l(5) =   2
                l(6) =   2
     Q(r) pseudized with 0 coefficients

     atomic species   valence    mass     pseudopotential
        Si             4.00    28.08550     Si( 1.00)

     48 Sym. Ops., with inversion, found (24 have fractional translation)

   Cartesian axes

     site n.     atom                  positions (alat units)
         1           Si  tau(   1) = (   0.0000000   0.0000000   0.0000000  )
         2           Si  tau(   2) = (   0.2500000   0.2500000   0.2500000  )

     number of k points=     8
                       cart. coord. in units 2pi/alat
        k(    1) = (   0.0000000   0.0000000   0.0000000), wk =   0.0312500
        k(    2) = (  -0.2500000   0.2500000  -0.2500000), wk =   0.2500000
        k(    3) = (   0.5000000  -0.5000000   0.5000000), wk =   0.1250000
        k(    4) = (   0.0000000   0.5000000   0.0000000), wk =   0.1875000
        k(    5) = (   0.7500000  -0.2500000   0.7500000), wk =   0.7500000
        k(    6) = (   0.5000000   0.0000000   0.5000000), wk =   0.3750000
        k(    7) = (   0.0000000  -1.0000000   0.0000000), wk =   0.0937500
        k(    8) = (  -0.5000000  -1.0000000   0.0000000), wk =   0.1875000

     Check: negative core charge=   -0.000003

     Initial potential from superposition of free atoms

     starting charge    7.99888, renormalised to    8.00000
     Starting wfcs are    8 randomized atomic wfcs

     Self-consistent Calculation

     iteration #  1     ecut=    30.00 Ry     beta= 0.70
     Davidson diagonalization with overlap
     ethr =  1.00E-02,  avg # of iterations =  1.0

     Threshold (ethr) on eigenvalues was too large:
     Diagonalizing with lowered threshold

     Davidson diagonalization with overlap
     ethr =  1.38E-04,  avg # of iterations =  2.8

     total energy              =     -22.51767626 Ry
     estimated scf accuracy    <       0.01215670 Ry

[...]

     iteration #  4     ecut=    30.00 Ry     beta= 0.70
     Davidson diagonalization with overlap
     c_bands:  1 eigenvalues not converged
     c_bands:  1 eigenvalues not converged
     ethr =  2.98E-07,  avg # of iterations =  8.9

[...]

     iteration # 20     ecut=    30.00 Ry     beta= 0.70
     Davidson diagonalization with overlap
     c_bands:  1 eigenvalues not converged
     ethr =  2.46E-09,  avg # of iterations =  4.2

     End of self-consistent calculation

          k = 0.0000 0.0000 0.0000 (  1917 PWs)   bands (ev):

    -8.0081  -3.9985  -0.2015  -0.2015

          k =-0.2500 0.2500-0.2500 (  1910 PWs)   bands (ev):

[...]

     highest occupied level (ev):    -0.2015

!    total energy              =     -22.51863024 Ry
     estimated scf accuracy    <       0.00000007 Ry

     The total energy is the sum of the following terms:
     one-electron contribution =      -0.82183660 Ry
     hartree contribution      =       2.17829747 Ry
     xc contribution           =     -11.56240983 Ry
     ewald contribution        =     -12.31268128 Ry

     convergence has been achieved in  20 iterations

     Forces acting on atoms (cartesian axes, Ry/au):

     atom    1 type  1   force =     0.00000000    0.00000000   -0.00000000
     atom    2 type  1   force =    -0.00000000   -0.00000000    0.00000000

     Total force =     0.000000     Total SCF correction =     0.000000

     Computing stress (Cartesian axis) and pressure

          total   stress  (Ry/bohr**3)                   (kbar)     P=      -89.25
  -0.00060669   0.00000000  -0.00000000          -89.25        0.00       -0.00
   0.00000000  -0.00060669   0.00000000            0.00      -89.25        0.00
  -0.00000000   0.00000000  -0.00060669           -0.00        0.00      -89.25

     BFGS Geometry Optimization
     Energy error            =      0.0E+00
     Gradient error          =      0.0E+00
     Cell gradient error     =      6.1E-04

     number of scf cycles    =   1
     number of bfgs steps    =   0

     enthalpy new            =     -22.5186302406 Ry

     new trust radius        =       0.0794510287 bohr
ibrav =      2
 celldm(1) =     13.78765819
Input lattice vectors:
    -0.49241636    -0.00000000     0.49241636
    -0.00000000     0.49241636     0.49241636
    -0.49241636     0.49241636     0.00000000
New lattice vectors in INITIAL alat:
    -0.49241636     0.00000000     0.49241636
     0.00000000     0.49241636     0.49241636
    -0.49241636     0.49241636     0.00000000
New lattice vectors in NEW alat (for information only):
    -0.50000000     0.00000000     0.50000000
     0.00000000     0.50000000     0.50000000
    -0.50000000     0.50000000     0.00000000
Discrepancy in bohr =     0.000000    0.000000    0.000000
     new conv_thr            =       0.0000001000 Ry

     new unit-cell volume =    655.25680 a.u.^3 (    97.09904 Ang^3 )
     density =      0.96061 g/cm^3

CELL_PARAMETERS (alat= 14.00000000)
  -0.492416364   0.000000000   0.492416364
   0.000000000   0.492416364   0.492416364
  -0.492416364   0.492416364   0.000000000

ATOMIC_POSITIONS (alat)
Si            0.0000000000        0.0000000000        0.0000000000    0   0   0
Si            0.2462081820        0.2462081820        0.2462081820    0   0   0

     Writing output data file ./outdir/si.save/
     NEW-OLD atomic charge density approx. for the potential

     Check: negative core charge=   -0.000002
     extrapolated charge    7.62471, renormalised to    8.00000

[...]

     Energy error            =      1.9E-02
     Gradient error          =      0.0E+00
     Cell gradient error     =      6.4E-04

[...]

     enthalpy old            =     -22.5186302406 Ry
     enthalpy new            =     -22.5378430518 Ry

     CASE: enthalpy_new < enthalpy_old

     WARNING: bfgs curvature condition failed, Theta= 0.777
     new trust radius        =       0.1182692983 bohr
ibrav =      2
 celldm(1) =     13.46914548
Input lattice vectors:
    -0.48104091    -0.00000000     0.48104091
     0.00000000     0.48104091     0.48104091
    -0.48104091     0.48104091    -0.00000000
New lattice vectors in INITIAL alat:
    -0.48104091     0.00000000     0.48104091
     0.00000000     0.48104091     0.48104091
    -0.48104091     0.48104091     0.00000000
New lattice vectors in NEW alat (for information only):
    -0.50000000     0.00000000     0.50000000
     0.00000000     0.50000000     0.50000000
    -0.50000000     0.50000000     0.00000000
Discrepancy in bohr =     0.000000    0.000000    0.000000
     new conv_thr            =       0.0000000010 Ry

[...]

     WARNING: bfgs curvature condition failed, Theta= 0.684
     uphill step: resetting bfgs history

[...]

     WARNING: bfgs curvature condition failed, Theta= 0.586
     uphill step: resetting bfgs history

[...]

     Writing output data file ./outdir/si.save/
     NEW-OLD atomic charge density approx. for the potential
     extrapolated charge    6.57380, renormalised to    8.00000

[...]

     Writing output data file ./outdir/si.save/
     NEW-OLD atomic charge density approx. for the potential
     extrapolated charge    5.58052, renormalised to    8.00000

[...]

     WARNING: bfgs curvature condition failed, Theta= 0.199
     new trust radius        =       0.0067819570 bohr
ibrav =      2
 celldm(1) =     10.38921627
Input lattice vectors:
    -0.37104344    -0.00000000     0.37104344
     0.00000000     0.37104344     0.37104344
    -0.37104344     0.37104344    -0.00000000
New lattice vectors in INITIAL alat:
    -0.37104344     0.00000000     0.37104344
     0.00000000     0.37104344     0.37104344
    -0.37104344     0.37104344     0.00000000
New lattice vectors in NEW alat (for information only):
    -0.50000000     0.00000000     0.50000000
     0.00000000     0.50000000     0.50000000
    -0.50000000     0.50000000     0.00000000
Discrepancy in bohr =     0.000000    0.000000    0.000000
     new conv_thr            =       0.0000000010 Ry

[...]

     number of scf cycles    =  15
     number of bfgs steps    =  14

     enthalpy old            =     -22.8266016736 Ry
     enthalpy new            =     -22.8266721765 Ry

     CASE: enthalpy_new < enthalpy_old

     small trust_radius: resetting bfgs history

     new trust radius        =       0.0000298553 bohr
ibrav =      2
 celldm(1) =     10.35759408
Input lattice vectors:
    -0.36991407    -0.00000000     0.36991407
     0.00000000     0.36991407     0.36991407
    -0.36991407     0.36991407    -0.00000000
New lattice vectors in INITIAL alat:
    -0.36991407     0.00000000     0.36991407
     0.00000000     0.36991407     0.36991407
    -0.36991407     0.36991407     0.00000000
New lattice vectors in NEW alat (for information only):
    -0.50000000     0.00000000     0.50000000
     0.00000000     0.50000000     0.50000000
    -0.50000000     0.50000000     0.00000000
Discrepancy in bohr =     0.000000    0.000000    0.000000
     new conv_thr            =       0.0000000010 Ry

     new unit-cell volume =    277.79004 a.u.^3 (    41.16424 Ang^3 )
     density =      2.26590 g/cm^3

[...]

ATOMIC_POSITIONS (alat)
Si            0.0000000000        0.0000000000        0.0000000000    0   0   0
Si            0.1849570372        0.1849570372        0.1849570372    0   0   0

     Writing output data file ./outdir/si.save/
     NEW-OLD atomic charge density approx. for the potential

     Check: negative core charge=   -0.000001
     extrapolated charge    7.99979, renormalised to    8.00000

[...]

     Threshold (ethr) on eigenvalues was too large:
     Diagonalizing with lowered threshold

     Davidson diagonalization with overlap
     ethr =  4.97E-12,  avg # of iterations =  2.9

[...]

     Energy error            =      1.4E-09
     Gradient error          =      0.0E+00
     Cell gradient error     =      1.5E-08

ibrav =      2
 celldm(1) =     10.35759408
Input lattice vectors:
    -0.36991407     0.00000000     0.36991407
     0.00000000     0.36991407     0.36991407
    -0.36991407     0.36991407     0.00000000
New lattice vectors in INITIAL alat:
    -0.36991407     0.00000000     0.36991407
     0.00000000     0.36991407     0.36991407
    -0.36991407     0.36991407     0.00000000
New lattice vectors in NEW alat (for information only):
    -0.50000000     0.00000000     0.50000000
     0.00000000     0.50000000     0.50000000
    -0.50000000     0.50000000     0.00000000
Discrepancy in bohr =     0.000000    0.000000    0.000000

     bfgs converged in  16 scf cycles and  15 bfgs steps
     (criteria: energy <  1.0E-05 Ry, force <  1.0E-04Ry/Bohr, cell <  5.0E-01kbar)

     End of BFGS Geometry Optimization

     Final enthalpy =     -22.8266721779 Ry

     File ./outdir/si.bfgs deleted, as requested
Begin final coordinates
     new unit-cell volume =    277.79004 a.u.^3 (    41.16424 Ang^3 )
     density =      2.26590 g/cm^3

CELL_PARAMETERS (alat= 14.00000000)
  -0.369914074   0.000000000   0.369914074
   0.000000000   0.369914074   0.369914074
  -0.369914074   0.369914074   0.000000000

ATOMIC_POSITIONS (alat)
Si            0.0000000000        0.0000000000        0.0000000000    0   0   0
Si            0.1849570372        0.1849570372        0.1849570372    0   0   0
End final coordinates

     Writing output data file ./outdir/si.save/

     Final scf calculation at the relaxed structure.
     The G-vectors are recalculated for the final unit cell
     Results may differ from those at the preceding step.

     bravais-lattice index     =            2
     lattice parameter (alat)  =      14.0000  a.u.
     unit-cell volume          =     277.7900 (a.u.)^3
     number of atoms/cell      =            2
     number of atomic types    =            1
     number of electrons       =         8.00
     number of Kohn-Sham states=            4
     kinetic-energy cutoff     =      30.0000  Ry
     charge density cutoff     =     120.0000  Ry
     scf convergence threshold =      1.0E-09
     mixing beta               =       0.7000
     number of iterations used =            8  plain     mixing
     press convergence thresh. =      5.0E-01
     Exchange-correlation= PBE
                           (   1   4   3   4   0   0   0)

     celldm(1)=  14.000000  celldm(2)=   0.000000  celldm(3)=   0.000000
     celldm(4)=   0.000000  celldm(5)=   0.000000  celldm(6)=   0.000000

     crystal axes: (cart. coord. in units of alat)
               a(1) = (  -0.369914   0.000000   0.369914 )
               a(2) = (   0.000000   0.369914   0.369914 )
               a(3) = (  -0.369914   0.369914   0.000000 )

     reciprocal axes: (cart. coord. in units 2 pi/alat)
               b(1) = ( -1.351665 -1.351665  1.351665 )
               b(2) = (  1.351665  1.351665  1.351665 )
               b(3) = ( -1.351665  1.351665 -1.351665 )

     PseudoPot. # 1 for Si read from file:
     /home/natan/mphys/qe_pseudos/Si.pbe-n-rrkjus_psl.1.0.0.UPF
     MD5 check sum: 0b0bb1205258b0d07b9f9672cf965d36
     Pseudo is Ultrasoft + core correction, Zval =  4.0
     Generated using "atomic" code by A. Dal Corso  v.5.1
     Using radial grid of 1141 points,  6 beta functions with:
                l(1) =   0
                l(2) =   0
                l(3) =   1
                l(4) =   1
                l(5) =   2
                l(6) =   2
     Q(r) pseudized with 0 coefficients

     atomic species   valence    mass     pseudopotential
        Si             4.00    28.08550     Si( 1.00)

     48 Sym. Ops., with inversion, found (24 have fractional translation)

   Cartesian axes

     site n.     atom                  positions (alat units)
         1           Si  tau(   1) = (   0.0000000   0.0000000   0.0000000  )
         2           Si  tau(   2) = (   0.1849570   0.1849570   0.1849570  )

     number of k points=     8
                       cart. coord. in units 2pi/alat
        k(    1) = (   0.0000000   0.0000000   0.0000000), wk =   0.0312500
        k(    2) = (  -0.3379163   0.3379163  -0.3379163), wk =   0.2500000
        k(    3) = (   0.6758326  -0.6758326   0.6758326), wk =   0.1250000
        k(    4) = (   0.0000000   0.6758326   0.0000000), wk =   0.1875000
        k(    5) = (   1.0137489  -0.3379163   1.0137489), wk =   0.7500000
        k(    6) = (   0.6758326   0.0000000   0.6758326), wk =   0.3750000
        k(    7) = (   0.0000000  -1.3516653   0.0000000), wk =   0.0937500
        k(    8) = (  -0.6758326  -1.3516653   0.0000000), wk =   0.1875000

     Check: negative core charge=   -0.000004

     Initial potential from superposition of free atoms

     starting charge    7.99888, renormalised to    8.00000
     Starting wfcs are    8 randomized atomic wfcs

     Self-consistent Calculation

[...]

     total energy              =     -22.82646770 Ry
     estimated scf accuracy    <          1.7E-09 Ry

     iteration #  8     ecut=    30.00 Ry     beta= 0.70
     Davidson diagonalization with overlap
     ethr =  2.07E-11,  avg # of iterations =  1.6

     End of self-consistent calculation

[...]

          k = 0.0000-1.3517 0.0000 (   774 PWs)   bands (ev):

[...]

          k =-0.6758-1.3517 0.0000 (   772 PWs)   bands (ev):

    -1.6221  -1.6221   2.2102   2.2102

     highest occupied level (ev):     5.9603

!    total energy              =     -22.82646770 Ry
     estimated scf accuracy    <          6.8E-10 Ry

     The total energy is the sum of the following terms:
     one-electron contribution =       4.95425688 Ry
     hartree contribution      =       1.14878928 Ry
     xc contribution           =     -12.28689044 Ry
     ewald contribution        =     -16.64262342 Ry

     convergence has been achieved in   8 iterations

     Forces acting on atoms (cartesian axes, Ry/au):

     atom    1 type  1   force =     0.00000000    0.00000000    0.00000000
     atom    2 type  1   force =     0.00000000    0.00000000    0.00000000

     Total force =     0.000000     Total SCF correction =     0.000000

     Computing stress (Cartesian axis) and pressure

          total   stress  (Ry/bohr**3)                   (kbar)     P=        0.20
   0.00000134  -0.00000000   0.00000000            0.20       -0.00        0.00
  -0.00000000   0.00000134   0.00000000           -0.00        0.20        0.00
  -0.00000000   0.00000000   0.00000134           -0.00        0.00        0.20

     Writing output data file ./outdir/si.save/

     General routines

   This run was terminated on:  10:24:17  12Feb2021

   JOB DONE.