 vasp.5.3.5 31Mar14 (build Mar 02 2015 18:14:16) complex

 executed on             LinuxIFC date 2018.08.09  14:20:44

 INCAR:
 POTCAR:   PAW_PBE C 08Apr2002
 POTCAR:   PAW_PBE C 08Apr2002
   VRHFIN =C: s2p2

   TITEL  = PAW_PBE C 08Apr2002
   POMASS =   12.011; ZVAL   =    4.000    mass and valenz
   ENMAX  =  400.000; ENMIN  =  300.000 eV
   QCUT   =   -5.516; QGAM   =   11.032    optimization parameters

   Description
     l     E      TYP  RCUT    TYP  RCUT
     0   .000     23  1.200
     0   .000     23  1.200
     1   .000     23  1.500
     1  2.500     23  1.500
     2   .000      7  1.500

 PAW_PBE C 08Apr2002                    :

 POSCAR: MD-kMC export data
  positions in direct lattice
  velocities in cartesian coordinates
 exchange correlation table for  LEXCH =        8
   RHO(1)=    0.500       N(1)  =     2000
   RHO(2)=  100.500       N(2)  =     4000

 ion  position               nearest neighbor table
   1  0.999  0.000  0.000-   2 1.43   2 1.43   4 1.46
   2  0.167  0.500  0.000-   1 1.43   1 1.43   3 1.46
   3  0.499  0.500  0.000-   4 1.43   4 1.43   2 1.46
   4  0.667  0.000  0.000-   3 1.43   3 1.43   1 1.46

  LATTYP: Found a simple orthorhombic cell.
 ALAT       =     2.4570542793
 B/A-ratio  =     1.7831836704
 C/A-ratio  =     7.9709182378

  Lattice vectors:

 A1 = (   0.0000000000,  -2.4570542793,   0.0000000000)
 A2 = (  -4.3813790680,   0.0000000000,   0.0000000000)
 A3 = (   0.0000000000,   0.0000000000, -19.5849787659)

Analysis of symmetry for initial positions (statically):
 Subroutine PRICEL returns following result:

  LATTYP: Found a base centered orthorhombic cell.
 ALAT       =     2.4570542793
 B/A-ratio  =     1.7831836704
 C/A-ratio  =     7.9709182378

[...]

   2 primitive cells build up your supercell.

 Routine SETGRP: Setting up the symmetry group for a
 simple orthorhombic supercell.

 Subroutine GETGRP returns: Found  8 space group operations
 (whereof  4 operations were pure point group operations)
 out of a pool of  8 trial point group operations.

The static configuration has the point symmetry C_2v.
 The point group associated with its full space group is D_2h.

Analysis of symmetry for dynamics (positions and initial velocities):
 Subroutine PRICEL returns following result:

  LATTYP: Found a base centered orthorhombic cell.
 ALAT       =     2.4570542793
 B/A-ratio  =     1.7831836704
 C/A-ratio  =     7.9709182378

  Lattice vectors:

 A1 = (   2.1906895340,  -1.2285271396,   0.0000000000)
 A2 = (  -2.1906895340,  -1.2285271396,   0.0000000000)
 A3 = (   0.0000000000,   0.0000000000, -19.5849787659)

   2 primitive cells build up your supercell.

 Routine SETGRP: Setting up the symmetry group for a
 simple orthorhombic supercell.

 Subroutine GETGRP returns: Found  8 space group operations
 (whereof  4 operations were pure point group operations)
 out of a pool of  8 trial point group operations.

The dynamic configuration has the point symmetry C_2v.
 The point group associated with its full space group is D_2h.

 KPOINTS: Automatic mesh

Automatic generation of k-mesh.
Space group operators:
 irot       det(A)        alpha          n_x          n_y          n_z        tau_x        tau_y        tau_z
    1     1.000000     0.000000     1.000000     0.000000     0.000000     0.000000     0.000000     0.000000
    2    -1.000000   180.000000     0.000000     0.000000     1.000000     0.000000     0.000000     0.000000
    3     1.000000   179.999999     1.000000     0.000000     0.000000     0.000000     0.000000     0.000000
    4    -1.000000   180.000000     0.000000     1.000000     0.000000     0.000000     0.000000     0.000000
    5    -1.000000     0.000000     1.000000     0.000000     0.000000     0.166667    -0.500000     0.000000
    6     1.000000   180.000000     0.000000     0.000000     1.000000     0.166667    -0.500000     0.000000
    7    -1.000000   179.999999     1.000000     0.000000     0.000000     0.166667    -0.500000     0.000000
    8     1.000000   180.000000     0.000000     1.000000     0.000000     0.166667    -0.500000     0.000000

 Subroutine IBZKPT returns following result:

 Found    247 irreducible k-points:

 Following reciprocal coordinates:
            Coordinates               Weight
  0.000000  0.000000  0.000000      1.000000
  0.041667  0.000000  0.000000      2.000000
  0.083333  0.000000  0.000000      2.000000
  0.125000  0.000000  0.000000      2.000000
  0.166667  0.000000  0.000000      2.000000
  0.208333  0.000000  0.000000      2.000000
  0.250000  0.000000  0.000000      2.000000
  0.291667  0.000000  0.000000      2.000000
  0.333333  0.000000  0.000000      2.000000
  0.375000  0.000000  0.000000      2.000000
  0.416667  0.000000  0.000000      2.000000
  0.458333  0.000000  0.000000      2.000000
  0.500000  0.000000  0.000000      1.000000
  0.000000  0.027778  0.000000      2.000000
  0.041667  0.027778  0.000000      4.000000
  0.083333  0.027778  0.000000      4.000000
  0.125000  0.027778  0.000000      4.000000
  0.166667  0.027778  0.000000      4.000000
  0.208333  0.027778  0.000000      4.000000
  0.250000  0.027778  0.000000      4.000000
  0.291667  0.027778  0.000000      4.000000
  0.333333  0.027778  0.000000      4.000000
  0.375000  0.027778  0.000000      4.000000
  0.416667  0.027778  0.000000      4.000000
  0.458333  0.027778  0.000000      4.000000
  0.500000  0.027778  0.000000      2.000000
  0.000000  0.055556  0.000000      2.000000
  0.041667  0.055556  0.000000      4.000000
  0.083333  0.055556  0.000000      4.000000
  0.125000  0.055556  0.000000      4.000000
  0.166667  0.055556  0.000000      4.000000
  0.208333  0.055556  0.000000      4.000000
  0.250000  0.055556  0.000000      4.000000
  0.291667  0.055556  0.000000      4.000000
  0.333333  0.055556  0.000000      4.000000
  0.375000  0.055556  0.000000      4.000000
  0.416667  0.055556  0.000000      4.000000
  0.458333  0.055556  0.000000      4.000000
  0.500000  0.055556  0.000000      2.000000
  0.000000  0.083333  0.000000      2.000000
  0.041667  0.083333  0.000000      4.000000
  0.083333  0.083333  0.000000      4.000000
  0.125000  0.083333  0.000000      4.000000
  0.166667  0.083333  0.000000      4.000000
  0.208333  0.083333  0.000000      4.000000
  0.250000  0.083333  0.000000      4.000000
  0.291667  0.083333  0.000000      4.000000
  0.333333  0.083333  0.000000      4.000000
  0.375000  0.083333  0.000000      4.000000
  0.416667  0.083333  0.000000      4.000000
  0.458333  0.083333  0.000000      4.000000
  0.500000  0.083333  0.000000      2.000000
  0.000000  0.111111  0.000000      2.000000
  0.041667  0.111111  0.000000      4.000000
  0.083333  0.111111  0.000000      4.000000
  0.125000  0.111111  0.000000      4.000000
  0.166667  0.111111  0.000000      4.000000
  0.208333  0.111111  0.000000      4.000000
  0.250000  0.111111  0.000000      4.000000
  0.291667  0.111111  0.000000      4.000000
[...]
  0.458333  0.472222  0.000000      4.000000
  0.500000  0.472222  0.000000      2.000000
  0.000000  0.500000  0.000000      1.000000
  0.041667  0.500000  0.000000      2.000000
  0.083333  0.500000  0.000000      2.000000
  0.125000  0.500000  0.000000      2.000000
  0.166667  0.500000  0.000000      2.000000
  0.208333  0.500000  0.000000      2.000000
  0.250000  0.500000  0.000000      2.000000
  0.291667  0.500000  0.000000      2.000000
  0.333333  0.500000  0.000000      2.000000
  0.375000  0.500000  0.000000      2.000000
  0.416667  0.500000  0.000000      2.000000
  0.458333  0.500000  0.000000      2.000000
  0.500000  0.500000  0.000000      1.000000

 Following cartesian coordinates:
            Coordinates               Weight
  0.000000  0.000000  0.000000      1.000000
  0.009510  0.000000  0.000000      2.000000
  0.019020  0.000000  0.000000      2.000000
  0.028530  0.000000  0.000000      2.000000
  0.038040  0.000000  0.000000      2.000000
  0.047550  0.000000  0.000000      2.000000
  0.057060  0.000000  0.000000      2.000000
  0.066570  0.000000  0.000000      2.000000
  0.076080  0.000000  0.000000      2.000000
  0.085589  0.000000  0.000000      2.000000
  0.095099  0.000000  0.000000      2.000000
  0.104609  0.000000  0.000000      2.000000
  0.114119  0.000000  0.000000      1.000000
  0.000000  0.011305  0.000000      2.000000
  0.009510  0.011305  0.000000      4.000000
  0.019020  0.011305  0.000000      4.000000
  0.028530  0.011305  0.000000      4.000000
  0.038040  0.011305  0.000000      4.000000
  0.047550  0.011305  0.000000      4.000000
  0.057060  0.011305  0.000000      4.000000
  0.066570  0.011305  0.000000      4.000000
  0.076080  0.011305  0.000000      4.000000
  0.085589  0.011305  0.000000      4.000000
  0.095099  0.011305  0.000000      4.000000
  0.104609  0.011305  0.000000      4.000000
  0.114119  0.011305  0.000000      2.000000
  0.000000  0.022611  0.000000      2.000000
  0.009510  0.022611  0.000000      4.000000
  0.019020  0.022611  0.000000      4.000000
  0.028530  0.022611  0.000000      4.000000
  0.038040  0.022611  0.000000      4.000000
  0.047550  0.022611  0.000000      4.000000
  0.057060  0.022611  0.000000      4.000000
  0.066570  0.022611  0.000000      4.000000
  0.076080  0.022611  0.000000      4.000000
  0.085589  0.022611  0.000000      4.000000
  0.095099  0.022611  0.000000      4.000000
  0.104609  0.022611  0.000000      4.000000
  0.114119  0.022611  0.000000      2.000000
  0.000000  0.033916  0.000000      2.000000
  0.009510  0.033916  0.000000      4.000000
  0.019020  0.033916  0.000000      4.000000
  0.028530  0.033916  0.000000      4.000000
  0.038040  0.033916  0.000000      4.000000
  0.047550  0.033916  0.000000      4.000000
  0.057060  0.033916  0.000000      4.000000
  0.066570  0.033916  0.000000      4.000000
  0.076080  0.033916  0.000000      4.000000
  0.085589  0.033916  0.000000      4.000000
  0.095099  0.033916  0.000000      4.000000
  0.104609  0.033916  0.000000      4.000000
  0.114119  0.033916  0.000000      2.000000
  0.000000  0.045221  0.000000      2.000000
  0.009510  0.045221  0.000000      4.000000
  0.019020  0.045221  0.000000      4.000000
  0.028530  0.045221  0.000000      4.000000
  0.038040  0.045221  0.000000      4.000000
  0.047550  0.045221  0.000000      4.000000
  0.057060  0.045221  0.000000      4.000000
  0.066570  0.045221  0.000000      4.000000
[...]
  0.104609  0.192190  0.000000      4.000000
  0.114119  0.192190  0.000000      2.000000
  0.000000  0.203496  0.000000      1.000000
  0.009510  0.203496  0.000000      2.000000
  0.019020  0.203496  0.000000      2.000000
  0.028530  0.203496  0.000000      2.000000
  0.038040  0.203496  0.000000      2.000000
  0.047550  0.203496  0.000000      2.000000
  0.057060  0.203496  0.000000      2.000000
  0.066570  0.203496  0.000000      2.000000
  0.076080  0.203496  0.000000      2.000000
  0.085589  0.203496  0.000000      2.000000
  0.095099  0.203496  0.000000      2.000000
  0.104609  0.203496  0.000000      2.000000
  0.114119  0.203496  0.000000      1.000000

 I would recommend the setting:
   dimension x,y,z NGX =    64 NGY =   36 NGZ =  286
[...]
 k-point ** :   0.2500 0.3056 0.0000  plane waves:   42857
 k-point ** :   0.2917 0.3056 0.0000  plane waves:   42863
 k-point ** :   0.3333 0.3056 0.0000  plane waves:   42864
 k-point ** :   0.3750 0.3056 0.0000  plane waves:   42876
 k-point ** :   0.4167 0.3056 0.0000  plane waves:   42882
 k-point ** :   0.4583 0.3056 0.0000  plane waves:   42882
 k-point ** :   0.5000 0.3056 0.0000  plane waves:   42888
 k-point ** :   0.0000 0.3333 0.0000  plane waves:   42814
 k-point ** :   0.0417 0.3333 0.0000  plane waves:   42822
 k-point ** :   0.0833 0.3333 0.0000  plane waves:   42842
[...]
 k-point ** :   0.4583 0.4722 0.0000  plane waves:   42970
 k-point ** :   0.5000 0.4722 0.0000  plane waves:   42948
 k-point ** :   0.0000 0.5000 0.0000  plane waves:   42834
 k-point ** :   0.0417 0.5000 0.0000  plane waves:   42820
 k-point ** :   0.0833 0.5000 0.0000  plane waves:   42828
 k-point ** :   0.1250 0.5000 0.0000  plane waves:   42856
 k-point ** :   0.1667 0.5000 0.0000  plane waves:   42864
 k-point ** :   0.2083 0.5000 0.0000  plane waves:   42894
 k-point ** :   0.2500 0.5000 0.0000  plane waves:   42876
 k-point ** :   0.2917 0.5000 0.0000  plane waves:   42922
 k-point ** :   0.3333 0.5000 0.0000  plane waves:   42932
 k-point ** :   0.3750 0.5000 0.0000  plane waves:   42910
 k-point ** :   0.4167 0.5000 0.0000  plane waves:   42940
 k-point ** :   0.4583 0.5000 0.0000  plane waves:   42948
 k-point ** :   0.5000 0.5000 0.0000  plane waves:   42968

 maximum and minimum number of plane-waves per node :     21495    21318

 maximum number of plane-waves:     42970
 maximum index in each direction:
   IXMAX=   15   IYMAX=    8   IZMAX=   71
   IXMIN=  -16   IYMIN=   -9   IZMIN=  -71

 NGX is ok and might be reduce to  64
 NGY is ok and might be reduce to  36
 NGZ is ok and might be reduce to 286

 parallel 3D FFT for wavefunctions:
    minimum data exchange during FFTs selected (reduces bandwidth)
 parallel 3D FFT for charge:
    minimum data exchange during FFTs selected (reduces bandwidth)

 Broyden mixing: mesh for mixing (old mesh)
   NGX = 31   NGY = 17   NGZ =143
  (NGX  =128   NGY  = 72   NGZ  =576)
  gives a total of  75361 points

 initial charge density was supplied:
 charge density of overlapping atoms calculated
 number of electron      16.0000000 magnetization
 keeping initial charge density in first step

 Maximum index for augmentation-charges         4569 (set IRDMAX)

 First call to EWALD:  gamma=   0.298
 Maximum number of real-space cells 4x 6x 1
 Maximum number of reciprocal cells 2x 1x 8

 FEWALD executed in parallel

----------------------------------------- Iteration    1(   1)  ---------------------------------------

 eigenvalue-minimisations  :  5928
 total energy-change (2. order) : 0.1870395E+03  (-0.1058028E+04)
 number of electron      16.0000000 magnetization
 augmentation part       16.0000000 magnetization

 Free energy of the ion-electron system (eV)
  alpha Z        PSCENC =         6.18334092
  Ewald energy   TEWEN  =      2447.67840440
  -Hartree energ DENC   =     -2877.22528091
  -exchange      EXHF   =         0.00000000
  -V(xc)+E(xc)   XCENC  =        54.81343058
  PAW double counting   =       151.32577238     -155.92769107
  entropy T*S    EENTRO =        -0.00177554
  eigenvalues    EBANDS =       -28.43025407
  atomic energy  EATOM  =       588.62352690
  free energy    TOTEN  =       187.03947359 eV

  energy without entropy =      187.04124913  energy(sigma->0) =      187.04036136

[...]

 eigenvalue-minimisations  : 10420
 total energy-change (2. order) :-0.1958413E+03  (-0.1744158E+03)
 number of electron      16.0000000 magnetization
 augmentation part       16.0000000 magnetization

[...]

 Broyden mixing:
  rms(total) = 0.70752E+00    rms(broyden)= 0.70752E+00
  rms(prec ) = 0.77095E+00
  weight for this iteration     100.00

[...]

 eigenvalues of (default mixing * dielectric matrix)
  average eigenvalue GAMMA=   2.3166
  2.3166

[...]

WARNING in EDDRMM: call to ZHEGV failed, returncode =   6  3  1
WARNING in EDDRMM: call to ZHEGV failed, returncode =   6  3  1
WARNING in EDDRMM: call to ZHEGV failed, returncode =   6  3  1
WARNING in EDDRMM: call to ZHEGV failed, returncode =   6  3  1
WARNING in EDDRMM: call to ZHEGV failed, returncode =   6  3  1
WARNING in EDDRMM: call to ZHEGV failed, returncode =   6  3  1
WARNING in EDDRMM: call to ZHEGV failed, returncode =   6  3  1
WARNING in EDDRMM: call to ZHEGV failed, returncode =   6  3  1

[...]

 average (electrostatic) potential at core
  the test charge radii are     0.6991
  (the norm of the test charge is              1.0000)
       1 -58.3164       2 -58.3164       3 -58.3164       4 -58.3164

 E-fermi :  -2.8250     XC(G=0):  -2.1804     alpha+bet : -1.9046

 k-point     1 :       0.0000    0.0000    0.0000
  band No.  band energies     occupation
      1     -22.0786      2.00000
      2     -17.2604      2.00000
      3     -15.8305      2.00000
      4     -10.2238      2.00000
      5      -8.8007      2.00000
      6      -6.0086      2.00000
      7      -5.7269      2.00000
      8      -5.3383      2.00000
      9      -1.1869      0.00000
     10       0.5449      0.00000
     11       1.3424      0.00000
     12       1.7306      0.00000

[...]

 soft charge-density along one line, spin component           1
         0         1         2         3         4         5         6         7         8         9
 total charge-density along one line

------------------------ aborting loop because EDIFF is reached ----------------------------------------

  FORCE on cell =-STRESS in cart. coord.  units (eV):
  Direction    XX          YY          ZZ          XY          YZ          ZX
  Alpha Z     6.18334     6.18334     6.18334
  Ewald    2977.83175  2981.34249 -3511.49604     0.00000     0.00000    -0.00000
  Hartree  2918.24002  2919.43528 -2895.70752    -0.00000    -0.00000    -0.00000
  E(xc)     -57.95330   -57.98142   -60.28855     0.00000    -0.00000    -0.00000
  Local   -6069.62418 -6073.78072  6201.96388    -0.00000     0.00000     0.00000
  n-local   -12.99895   -13.81586   -12.47695     0.06791     0.00000     0.00000
  augment    -1.47736    -1.47973    -1.37111    -0.00000     0.00000     0.00000
  Kinetic   234.32175   240.09809   273.19160    -4.45123    -0.00000    -0.00000
  Fock        0.00000     0.00000     0.00000     0.00000     0.00000     0.00000
  Total      -5.47692     0.00149    -0.00135     0.00000     0.00000     0.00000
  in kB     -41.61965     0.01130    -0.01028     0.00000     0.00000     0.00000

 VOLUME and BASIS-vectors are now :
  energy-cutoff  :     2000.00
  volume of cell :      210.84
      direct lattice vectors                 reciprocal lattice vectors
     4.381379068  0.000000000  0.000000000     0.228238640  0.000000000  0.000000000
     0.000000000  2.457054279  0.000000000     0.000000000  0.406991416  0.000000000
     0.000000000  0.000000000 19.584978766     0.000000000  0.000000000  0.051059540

[...]

 FORCES acting on ions
    electron-ion (+dipol)            ewald-force                    non-local-force                 convergence-correction
   0.542E+01 0.474E-16 -.249E-08   -.541E+01 -.502E-14 -.124E-17   -.564E-02 0.000E+00 -.388E-24   -.330E-06 -.137E-14 -.782E-13
   -.542E+01 -.149E-14 -.110E-07   0.541E+01 0.597E-14 -.293E-34   0.564E-02 -.694E-17 0.414E-24   0.330E-06 -.911E-15 -.785E-13
   0.542E+01 -.158E-12 -.248E-08   -.541E+01 -.103E-14 0.124E-17   -.564E-02 0.000E+00 -.620E-24   -.330E-06 -.137E-14 -.783E-13
   -.542E+01 0.183E-14 -.109E-07   0.541E+01 0.996E-14 0.000E+00   0.564E-02 -.694E-17 0.620E-24   0.330E-06 -.908E-15 -.783E-13
   -.939E-06 -.157E-12 -.269E-07   -.178E-14 0.988E-14 0.000E+00   -.867E-18 -.139E-16 0.258E-25   -.960E-13 -.456E-14 -.313E-12

 POSITION                                       TOTAL-FORCE (eV/Angst)
      4.37901      0.00000      0.00000        -0.001336     -0.000000     -0.000000
      0.73260      1.22853      0.00000         0.001336      0.000000      0.000000
      2.18832      1.22853      0.00000        -0.001336      0.000000     -0.000000
      2.92329      0.00000      0.00000         0.001336     -0.000000      0.000000
    total drift:                               -0.000001     -0.000000     -0.000000

  FREE ENERGIE OF THE ION-ELECTRON SYSTEM (eV)
  free  energy   TOTEN  =       -36.85681062 eV

  energy  without entropy=      -36.85681061  energy(sigma->0) =      -36.85681062

 Quasi-Newton relaxation of ions (Broydens 2nd method)
  g(Force)  = 0.345E-06   g(Stress)= 0.000E+00

 Reset! Starting new Quasi-Newton update for ions

[...]

WARNING in EDDRMM: call to ZHEGV failed, returncode =   6  3  1

[...]

 d Force =-0.4621579E-06[-0.127E-05, 0.345E-06]  d Energy =-0.4772628E-06 0.151E-07
 d Force = 0.1393370E-02[ 0.139E-02, 0.140E-02]  d Ewald  = 0.1393370E-02-0.202E-09

[...]

 retain information from N=  1 steps
 eigenvalues of (default step * inverse Hessian matrix)
  average eigenvalue of G=   0.2136
 eigenvalue spectrum of G is  0.2136

[...]

 d Force = 0.5000165E-06[ 0.212E-08, 0.998E-06]  d Energy = 0.5115055E-06-0.115E-07
 d Force =-0.1095307E-02[-0.110E-02,-0.109E-02]  d Ewald  =-0.1095307E-02 0.982E-10

[...]

 eigenvalue-minimisations  :  5104
 total energy-change (2. order) : 0.2652314E-09  ( 0.5265763E-09)
 number of electron      16.0000000 magnetization
 augmentation part        0.3724556 magnetization

[...]

 eigenvalue-minimisations  :  2936
 total energy-change (2. order) :-0.1352873E-09  ( 0.8848066E-13)
 number of electron      16.0000000 magnetization
 augmentation part        0.3724556 magnetization

[...]

 d Force =-0.5828113E-12[-0.568E-11, 0.451E-11]  d Energy = 0.2069100E-10-0.213E-10
 d Force =-0.2335456E-05[-0.234E-05,-0.234E-05]  d Ewald  =-0.2335456E-05 0.000E+00

[...]

 d Force = 0.1733109E-11[ 0.302E-12, 0.316E-11]  d Energy =-0.2341949E-10 0.252E-10
 d Force = 0.1301291E-05[ 0.130E-05, 0.130E-05]  d Ewald  = 0.1301290E-05 0.000E+00

[...]

 d Force = 0.3348975E-13[ 0.350E-13, 0.319E-13]  d Energy =-0.5638867E-10 0.564E-10
 d Force = 0.1374667E-06[ 0.137E-06, 0.137E-06]  d Ewald  = 0.1374660E-06 0.909E-12

[...]

 d Force =-0.1586284E-11[-0.278E-11,-0.395E-12]  d Energy = 0.1068656E-10-0.123E-10
 d Force =-0.1548833E-05[-0.155E-05,-0.155E-05]  d Ewald  =-0.1548833E-05-0.909E-12

[...]

 FEWALD executed in parallel

[...]

 eigenvalue-minimisations  :  1575
 total energy-change (2. order) :-0.5326228E-09  ( 0.1307802E-12)
 number of electron      16.0000000 magnetization
 augmentation part        0.3724556 magnetization

[...]

 eigenvalue-minimisations  :  1194
 total energy-change (2. order) : 0.1773515E-10  (-0.1864270E-12)
 number of electron      16.0000000 magnetization
 augmentation part        0.3724556 magnetization

[...]

 eigenvalue-minimisations  :   934
 total energy-change (2. order) :-0.5684342E-11  (-0.7839408E-13)
 number of electron      16.0000000 magnetization
 augmentation part        0.3724556 magnetization

 Broyden mixing:
  rms(total) = 0.32580E-08    rms(broyden)= 0.32579E-08
  rms(prec ) = 0.34239E-08
  weight for this iteration     100.00

 eigenvalues of (default mixing * dielectric matrix)
  average eigenvalue GAMMA=   1.4870
  2.4723  1.9719  0.0170

[...]

----------------------------------------- Iteration    8(   5)  ---------------------------------------

 eigenvalue-minimisations  :   668
 total energy-change (2. order) : 0.3637979E-11  ( 0.4497637E-13)
 number of electron      16.0000000 magnetization
 augmentation part        0.3724556 magnetization

 Free energy of the ion-electron system (eV)
  alpha Z        PSCENC =         6.18334092
  Ewald energy   TEWEN  =      2447.67810697
  -Hartree energ DENC   =     -2941.96755125
  -exchange      EXHF   =         0.00000000
  -V(xc)+E(xc)   XCENC  =        57.13666338
  PAW double counting   =       268.71400548     -273.82502432
  entropy T*S    EENTRO =        -0.00000001
  eigenvalues    EBANDS =      -189.39987874
  atomic energy  EATOM  =       588.62352690
  free energy    TOTEN  =       -36.85681066 eV

  energy without entropy =      -36.85681064  energy(sigma->0) =      -36.85681065

 average (electrostatic) potential at core
  the test charge radii are     0.6991
  (the norm of the test charge is              1.0000)
       1 -58.3164       2 -58.3164       3 -58.3164       4 -58.3164

 E-fermi :  -2.8250     XC(G=0):  -2.1777     alpha+bet : -1.9046

[...]

 k-point   247 :       0.5000    0.5000    0.0000
  band No.  band energies     occupation
      1     -16.8430      2.00000
      2     -16.8430      2.00000
      3     -15.8561      2.00000
      4     -15.8561      2.00000
      5      -9.3042      2.00000
      6      -9.3042      2.00000
      7      -5.0107      2.00000
      8      -5.0107      2.00000
      9      -1.1529      0.00000
     10      -1.1529      0.00000
     11       3.8871      0.00000
     12       3.8871      0.00000

 soft charge-density along one line, spin component           1
         0         1         2         3         4         5         6         7         8         9
 total charge-density along one line

------------------------ aborting loop because EDIFF is reached ----------------------------------------

  FORCE on cell =-STRESS in cart. coord.  units (eV):
  Direction    XX          YY          ZZ          XY          YZ          ZX
  Alpha Z     6.18334     6.18334     6.18334
  Ewald    2977.84346  2981.33049 -3511.49604     0.00000     0.00000     0.00000
  Hartree  2918.24163  2919.43348 -2895.70756     0.00000    -0.00000    -0.00000
  E(xc)     -57.95324   -57.98145   -60.28854     0.00000    -0.00000    -0.00000
  Local   -6069.63543 -6073.76914  6201.96400    -0.00000     0.00000     0.00000
  n-local   -12.99885   -13.81596   -12.47695     0.06789     0.00000     0.00000
  augment    -1.47737    -1.47971    -1.37111     0.00000     0.00000     0.00000
  Kinetic   234.31982   240.09986   273.19152    -4.45118    -0.00000    -0.00000
  Fock        0.00000     0.00000     0.00000     0.00000     0.00000     0.00000
  Total      -5.47664     0.00091    -0.00133     0.00000     0.00000     0.00000
  in kB     -41.61751     0.00691    -0.01013     0.00000     0.00000     0.00000

 VOLUME and BASIS-vectors are now :
  energy-cutoff  :     2000.00
  volume of cell :      210.84
      direct lattice vectors                 reciprocal lattice vectors
     4.381379068  0.000000000  0.000000000     0.228238640  0.000000000  0.000000000
     0.000000000  2.457054279  0.000000000     0.000000000  0.406991416  0.000000000
     0.000000000  0.000000000 19.584978766     0.000000000  0.000000000  0.051059540

  length of vectors
     4.381379068  2.457054279 19.584978766     0.228238640  0.406991416  0.051059540

 FORCES acting on ions
    electron-ion (+dipol)            ewald-force                    non-local-force                 convergence-correction
   0.541E+01 0.917E-15 -.249E-08   -.541E+01 0.395E-14 0.310E-18   -.516E-02 0.347E-17 -.323E-26   -.834E-08 -.106E-14 -.309E-12
   -.541E+01 0.176E-13 -.110E-07   0.541E+01 -.866E-15 -.310E-18   0.516E-02 0.000E+00 0.323E-26   0.834E-08 -.383E-15 -.314E-12
   0.541E+01 -.101E-12 -.250E-08   -.541E+01 0.581E-14 -.291E-17   -.516E-02 0.347E-17 -.323E-26   -.834E-08 -.118E-14 -.154E-12
   -.541E+01 0.607E-16 -.110E-07   0.541E+01 0.987E-15 0.291E-17   0.516E-02 0.000E+00 0.323E-26   0.834E-08 -.212E-15 -.140E-12
   -.937E-06 -.825E-13 -.269E-07   -.178E-14 0.988E-14 0.000E+00   -.434E-17 0.694E-17 0.000E+00   -.271E-13 -.284E-14 -.916E-12

 POSITION                                       TOTAL-FORCE (eV/Angst)
      4.37899     -0.00000     -0.00000         0.000001     -0.000000      0.000000
      0.73262      1.22853      0.00000        -0.000001      0.000000     -0.000000
      2.18830      1.22853     -0.00000         0.000001      0.000000      0.000000
      2.92330     -0.00000      0.00000        -0.000001     -0.000000     -0.000000
    total drift:                               -0.000001     -0.000000     -0.000000

  FREE ENERGIE OF THE ION-ELECTRON SYSTEM (eV)
  free  energy   TOTEN  =       -36.85681066 eV

  energy  without entropy=      -36.85681064  energy(sigma->0) =      -36.85681065

 d Force = 0.1523699E-11[-0.191E-12, 0.324E-11]  d Energy =-0.3251444E-10 0.340E-10
 d Force = 0.1805480E-05[ 0.181E-05, 0.181E-05]  d Ewald  = 0.1805480E-05-0.455E-12

 Quasi-Newton relaxation of ions (Broydens 2nd method)
  g(Force)  = 0.629E-13   g(Stress)= 0.000E+00

 retain information from N=  1 steps
 eigenvalues of (default step * inverse Hessian matrix)
  average eigenvalue of G=   0.1684
 eigenvalue spectrum of G is  0.1684

 reached required accuracy - stopping structural energy minimisation