 vasp.5.3.5 31Mar14 (build Mar 02 2015 18:14:16) complex

 executed on             LinuxIFC date 2018.08.07  16:27:39

 INCAR:
 POTCAR:   PAW_PBE C 08Apr2002
 POTCAR:   PAW_PBE C 08Apr2002
   VRHFIN =C: s2p2

   TITEL  = PAW_PBE C 08Apr2002
   POMASS =   12.011; ZVAL   =    4.000    mass and valenz
   ENMAX  =  400.000; ENMIN  =  300.000 eV
   QCUT   =   -5.516; QGAM   =   11.032    optimization parameters

   Description
     l     E      TYP  RCUT    TYP  RCUT
     0   .000     23  1.200
     0   .000     23  1.200
     1   .000     23  1.500
     1  2.500     23  1.500
     2   .000      7  1.500

 PAW_PBE C 08Apr2002                    :

 POSCAR: MD-kMC export data
  positions in direct lattice
  velocities in cartesian coordinates
 exchange correlation table for  LEXCH =        8
   RHO(1)=    0.500       N(1)  =     2000
   RHO(2)=  100.500       N(2)  =     4000

 ion  position               nearest neighbor table
   1  1.000  0.000  0.000-   2 1.43   2 1.43   4 1.44
   2  0.167  0.500  0.000-   1 1.43   1 1.43   3 1.44
   3  0.500  0.500  0.000-   4 1.43   4 1.43   2 1.44
   4  0.667  0.000  0.000-   3 1.43   3 1.43   1 1.44

  LATTYP: Found a simple orthorhombic cell.
 ALAT       =     2.4629001095
 B/A-ratio  =     1.7522287421
 C/A-ratio  =     8.0541087759

  Lattice vectors:

 A1 = (   0.0000000000,  -2.4629001095,   0.0000000000)
 A2 = (  -4.3155643610,   0.0000000000,   0.0000000000)
 A3 = (   0.0000000000,   0.0000000000, -19.8364653865)

Analysis of symmetry for initial positions (statically):
 Subroutine PRICEL returns following result:

  LATTYP: Found a base centered orthorhombic cell.
 ALAT       =     2.4629001095
 B/A-ratio  =     1.7522287421
 C/A-ratio  =     8.0541087759

[...]

   2 primitive cells build up your supercell.

 Routine SETGRP: Setting up the symmetry group for a
 simple orthorhombic supercell.

 Subroutine GETGRP returns: Found  8 space group operations
 (whereof  4 operations were pure point group operations)
 out of a pool of  8 trial point group operations.

The static configuration has the point symmetry C_2v.
 The point group associated with its full space group is D_2h.

Analysis of symmetry for dynamics (positions and initial velocities):
 Subroutine PRICEL returns following result:

  LATTYP: Found a base centered orthorhombic cell.
 ALAT       =     2.4629001095
 B/A-ratio  =     1.7522287421
 C/A-ratio  =     8.0541087759

  Lattice vectors:

 A1 = (   2.1577821805,  -1.2314500548,   0.0000000000)
 A2 = (  -2.1577821805,  -1.2314500548,   0.0000000000)
 A3 = (   0.0000000000,   0.0000000000, -19.8364653865)

   2 primitive cells build up your supercell.

 Routine SETGRP: Setting up the symmetry group for a
 simple orthorhombic supercell.

 Subroutine GETGRP returns: Found  8 space group operations
 (whereof  4 operations were pure point group operations)
 out of a pool of  8 trial point group operations.

The dynamic configuration has the point symmetry C_2v.
 The point group associated with its full space group is D_2h.

 KPOINTS: Automatic mesh

Automatic generation of k-mesh.
Space group operators:
 irot       det(A)        alpha          n_x          n_y          n_z        tau_x        tau_y        tau_z
    1     1.000000     0.000001     1.000000     0.000000     0.000000     0.000000     0.000000     0.000000
    2    -1.000000   179.999999     0.000000     0.000000     1.000000     0.000000     0.000000     0.000000
    3     1.000000   180.000000     1.000000     0.000000     0.000000     0.000000     0.000000     0.000000
    4    -1.000000   179.999999     0.000000     1.000000     0.000000     0.000000     0.000000     0.000000
    5    -1.000000     0.000001     1.000000     0.000000     0.000000     0.166667    -0.500000     0.000000
    6     1.000000   179.999999     0.000000     0.000000     1.000000     0.166667    -0.500000     0.000000
    7    -1.000000   180.000000     1.000000     0.000000     0.000000     0.166667    -0.500000     0.000000
    8     1.000000   179.999999     0.000000     1.000000     0.000000     0.166667    -0.500000     0.000000

 Subroutine IBZKPT returns following result:

 Found    247 irreducible k-points:

 Following reciprocal coordinates:
            Coordinates               Weight
  0.000000  0.000000  0.000000      1.000000
  0.041667  0.000000  0.000000      2.000000
  0.083333  0.000000  0.000000      2.000000
  0.125000  0.000000  0.000000      2.000000
  0.166667  0.000000  0.000000      2.000000
  0.208333  0.000000  0.000000      2.000000
  0.250000  0.000000  0.000000      2.000000
  0.291667  0.000000  0.000000      2.000000
  0.333333  0.000000  0.000000      2.000000
  0.375000  0.000000  0.000000      2.000000
  0.416667  0.000000  0.000000      2.000000
  0.458333  0.000000  0.000000      2.000000
  0.500000  0.000000  0.000000      1.000000
  0.000000  0.027778  0.000000      2.000000
  0.041667  0.027778  0.000000      4.000000
  0.083333  0.027778  0.000000      4.000000
  0.125000  0.027778  0.000000      4.000000
  0.166667  0.027778  0.000000      4.000000
  0.208333  0.027778  0.000000      4.000000
  0.250000  0.027778  0.000000      4.000000
  0.291667  0.027778  0.000000      4.000000
  0.333333  0.027778  0.000000      4.000000
  0.375000  0.027778  0.000000      4.000000
  0.416667  0.027778  0.000000      4.000000
  0.458333  0.027778  0.000000      4.000000
  0.500000  0.027778  0.000000      2.000000
  0.000000  0.055556  0.000000      2.000000
  0.041667  0.055556  0.000000      4.000000
  0.083333  0.055556  0.000000      4.000000
  0.125000  0.055556  0.000000      4.000000
  0.166667  0.055556  0.000000      4.000000
  0.208333  0.055556  0.000000      4.000000
  0.250000  0.055556  0.000000      4.000000
  0.291667  0.055556  0.000000      4.000000
  0.333333  0.055556  0.000000      4.000000
  0.375000  0.055556  0.000000      4.000000
  0.416667  0.055556  0.000000      4.000000
  0.458333  0.055556  0.000000      4.000000
  0.500000  0.055556  0.000000      2.000000
  0.000000  0.083333  0.000000      2.000000
  0.041667  0.083333  0.000000      4.000000
  0.083333  0.083333  0.000000      4.000000
  0.125000  0.083333  0.000000      4.000000
  0.166667  0.083333  0.000000      4.000000
  0.208333  0.083333  0.000000      4.000000
  0.250000  0.083333  0.000000      4.000000
  0.291667  0.083333  0.000000      4.000000
  0.333333  0.083333  0.000000      4.000000
  0.375000  0.083333  0.000000      4.000000
  0.416667  0.083333  0.000000      4.000000
  0.458333  0.083333  0.000000      4.000000
  0.500000  0.083333  0.000000      2.000000
  0.000000  0.111111  0.000000      2.000000
  0.041667  0.111111  0.000000      4.000000
  0.083333  0.111111  0.000000      4.000000
  0.125000  0.111111  0.000000      4.000000
  0.166667  0.111111  0.000000      4.000000
  0.208333  0.111111  0.000000      4.000000
  0.250000  0.111111  0.000000      4.000000
  0.291667  0.111111  0.000000      4.000000
[...]
  0.458333  0.472222  0.000000      4.000000
  0.500000  0.472222  0.000000      2.000000
  0.000000  0.500000  0.000000      1.000000
  0.041667  0.500000  0.000000      2.000000
  0.083333  0.500000  0.000000      2.000000
  0.125000  0.500000  0.000000      2.000000
  0.166667  0.500000  0.000000      2.000000
  0.208333  0.500000  0.000000      2.000000
  0.250000  0.500000  0.000000      2.000000
  0.291667  0.500000  0.000000      2.000000
  0.333333  0.500000  0.000000      2.000000
  0.375000  0.500000  0.000000      2.000000
  0.416667  0.500000  0.000000      2.000000
  0.458333  0.500000  0.000000      2.000000
  0.500000  0.500000  0.000000      1.000000

 Following cartesian coordinates:
            Coordinates               Weight
  0.000000  0.000000  0.000000      1.000000
  0.009655  0.000000  0.000000      2.000000
  0.019310  0.000000  0.000000      2.000000
  0.028965  0.000000  0.000000      2.000000
  0.038620  0.000000  0.000000      2.000000
  0.048275  0.000000  0.000000      2.000000
  0.057930  0.000000  0.000000      2.000000
  0.067585  0.000000  0.000000      2.000000
  0.077240  0.000000  0.000000      2.000000
  0.086895  0.000000  0.000000      2.000000
  0.096550  0.000000  0.000000      2.000000
  0.106205  0.000000  0.000000      2.000000
  0.115860  0.000000  0.000000      1.000000
  0.000000  0.011278  0.000000      2.000000
  0.009655  0.011278  0.000000      4.000000
  0.019310  0.011278  0.000000      4.000000
  0.028965  0.011278  0.000000      4.000000
  0.038620  0.011278  0.000000      4.000000
  0.048275  0.011278  0.000000      4.000000
  0.057930  0.011278  0.000000      4.000000
  0.067585  0.011278  0.000000      4.000000
  0.077240  0.011278  0.000000      4.000000
  0.086895  0.011278  0.000000      4.000000
  0.096550  0.011278  0.000000      4.000000
  0.106205  0.011278  0.000000      4.000000
  0.115860  0.011278  0.000000      2.000000
  0.000000  0.022557  0.000000      2.000000
  0.009655  0.022557  0.000000      4.000000
  0.019310  0.022557  0.000000      4.000000
  0.028965  0.022557  0.000000      4.000000
  0.038620  0.022557  0.000000      4.000000
  0.048275  0.022557  0.000000      4.000000
  0.057930  0.022557  0.000000      4.000000
  0.067585  0.022557  0.000000      4.000000
  0.077240  0.022557  0.000000      4.000000
  0.086895  0.022557  0.000000      4.000000
  0.096550  0.022557  0.000000      4.000000
  0.106205  0.022557  0.000000      4.000000
  0.115860  0.022557  0.000000      2.000000
  0.000000  0.033835  0.000000      2.000000
  0.009655  0.033835  0.000000      4.000000
  0.019310  0.033835  0.000000      4.000000
  0.028965  0.033835  0.000000      4.000000
  0.038620  0.033835  0.000000      4.000000
  0.048275  0.033835  0.000000      4.000000
  0.057930  0.033835  0.000000      4.000000
  0.067585  0.033835  0.000000      4.000000
  0.077240  0.033835  0.000000      4.000000
  0.086895  0.033835  0.000000      4.000000
  0.096550  0.033835  0.000000      4.000000
  0.106205  0.033835  0.000000      4.000000
  0.115860  0.033835  0.000000      2.000000
  0.000000  0.045114  0.000000      2.000000
  0.009655  0.045114  0.000000      4.000000
  0.019310  0.045114  0.000000      4.000000
  0.028965  0.045114  0.000000      4.000000
  0.038620  0.045114  0.000000      4.000000
  0.048275  0.045114  0.000000      4.000000
  0.057930  0.045114  0.000000      4.000000
  0.067585  0.045114  0.000000      4.000000
[...]
  0.106205  0.191734  0.000000      4.000000
  0.115860  0.191734  0.000000      2.000000
  0.000000  0.203013  0.000000      1.000000
  0.009655  0.203013  0.000000      2.000000
  0.019310  0.203013  0.000000      2.000000
  0.028965  0.203013  0.000000      2.000000
  0.038620  0.203013  0.000000      2.000000
  0.048275  0.203013  0.000000      2.000000
  0.057930  0.203013  0.000000      2.000000
  0.067585  0.203013  0.000000      2.000000
  0.077240  0.203013  0.000000      2.000000
  0.086895  0.203013  0.000000      2.000000
  0.096550  0.203013  0.000000      2.000000
  0.106205  0.203013  0.000000      2.000000
  0.115860  0.203013  0.000000      1.000000

 I would recommend the setting:
   dimension x,y,z NGX =    63 NGY =   36 NGZ =  289
[...]
 k-point ** :   0.4167 0.3056 0.0000  plane waves:   42859
 k-point ** :   0.4583 0.3056 0.0000  plane waves:   42847
 k-point ** :   0.5000 0.3056 0.0000  plane waves:   42856
 k-point ** :   0.0000 0.3333 0.0000  plane waves:   42904
 k-point ** :   0.0417 0.3333 0.0000  plane waves:   42879
 k-point ** :   0.0833 0.3333 0.0000  plane waves:   42903
[...]
 k-point ** :   0.4583 0.4722 0.0000  plane waves:   42851
 k-point ** :   0.5000 0.4722 0.0000  plane waves:   42862
 k-point ** :   0.0000 0.5000 0.0000  plane waves:   42910
 k-point ** :   0.0417 0.5000 0.0000  plane waves:   42898
 k-point ** :   0.0833 0.5000 0.0000  plane waves:   42880
 k-point ** :   0.1250 0.5000 0.0000  plane waves:   42882
 k-point ** :   0.1667 0.5000 0.0000  plane waves:   42908
 k-point ** :   0.2083 0.5000 0.0000  plane waves:   42896
 k-point ** :   0.2500 0.5000 0.0000  plane waves:   42868
 k-point ** :   0.2917 0.5000 0.0000  plane waves:   42874
 k-point ** :   0.3333 0.5000 0.0000  plane waves:   42902
 k-point ** :   0.3750 0.5000 0.0000  plane waves:   42912
 k-point ** :   0.4167 0.5000 0.0000  plane waves:   42910
 k-point ** :   0.4583 0.5000 0.0000  plane waves:   42888
 k-point ** :   0.5000 0.5000 0.0000  plane waves:   42848

 maximum and minimum number of plane-waves per node :     21543    21215

 maximum number of plane-waves:     42926
 maximum index in each direction:
   IXMAX=   15   IYMAX=    8   IZMAX=   72
   IXMIN=  -16   IYMIN=   -9   IZMIN=  -72

 NGX is ok and might be reduce to  64
 NGY is ok and might be reduce to  36
 NGZ is ok and might be reduce to 290

 parallel 3D FFT for wavefunctions:
    minimum data exchange during FFTs selected (reduces bandwidth)
 parallel 3D FFT for charge:
    minimum data exchange during FFTs selected (reduces bandwidth)

 Broyden mixing: mesh for mixing (old mesh)
   NGX = 31   NGY = 17   NGZ =145
  (NGX  =128   NGY  = 72   NGZ  =588)
  gives a total of  76415 points

 initial charge density was supplied:
 charge density of overlapping atoms calculated
 number of electron      16.0000000 magnetization
 keeping initial charge density in first step

 Maximum index for augmentation-charges         4667 (set IRDMAX)

 First call to EWALD:  gamma=   0.298
 Maximum number of real-space cells 4x 6x 1
 Maximum number of reciprocal cells 2x 1x 8

 FEWALD executed in parallel

----------------------------------------- Iteration    1(   1)  ---------------------------------------

 eigenvalue-minimisations  :  5928
 total energy-change (2. order) : 0.1890713E+03  (-0.1058768E+04)
 number of electron      16.0000000 magnetization
 augmentation part       16.0000000 magnetization

 Free energy of the ion-electron system (eV)
  alpha Z        PSCENC =         6.18334092
  Ewald energy   TEWEN  =      2531.62842762
  -Hartree energ DENC   =     -2958.66086992
  -exchange      EXHF   =         0.00000000
  -V(xc)+E(xc)   XCENC  =        54.98593452
  PAW double counting   =       151.32577238     -155.92769107
  entropy T*S    EENTRO =        -0.00145272
  eigenvalues    EBANDS =       -29.08565598
  atomic energy  EATOM  =       588.62352690
  free energy    TOTEN  =       189.07133266 eV

  energy without entropy =      189.07278538  energy(sigma->0) =      189.07205902

[...]

 eigenvalue-minimisations  : 10460
 total energy-change (2. order) :-0.1982277E+03  (-0.1757919E+03)
 number of electron      16.0000000 magnetization
 augmentation part       16.0000000 magnetization

[...]

 Broyden mixing:
  rms(total) = 0.72561E+00    rms(broyden)= 0.72561E+00
  rms(prec ) = 0.78966E+00
  weight for this iteration     100.00

[...]

 eigenvalues of (default mixing * dielectric matrix)
  average eigenvalue GAMMA=   2.3123
  2.3123

[...]

WARNING in EDDRMM: call to ZHEGV failed, returncode =   6  3  1
WARNING in EDDRMM: call to ZHEGV failed, returncode =   6  3  1

[...]

 average (electrostatic) potential at core
  the test charge radii are     0.6991
  (the norm of the test charge is              1.0000)
       1 -58.2390       2 -58.2390       3 -58.2390       4 -58.2390

 E-fermi :  -2.7823     XC(G=0):  -2.1563     alpha+bet : -1.9046

 k-point     1 :       0.0000    0.0000    0.0000
  band No.  band energies     occupation
      1     -22.1853      2.00000
      2     -17.1181      2.00000
      3     -15.9201      2.00000
      4     -10.3061      2.00000
      5      -9.0145      2.00000
      6      -5.8770      2.00000
      7      -5.7609      2.00000
      8      -5.2017      2.00000
      9      -1.1217      0.00000
     10       0.5320      0.00000
     11       1.3319      0.00000
     12       1.7269      0.00000

[...]

 soft charge-density along one line, spin component           1
         0         1         2         3         4         5         6         7         8         9
 total charge-density along one line

------------------------ aborting loop because EDIFF is reached ----------------------------------------

  FORCE on cell =-STRESS in cart. coord.  units (eV):
  Direction    XX          YY          ZZ          XY          YZ          ZX
  Alpha Z     6.18334     6.18334     6.18334
  Ewald    3066.32737  3067.55662 -3602.25580     0.00000     0.00000    -0.00000
  Hartree  3002.65272  3003.09027 -2980.03206    -0.00000    -0.00000    -0.00000
  E(xc)     -58.18839   -58.20003   -60.52622     0.00000    -0.00000    -0.00000
  Local   -6241.86320 -6243.32733  6376.49060     0.00000    -0.00000    -0.00000
  n-local   -13.57113   -13.90274   -12.65407     0.06040     0.00000     0.00000
  augment    -1.51622    -1.51731    -1.39746    -0.00000     0.00000    -0.00000
  Kinetic   237.80370   240.11513   274.19033    -4.53918    -0.00000     0.00000
  Fock        0.00000     0.00000     0.00000     0.00000     0.00000     0.00000
  Total      -2.17181    -0.00204    -0.00133     0.00000     0.00000     0.00000
  in kB     -16.50381    -0.01554    -0.01011     0.00000     0.00000     0.00000

 VOLUME and BASIS-vectors are now :
  energy-cutoff  :     2000.00
  volume of cell :      210.84
      direct lattice vectors                 reciprocal lattice vectors
     4.315564361  0.000000000  0.000000000     0.231719404  0.000000000  0.000000000
     0.000000000  2.462900110  0.000000000     0.000000000  0.406025399  0.000000000
     0.000000000  0.000000000 19.836465387     0.000000000  0.000000000  0.050412207

[...]

 FORCES acting on ions
    electron-ion (+dipol)            ewald-force                    non-local-force                 convergence-correction
   0.214E+01 0.343E-16 -.708E-09   -.214E+01 0.104E-14 -.124E-18   0.238E-02 -.694E-17 0.000E+00   -.102E-06 0.131E-14 0.195E-12
   -.214E+01 -.182E-12 -.691E-08   0.214E+01 0.498E-14 -.508E-19   -.238E-02 0.000E+00 0.000E+00   0.102E-06 -.285E-14 0.194E-12
   0.214E+01 -.207E-12 -.742E-09   -.214E+01 -.237E-14 0.152E-19   0.238E-02 -.694E-17 0.000E+00   -.102E-06 0.160E-14 0.194E-12
   -.214E+01 0.318E-16 -.693E-08   0.214E+01 0.157E-14 0.159E-18   -.238E-02 0.000E+00 0.000E+00   0.102E-06 -.319E-14 0.194E-12
   -.112E-05 -.388E-12 -.153E-07   0.444E-15 0.522E-14 0.241E-34   -.130E-17 -.139E-16 0.000E+00   0.957E-13 -.313E-14 0.777E-12

 POSITION                                       TOTAL-FORCE (eV/Angst)
      4.31450      0.00000      0.00000         0.002077      0.000000     -0.000000
      0.72032      1.23145      0.00000        -0.002077     -0.000000      0.000000
      2.15672      1.23145      0.00000         0.002077      0.000000     -0.000000
      2.87810      0.00000      0.00000        -0.002077     -0.000000      0.000000
    total drift:                               -0.000001     -0.000000     -0.000000

  FREE ENERGIE OF THE ION-ELECTRON SYSTEM (eV)
  free  energy   TOTEN  =       -36.91481298 eV

  energy  without entropy=      -36.91478200  energy(sigma->0) =      -36.91479749

 Quasi-Newton relaxation of ions (Broydens 2nd method)
  g(Force)  = 0.833E-06   g(Stress)= 0.000E+00

 Reset! Starting new Quasi-Newton update for ions

[...]

 d Force =-0.1232352E-05[-0.330E-05, 0.833E-06]  d Energy =-0.1223505E-05-0.885E-08
 d Force =-0.8664446E-03[-0.873E-03,-0.859E-03]  d Ewald  =-0.8664454E-03 0.784E-09

[...]

 retain information from N=  1 steps
 eigenvalues of (default step * inverse Hessian matrix)
  average eigenvalue of G=   0.2016
 eigenvalue spectrum of G is  0.2016

[...]

WARNING in EDDRMM: call to ZHEGV failed, returncode =   6  3  1

[...]

 d Force = 0.1317595E-05[ 0.255E-08, 0.263E-05]  d Energy = 0.1309305E-05 0.829E-08
 d Force = 0.6928681E-03[ 0.688E-03, 0.697E-03]  d Ewald  = 0.6928685E-03-0.402E-09

[...]

 eigenvalue-minimisations  :  4712
 total energy-change (2. order) : 0.9589485E-09  ( 0.5654846E-09)
 number of electron      16.0000000 magnetization
 augmentation part        0.3781717 magnetization

[...]

 eigenvalue-minimisations  :  2906
 total energy-change (2. order) :-0.7197514E-09  ( 0.1536878E-12)
 number of electron      16.0000000 magnetization
 augmentation part        0.3781717 magnetization

[...]

 d Force =-0.5817600E-12[-0.363E-11, 0.247E-11]  d Energy =-0.1848548E-09 0.184E-09
 d Force = 0.6672780E-06[ 0.667E-06, 0.667E-06]  d Ewald  = 0.6672781E-06 0.000E+00

[...]

 d Force = 0.1252170E-11[ 0.341E-12, 0.216E-11]  d Energy = 0.1693934E-10-0.157E-10
 d Force =-0.3972124E-06[-0.397E-06,-0.397E-06]  d Ewald  =-0.3972123E-06 0.000E+00

[...]

 d Force = 0.5938623E-13[ 0.551E-13, 0.636E-13]  d Energy =-0.4627054E-10 0.463E-10
 d Force =-0.7421044E-07[-0.742E-07,-0.742E-07]  d Ewald  =-0.7421022E-07 0.000E+00

[...]

 d Force =-0.2319746E-12[-0.822E-12, 0.358E-12]  d Energy = 0.1564331E-09-0.157E-09
 d Force =-0.4815231E-06[-0.482E-06,-0.482E-06]  d Ewald  =-0.4815233E-06 0.000E+00

[...]

 eigenvalue-minimisations  :   328
 total energy-change (2. order) :-0.7941026E-09  (-0.1480297E-14)
 number of electron      16.0000000 magnetization
 augmentation part        0.3781717 magnetization

[...]

 eigenvalue-minimisations  :   600
 total energy-change (2. order) : 0.3091145E-09  (-0.1940834E-14)
 number of electron      16.0000000 magnetization
 augmentation part        0.3781717 magnetization

[...]

 d Force = 0.1489965E-12[-0.274E-12, 0.572E-12]  d Energy =-0.2805791E-09 0.281E-09
 d Force = 0.3354660E-06[ 0.335E-06, 0.335E-06]  d Ewald  = 0.3354662E-06 0.000E+00

[...]

 d Force = 0.1848762E-14[-0.853E-13, 0.890E-13]  d Energy = 0.2440856E-09-0.244E-09
 d Force =-0.1087166E-06[-0.109E-06,-0.109E-06]  d Ewald  =-0.1087169E-06 0.455E-12

[...]

 FEWALD executed in parallel

[...]

 Broyden mixing:
  rms(total) = 0.12021E-10    rms(broyden)= 0.92497E-11
  rms(prec ) = 0.16856E-10
  weight for this iteration     100.00
  WARNING: grid for Broyden might be to small

[...]

 eigenvalue-minimisations  :   400
 total energy-change (2. order) :-0.1053877E-09  ( 0.0000000E+00)
 number of electron      16.0000000 magnetization
 augmentation part        0.3781717 magnetization

 Broyden mixing:
  rms(total) = 0.10016E-10    rms(broyden)= 0.96529E-11
  rms(prec ) = 0.14505E-10
  weight for this iteration     100.00

 eigenvalues of (default mixing * dielectric matrix)
  average eigenvalue GAMMA=   1.6081
  3.0644  2.6371  2.5380  0.8414  0.8414  0.6673  0.6673

[...]

----------------------------------------- Iteration   10(   9)  ---------------------------------------

 eigenvalue-minimisations  :   262
 total energy-change (2. order) : 0.7298695E-10  ( 0.0000000E+00)
 number of electron      16.0000000 magnetization
 augmentation part        0.3781717 magnetization

 Free energy of the ion-electron system (eV)
  alpha Z        PSCENC =         6.18334092
  Ewald energy   TEWEN  =      2531.62860120
  -Hartree energ DENC   =     -3025.71108263
  -exchange      EXHF   =         0.00000000
  -V(xc)+E(xc)   XCENC  =        57.37097535
  PAW double counting   =       273.75814487     -278.89190949
  entropy T*S    EENTRO =        -0.00003058
  eigenvalues    EBANDS =      -189.87637960
  atomic energy  EATOM  =       588.62352690
  free energy    TOTEN  =       -36.91481306 eV

  energy without entropy =      -36.91478248  energy(sigma->0) =      -36.91479777

 average (electrostatic) potential at core
  the test charge radii are     0.6991
  (the norm of the test charge is              1.0000)
       1 -58.2390       2 -58.2390       3 -58.2390       4 -58.2390

 E-fermi :  -2.7823     XC(G=0):  -2.1560     alpha+bet : -1.9046

[...]

 k-point   247 :       0.5000    0.5000    0.0000
  band No.  band energies     occupation
      1     -16.9506      2.00000
      2     -16.9506      2.00000
      3     -15.9268      2.00000
      4     -15.9268      2.00000
      5      -9.2210      2.00000
      6      -9.2210      2.00000
      7      -5.0714      2.00000
      8      -5.0714      2.00000
      9      -1.1042      0.00000
     10      -1.1042      0.00000
     11       4.3201      0.00000
     12       4.3201      0.00000

 soft charge-density along one line, spin component           1
         0         1         2         3         4         5         6         7         8         9
 total charge-density along one line

------------------------ aborting loop because EDIFF is reached ----------------------------------------

  FORCE on cell =-STRESS in cart. coord.  units (eV):
  Direction    XX          YY          ZZ          XY          YZ          ZX
  Alpha Z     6.18334     6.18334     6.18334
  Ewald    3066.30985  3067.57432 -3602.25580    -0.00000     0.00000     0.00000
  Hartree  3002.65033  3003.09280 -2980.03204    -0.00000    -0.00000    -0.00000
  E(xc)     -58.18847   -58.19998   -60.52623    -0.00000    -0.00000    -0.00000
  Local   -6241.84656 -6243.34418  6376.49055    -0.00000    -0.00000     0.00000
  n-local   -13.57127   -13.90259   -12.65407     0.06042     0.00000    -0.00000
  augment    -1.51620    -1.51734    -1.39747    -0.00000     0.00000     0.00000
  Kinetic   237.80647   240.11246   274.19039    -4.53927    -0.00000     0.00000
  Fock        0.00000     0.00000     0.00000     0.00000     0.00000     0.00000
  Total      -2.17251    -0.00116    -0.00133     0.00000     0.00000     0.00000
  in kB     -16.50913    -0.00884    -0.01012     0.00000     0.00000     0.00000

 VOLUME and BASIS-vectors are now :
  energy-cutoff  :     2000.00
  volume of cell :      210.84
      direct lattice vectors                 reciprocal lattice vectors
     4.315564361  0.000000000  0.000000000     0.231719404  0.000000000  0.000000000
     0.000000000  2.462900110  0.000000000     0.000000000  0.406025399  0.000000000
     0.000000000  0.000000000 19.836465387     0.000000000  0.000000000  0.050412207

  length of vectors
     4.315564361  2.462900110 19.836465387     0.231719404  0.406025399  0.050412207

 FORCES acting on ions
    electron-ion (+dipol)            ewald-force                    non-local-force                 convergence-correction
   0.215E+01 0.955E-16 -.751E-09   -.215E+01 -.561E-14 -.122E-18   0.164E-02 0.347E-17 0.000E+00   -.723E-11 -.296E-15 0.607E-12
   -.215E+01 0.276E-13 -.689E-08   0.215E+01 0.881E-14 0.644E-19   -.164E-02 -.694E-17 0.000E+00   0.723E-11 -.176E-14 0.605E-12
   0.215E+01 -.141E-12 -.736E-09   -.215E+01 -.620E-14 -.312E-18   0.164E-02 0.104E-16 0.000E+00   -.723E-11 -.507E-15 0.579E-12
   -.215E+01 0.426E-15 -.689E-08   0.215E+01 0.822E-14 0.369E-18   -.164E-02 -.694E-17 0.000E+00   0.723E-11 -.153E-14 0.582E-12
   -.112E-05 -.113E-12 -.153E-07   0.444E-15 0.522E-14 0.000E+00   0.867E-18 0.000E+00 0.000E+00   0.345E-14 -.410E-14 0.237E-11

 POSITION                                       TOTAL-FORCE (eV/Angst)
      4.31452      0.00000     -0.00000         0.000000      0.000000      0.000000
      0.72030      1.23145      0.00000        -0.000000     -0.000000     -0.000000
      2.15674      1.23145     -0.00000         0.000000     -0.000000      0.000000
      2.87808      0.00000      0.00000        -0.000000      0.000000     -0.000000
    total drift:                               -0.000001     -0.000000     -0.000000

  FREE ENERGIE OF THE ION-ELECTRON SYSTEM (eV)
  free  energy   TOTEN  =       -36.91481306 eV

  energy  without entropy=      -36.91478248  energy(sigma->0) =      -36.91479777

 d Force = 0.1637770E-13[-0.897E-14, 0.417E-13]  d Energy =-0.1441549E-09 0.144E-09
 d Force = 0.5320459E-07[ 0.532E-07, 0.532E-07]  d Ewald  = 0.5320499E-07-0.455E-12

 Quasi-Newton relaxation of ions (Broydens 2nd method)
  g(Force)  = 0.254E-13   g(Stress)= 0.000E+00

 retain information from N=  1 steps
 eigenvalues of (default step * inverse Hessian matrix)
  average eigenvalue of G=   0.0626
 eigenvalue spectrum of G is  0.0626

 reached required accuracy - stopping structural energy minimisation