 vasp.5.3.5 31Mar14 (build Mar 02 2015 18:14:16) complex

 executed on             LinuxIFC date 2018.08.09  14:55:30

 INCAR:
 POTCAR:   PAW_PBE C 08Apr2002
 POTCAR:   PAW_PBE C 08Apr2002
   VRHFIN =C: s2p2

   TITEL  = PAW_PBE C 08Apr2002
   POMASS =   12.011; ZVAL   =    4.000    mass and valenz
   ENMAX  =  400.000; ENMIN  =  300.000 eV
   QCUT   =   -5.516; QGAM   =   11.032    optimization parameters

   Description
     l     E      TYP  RCUT    TYP  RCUT
     0   .000     23  1.200
     0   .000     23  1.200
     1   .000     23  1.500
     1  2.500     23  1.500
     2   .000      7  1.500

 PAW_PBE C 08Apr2002                    :

 POSCAR: MD-kMC export data
  positions in direct lattice
  velocities in cartesian coordinates
 exchange correlation table for  LEXCH =        8
   RHO(1)=    0.500       N(1)  =     2000
   RHO(2)=  100.500       N(2)  =     4000

 ion  position               nearest neighbor table
   1  1.000  0.000  0.000-   2 1.43   2 1.43   4 1.44
   2  0.167  0.500  0.000-   1 1.43   1 1.43   3 1.44
   3  0.500  0.500  0.000-   4 1.43   4 1.43   2 1.44
   4  0.667  0.000  0.000-   3 1.43   3 1.43   1 1.44

  LATTYP: Found a simple orthorhombic cell.
 ALAT       =     2.4628078131
 B/A-ratio  =     1.7526414666
 C/A-ratio  =     8.0531174680

  Lattice vectors:

 A1 = (   0.0000000000,  -2.4628078131,   0.0000000000)
 A2 = (  -4.3164190974,   0.0000000000,   0.0000000000)
 A3 = (   0.0000000000,   0.0000000000, -19.8332806199)

Analysis of symmetry for initial positions (statically):
 Subroutine PRICEL returns following result:

  LATTYP: Found a base centered orthorhombic cell.
 ALAT       =     2.4628078131
 B/A-ratio  =     1.7526414666
 C/A-ratio  =     8.0531174680

[...]

   2 primitive cells build up your supercell.

 Routine SETGRP: Setting up the symmetry group for a
 simple orthorhombic supercell.

 Subroutine GETGRP returns: Found  8 space group operations
 (whereof  4 operations were pure point group operations)
 out of a pool of  8 trial point group operations.

The static configuration has the point symmetry C_2v.
 The point group associated with its full space group is D_2h.

Analysis of symmetry for dynamics (positions and initial velocities):
 Subroutine PRICEL returns following result:

  LATTYP: Found a base centered orthorhombic cell.
 ALAT       =     2.4628078131
 B/A-ratio  =     1.7526414666
 C/A-ratio  =     8.0531174680

  Lattice vectors:

 A1 = (   2.1582095487,  -1.2314039065,   0.0000000000)
 A2 = (  -2.1582095487,  -1.2314039065,   0.0000000000)
 A3 = (   0.0000000000,   0.0000000000, -19.8332806199)

   2 primitive cells build up your supercell.

 Routine SETGRP: Setting up the symmetry group for a
 simple orthorhombic supercell.

 Subroutine GETGRP returns: Found  8 space group operations
 (whereof  4 operations were pure point group operations)
 out of a pool of  8 trial point group operations.

The dynamic configuration has the point symmetry C_2v.
 The point group associated with its full space group is D_2h.

 KPOINTS: Automatic mesh

Automatic generation of k-mesh.
Space group operators:
 irot       det(A)        alpha          n_x          n_y          n_z        tau_x        tau_y        tau_z
    1     1.000000     0.000000     1.000000     0.000000     0.000000     0.000000     0.000000     0.000000
    2    -1.000000   180.000000     0.000000     0.000000     1.000000     0.000000     0.000000     0.000000
    3     1.000000   180.000000     1.000000     0.000000     0.000000     0.000000     0.000000     0.000000
    4    -1.000000   180.000000     0.000000     1.000000     0.000000     0.000000     0.000000     0.000000
    5    -1.000000     0.000000     1.000000     0.000000     0.000000     0.166667    -0.500000     0.000000
    6     1.000000   180.000000     0.000000     0.000000     1.000000     0.166667    -0.500000     0.000000
    7    -1.000000   180.000000     1.000000     0.000000     0.000000     0.166667    -0.500000     0.000000
    8     1.000000   180.000000     0.000000     1.000000     0.000000     0.166667    -0.500000     0.000000

 Subroutine IBZKPT returns following result:

 Found    247 irreducible k-points:

 Following reciprocal coordinates:
            Coordinates               Weight
  0.000000  0.000000  0.000000      1.000000
  0.041667  0.000000  0.000000      2.000000
  0.083333  0.000000  0.000000      2.000000
  0.125000  0.000000  0.000000      2.000000
  0.166667  0.000000  0.000000      2.000000
  0.208333  0.000000  0.000000      2.000000
  0.250000  0.000000  0.000000      2.000000
  0.291667  0.000000  0.000000      2.000000
  0.333333  0.000000  0.000000      2.000000
  0.375000  0.000000  0.000000      2.000000
  0.416667  0.000000  0.000000      2.000000
  0.458333  0.000000  0.000000      2.000000
  0.500000  0.000000  0.000000      1.000000
  0.000000  0.027778  0.000000      2.000000
  0.041667  0.027778  0.000000      4.000000
  0.083333  0.027778  0.000000      4.000000
  0.125000  0.027778  0.000000      4.000000
  0.166667  0.027778  0.000000      4.000000
  0.208333  0.027778  0.000000      4.000000
  0.250000  0.027778  0.000000      4.000000
  0.291667  0.027778  0.000000      4.000000
  0.333333  0.027778  0.000000      4.000000
  0.375000  0.027778  0.000000      4.000000
  0.416667  0.027778  0.000000      4.000000
  0.458333  0.027778  0.000000      4.000000
  0.500000  0.027778  0.000000      2.000000
  0.000000  0.055556  0.000000      2.000000
  0.041667  0.055556  0.000000      4.000000
  0.083333  0.055556  0.000000      4.000000
  0.125000  0.055556  0.000000      4.000000
  0.166667  0.055556  0.000000      4.000000
  0.208333  0.055556  0.000000      4.000000
  0.250000  0.055556  0.000000      4.000000
  0.291667  0.055556  0.000000      4.000000
  0.333333  0.055556  0.000000      4.000000
  0.375000  0.055556  0.000000      4.000000
  0.416667  0.055556  0.000000      4.000000
  0.458333  0.055556  0.000000      4.000000
  0.500000  0.055556  0.000000      2.000000
  0.000000  0.083333  0.000000      2.000000
  0.041667  0.083333  0.000000      4.000000
  0.083333  0.083333  0.000000      4.000000
  0.125000  0.083333  0.000000      4.000000
  0.166667  0.083333  0.000000      4.000000
  0.208333  0.083333  0.000000      4.000000
  0.250000  0.083333  0.000000      4.000000
  0.291667  0.083333  0.000000      4.000000
  0.333333  0.083333  0.000000      4.000000
  0.375000  0.083333  0.000000      4.000000
  0.416667  0.083333  0.000000      4.000000
  0.458333  0.083333  0.000000      4.000000
  0.500000  0.083333  0.000000      2.000000
  0.000000  0.111111  0.000000      2.000000
  0.041667  0.111111  0.000000      4.000000
  0.083333  0.111111  0.000000      4.000000
  0.125000  0.111111  0.000000      4.000000
  0.166667  0.111111  0.000000      4.000000
  0.208333  0.111111  0.000000      4.000000
  0.250000  0.111111  0.000000      4.000000
  0.291667  0.111111  0.000000      4.000000
[...]
  0.458333  0.472222  0.000000      4.000000
  0.500000  0.472222  0.000000      2.000000
  0.000000  0.500000  0.000000      1.000000
  0.041667  0.500000  0.000000      2.000000
  0.083333  0.500000  0.000000      2.000000
  0.125000  0.500000  0.000000      2.000000
  0.166667  0.500000  0.000000      2.000000
  0.208333  0.500000  0.000000      2.000000
  0.250000  0.500000  0.000000      2.000000
  0.291667  0.500000  0.000000      2.000000
  0.333333  0.500000  0.000000      2.000000
  0.375000  0.500000  0.000000      2.000000
  0.416667  0.500000  0.000000      2.000000
  0.458333  0.500000  0.000000      2.000000
  0.500000  0.500000  0.000000      1.000000

 Following cartesian coordinates:
            Coordinates               Weight
  0.000000  0.000000  0.000000      1.000000
  0.009653  0.000000  0.000000      2.000000
  0.019306  0.000000  0.000000      2.000000
  0.028959  0.000000  0.000000      2.000000
  0.038612  0.000000  0.000000      2.000000
  0.048265  0.000000  0.000000      2.000000
  0.057918  0.000000  0.000000      2.000000
  0.067571  0.000000  0.000000      2.000000
  0.077225  0.000000  0.000000      2.000000
  0.086878  0.000000  0.000000      2.000000
  0.096531  0.000000  0.000000      2.000000
  0.106184  0.000000  0.000000      2.000000
  0.115837  0.000000  0.000000      1.000000
  0.000000  0.011279  0.000000      2.000000
  0.009653  0.011279  0.000000      4.000000
  0.019306  0.011279  0.000000      4.000000
  0.028959  0.011279  0.000000      4.000000
  0.038612  0.011279  0.000000      4.000000
  0.048265  0.011279  0.000000      4.000000
  0.057918  0.011279  0.000000      4.000000
  0.067571  0.011279  0.000000      4.000000
  0.077225  0.011279  0.000000      4.000000
  0.086878  0.011279  0.000000      4.000000
  0.096531  0.011279  0.000000      4.000000
  0.106184  0.011279  0.000000      4.000000
  0.115837  0.011279  0.000000      2.000000
  0.000000  0.022558  0.000000      2.000000
  0.009653  0.022558  0.000000      4.000000
  0.019306  0.022558  0.000000      4.000000
  0.028959  0.022558  0.000000      4.000000
  0.038612  0.022558  0.000000      4.000000
  0.048265  0.022558  0.000000      4.000000
  0.057918  0.022558  0.000000      4.000000
  0.067571  0.022558  0.000000      4.000000
  0.077225  0.022558  0.000000      4.000000
  0.086878  0.022558  0.000000      4.000000
  0.096531  0.022558  0.000000      4.000000
  0.106184  0.022558  0.000000      4.000000
  0.115837  0.022558  0.000000      2.000000
  0.000000  0.033837  0.000000      2.000000
  0.009653  0.033837  0.000000      4.000000
  0.019306  0.033837  0.000000      4.000000
  0.028959  0.033837  0.000000      4.000000
  0.038612  0.033837  0.000000      4.000000
  0.048265  0.033837  0.000000      4.000000
  0.057918  0.033837  0.000000      4.000000
  0.067571  0.033837  0.000000      4.000000
  0.077225  0.033837  0.000000      4.000000
  0.086878  0.033837  0.000000      4.000000
  0.096531  0.033837  0.000000      4.000000
  0.106184  0.033837  0.000000      4.000000
  0.115837  0.033837  0.000000      2.000000
  0.000000  0.045116  0.000000      2.000000
  0.009653  0.045116  0.000000      4.000000
  0.019306  0.045116  0.000000      4.000000
  0.028959  0.045116  0.000000      4.000000
  0.038612  0.045116  0.000000      4.000000
  0.048265  0.045116  0.000000      4.000000
  0.057918  0.045116  0.000000      4.000000
  0.067571  0.045116  0.000000      4.000000
[...]
  0.106184  0.191741  0.000000      4.000000
  0.115837  0.191741  0.000000      2.000000
  0.000000  0.203020  0.000000      1.000000
  0.009653  0.203020  0.000000      2.000000
  0.019306  0.203020  0.000000      2.000000
  0.028959  0.203020  0.000000      2.000000
  0.038612  0.203020  0.000000      2.000000
  0.048265  0.203020  0.000000      2.000000
  0.057918  0.203020  0.000000      2.000000
  0.067571  0.203020  0.000000      2.000000
  0.077225  0.203020  0.000000      2.000000
  0.086878  0.203020  0.000000      2.000000
  0.096531  0.203020  0.000000      2.000000
  0.106184  0.203020  0.000000      2.000000
  0.115837  0.203020  0.000000      1.000000

 I would recommend the setting:
   dimension x,y,z NGX =    63 NGY =   36 NGZ =  289
[...]
 k-point ** :   0.0000 0.2778 0.0000  plane waves:   42854
 k-point ** :   0.0417 0.2778 0.0000  plane waves:   42876
 k-point ** :   0.0833 0.2778 0.0000  plane waves:   42852
 k-point ** :   0.1250 0.2778 0.0000  plane waves:   42857
 k-point ** :   0.1667 0.2778 0.0000  plane waves:   42841
 k-point ** :   0.2083 0.2778 0.0000  plane waves:   42811
 k-point ** :   0.2500 0.2778 0.0000  plane waves:   42833
 k-point ** :   0.2917 0.2778 0.0000  plane waves:   42823
 k-point ** :   0.3333 0.2778 0.0000  plane waves:   42843
 k-point ** :   0.3750 0.2778 0.0000  plane waves:   42846
 k-point ** :   0.4167 0.2778 0.0000  plane waves:   42853
 k-point ** :   0.4583 0.2778 0.0000  plane waves:   42836
 k-point ** :   0.5000 0.2778 0.0000  plane waves:   42856
 k-point ** :   0.0000 0.3056 0.0000  plane waves:   42888
 k-point ** :   0.0417 0.3056 0.0000  plane waves:   42858
 k-point ** :   0.0833 0.3056 0.0000  plane waves:   42887
 k-point ** :   0.1250 0.3056 0.0000  plane waves:   42866
 k-point ** :   0.1667 0.3056 0.0000  plane waves:   42839
 k-point ** :   0.2083 0.3056 0.0000  plane waves:   42842
 k-point ** :   0.2500 0.3056 0.0000  plane waves:   42845
 k-point ** :   0.2917 0.3056 0.0000  plane waves:   42842
 k-point ** :   0.3333 0.3056 0.0000  plane waves:   42862
 k-point ** :   0.3750 0.3056 0.0000  plane waves:   42858
 k-point ** :   0.4167 0.3056 0.0000  plane waves:   42854
 k-point ** :   0.4583 0.3056 0.0000  plane waves:   42843
 k-point ** :   0.5000 0.3056 0.0000  plane waves:   42856
 k-point ** :   0.0000 0.3333 0.0000  plane waves:   42892
 k-point ** :   0.0417 0.3333 0.0000  plane waves:   42883
 k-point ** :   0.0833 0.3333 0.0000  plane waves:   42899
[...]
 k-point ** :   0.4583 0.4722 0.0000  plane waves:   42855
 k-point ** :   0.5000 0.4722 0.0000  plane waves:   42866
 k-point ** :   0.0000 0.5000 0.0000  plane waves:   42910
 k-point ** :   0.0417 0.5000 0.0000  plane waves:   42898
 k-point ** :   0.0833 0.5000 0.0000  plane waves:   42876
 k-point ** :   0.1250 0.5000 0.0000  plane waves:   42866
 k-point ** :   0.1667 0.5000 0.0000  plane waves:   42912
 k-point ** :   0.2083 0.5000 0.0000  plane waves:   42896
 k-point ** :   0.2500 0.5000 0.0000  plane waves:   42880
 k-point ** :   0.2917 0.5000 0.0000  plane waves:   42878
 k-point ** :   0.3333 0.5000 0.0000  plane waves:   42894
 k-point ** :   0.3750 0.5000 0.0000  plane waves:   42912
 k-point ** :   0.4167 0.5000 0.0000  plane waves:   42918
 k-point ** :   0.4583 0.5000 0.0000  plane waves:   42892
 k-point ** :   0.5000 0.5000 0.0000  plane waves:   42848

 maximum and minimum number of plane-waves per node :     21534    21221

 maximum number of plane-waves:     42928
 maximum index in each direction:
   IXMAX=   15   IYMAX=    8   IZMAX=   72
   IXMIN=  -16   IYMIN=   -9   IZMIN=  -72

 NGX is ok and might be reduce to  64
 NGY is ok and might be reduce to  36
 NGZ is ok and might be reduce to 290

 parallel 3D FFT for wavefunctions:
    minimum data exchange during FFTs selected (reduces bandwidth)
 parallel 3D FFT for charge:
    minimum data exchange during FFTs selected (reduces bandwidth)

 Broyden mixing: mesh for mixing (old mesh)
   NGX = 31   NGY = 17   NGZ =145
  (NGX  =128   NGY  = 72   NGZ  =588)
  gives a total of  76415 points

 initial charge density was supplied:
 charge density of overlapping atoms calculated
 number of electron      16.0000000 magnetization
 keeping initial charge density in first step

 Maximum index for augmentation-charges         4667 (set IRDMAX)

 First call to EWALD:  gamma=   0.298
 Maximum number of real-space cells 4x 6x 1
 Maximum number of reciprocal cells 2x 1x 8

 FEWALD executed in parallel

----------------------------------------- Iteration    1(   1)  ---------------------------------------

 eigenvalue-minimisations  :  5928
 total energy-change (2. order) : 0.1882393E+03  (-0.1063185E+04)
 number of electron      16.0000000 magnetization
 augmentation part       16.0000000 magnetization

 Free energy of the ion-electron system (eV)
  alpha Z        PSCENC =         6.18334092
  Ewald energy   TEWEN  =      2530.55792518
  -Hartree energ DENC   =     -2957.62230026
  -exchange      EXHF   =         0.00000000
  -V(xc)+E(xc)   XCENC  =        54.98375820
  PAW double counting   =       151.32577238     -155.92769107
  entropy T*S    EENTRO =        -0.00148611
  eigenvalues    EBANDS =       -29.88352487
  atomic energy  EATOM  =       588.62352690
  free energy    TOTEN  =       188.23932128 eV

  energy without entropy =      188.24080740  energy(sigma->0) =      188.24006434

[...]

 eigenvalue-minimisations  : 10376
 total energy-change (2. order) :-0.1975028E+03  (-0.1751469E+03)
 number of electron      16.0000000 magnetization
 augmentation part       16.0000000 magnetization

[...]

 Broyden mixing:
  rms(total) = 0.72591E+00    rms(broyden)= 0.72591E+00
  rms(prec ) = 0.79002E+00
  weight for this iteration     100.00

[...]

 eigenvalues of (default mixing * dielectric matrix)
  average eigenvalue GAMMA=   2.3117
  2.3117

[...]

 average (electrostatic) potential at core
  the test charge radii are     0.6991
  (the norm of the test charge is              1.0000)
       1 -58.2399       2 -58.2399       3 -58.2399       4 -58.2399

 E-fermi :  -2.7828     XC(G=0):  -2.1566     alpha+bet : -1.9046

 k-point     1 :       0.0000    0.0000    0.0000
  band No.  band energies     occupation
      1     -22.1839      2.00000
      2     -17.1202      2.00000
      3     -15.9187      2.00000
      4     -10.3051      2.00000
      5      -9.0119      2.00000
      6      -5.8782      2.00000
      7      -5.7610      2.00000
      8      -5.2039      2.00000
      9      -1.1221      0.00000
     10       0.5322      0.00000
     11       1.3321      0.00000
     12       1.7185      0.00000

[...]

 soft charge-density along one line, spin component           1
         0         1         2         3         4         5         6         7         8         9
 total charge-density along one line

------------------------ aborting loop because EDIFF is reached ----------------------------------------

  FORCE on cell =-STRESS in cart. coord.  units (eV):
  Direction    XX          YY          ZZ          XY          YZ          ZX
  Alpha Z     6.18334     6.18334     6.18334
  Ewald    3065.18294  3066.47395 -3601.09920    -0.00000     0.00000     0.00000
  Hartree  3001.57411  3002.02583 -2978.95687     0.00000    -0.00000    -0.00000
  E(xc)     -58.18548   -58.19723   -60.52323    -0.00000    -0.00000    -0.00000
  Local   -6239.65204 -6241.18115  6374.26588     0.00000     0.00000    -0.00000
  n-local   -13.56379   -13.90176   -12.65183     0.06051     0.00000     0.00000
  augment    -1.51570    -1.51686    -1.39713     0.00000     0.00000     0.00000
  Kinetic   237.76052   240.11374   274.17772    -4.53807    -0.00000    -0.00000
  Fock        0.00000     0.00000     0.00000     0.00000     0.00000     0.00000
  Total      -2.21610    -0.00013    -0.00133     0.00000     0.00000     0.00000
  in kB     -16.84035    -0.00096    -0.01011     0.00000     0.00000     0.00000

 VOLUME and BASIS-vectors are now :
  energy-cutoff  :     2000.00
  volume of cell :      210.84
      direct lattice vectors                 reciprocal lattice vectors
     4.316419097  0.000000000  0.000000000     0.231673519  0.000000000  0.000000000
     0.000000000  2.462807813  0.000000000     0.000000000  0.406040615  0.000000000
     0.000000000  0.000000000 19.833280620     0.000000000  0.000000000  0.050420302

[...]

 FORCES acting on ions
    electron-ion (+dipol)            ewald-force                    non-local-force                 convergence-correction
   0.219E+01 0.202E-15 -.710E-09   -.219E+01 -.348E-14 -.124E-18   0.162E-02 -.694E-17 0.000E+00   -.692E-07 -.376E-14 0.193E-12
   -.219E+01 -.181E-12 -.693E-08   0.219E+01 0.112E-14 -.644E-19   -.162E-02 0.000E+00 0.000E+00   0.692E-07 0.246E-14 0.193E-12
   0.219E+01 -.206E-12 -.744E-09   -.219E+01 -.148E-14 -.744E-18   0.162E-02 -.694E-17 0.517E-25   -.692E-07 -.370E-14 0.192E-12
   -.219E+01 0.116E-15 -.695E-08   0.219E+01 0.312E-14 0.932E-18   -.162E-02 0.000E+00 0.000E+00   0.692E-07 0.238E-14 0.193E-12
   -.113E-05 -.386E-12 -.153E-07   -.311E-14 -.720E-15 -.193E-33   -.217E-18 -.139E-16 0.517E-25   0.510E-13 -.262E-14 0.771E-12

 POSITION                                       TOTAL-FORCE (eV/Angst)
      4.31536      0.00000      0.00000        -0.000049     -0.000000      0.000000
      0.72046      1.23140      0.00000         0.000049      0.000000     -0.000000
      2.15715      1.23140      0.00000        -0.000049      0.000000      0.000000
      2.87867      0.00000      0.00000         0.000049     -0.000000     -0.000000
    total drift:                               -0.000001     -0.000000     -0.000000

  FREE ENERGIE OF THE ION-ELECTRON SYSTEM (eV)
  free  energy   TOTEN  =       -36.91437853 eV

  energy  without entropy=      -36.91434971  energy(sigma->0) =      -36.91436412

 Quasi-Newton relaxation of ions (Broydens 2nd method)
  g(Force)  = 0.467E-09   g(Stress)= 0.000E+00

 Reset! Starting new Quasi-Newton update for ions

[...]

 d Force =-0.6924797E-09[-0.185E-08, 0.467E-09]  d Energy =-0.1028866E-08 0.336E-09
 d Force = 0.2083333E-04[ 0.208E-04, 0.208E-04]  d Ewald  = 0.2083334E-04-0.591E-11

[...]

 retain information from N=  1 steps
 eigenvalues of (default step * inverse Hessian matrix)
  average eigenvalue of G=   0.2014
 eigenvalue spectrum of G is  0.2014

[...]

 d Force = 0.7176365E-09[-0.438E-10, 0.148E-08]  d Energy = 0.1006015E-08-0.288E-09
 d Force =-0.1663588E-04[-0.166E-04,-0.166E-04]  d Ewald  =-0.1663588E-04 0.000E+00

[...]

 eigenvalue-minimisations  :  4768
 total energy-change (2. order) : 0.3266223E-09  ( 0.5664884E-09)
 number of electron      16.0000000 magnetization
 augmentation part        0.3780993 magnetization

[...]

 eigenvalue-minimisations  :  2299
 total energy-change (2. order) :-0.1409717E-09  ( 0.6337934E-13)
 number of electron      16.0000000 magnetization
 augmentation part        0.3780993 magnetization

[...]

 eigenvalue-minimisations  :  1697
 total energy-change (2. order) : 0.9083578E-10  (-0.1147744E-12)
 number of electron      16.0000000 magnetization
 augmentation part        0.3780993 magnetization

[...]

 d Force =-0.1711590E-12[-0.160E-11, 0.126E-11]  d Energy =-0.1934950E-09 0.193E-09
 d Force = 0.4786671E-06[ 0.479E-06, 0.479E-06]  d Ewald  = 0.4786671E-06 0.000E+00

[...]

 FEWALD executed in parallel

[...]

 eigenvalue-minimisations  :  4552
 total energy-change (2. order) : 0.4195044E-09  ( 0.5699480E-09)
 number of electron      16.0000000 magnetization
 augmentation part        0.3780993 magnetization

[...]

 eigenvalue-minimisations  :   788
 total energy-change (2. order) :-0.1523404E-10  (-0.2265677E-14)
 number of electron      16.0000000 magnetization
 augmentation part        0.3780993 magnetization

 Broyden mixing:
  rms(total) = 0.42816E-09    rms(broyden)= 0.42814E-09
  rms(prec ) = 0.46819E-09
  weight for this iteration     100.00

 eigenvalues of (default mixing * dielectric matrix)
  average eigenvalue GAMMA=   1.8623
  1.1057  2.5751  1.9060

[...]

----------------------------------------- Iteration    5(   5)  ---------------------------------------

 eigenvalue-minimisations  :   650
 total energy-change (2. order) :-0.3603873E-10  ( 0.1852016E-13)
 number of electron      16.0000000 magnetization
 augmentation part        0.3780993 magnetization

 Free energy of the ion-electron system (eV)
  alpha Z        PSCENC =         6.18334092
  Ewald energy   TEWEN  =      2530.55792077
  -Hartree energ DENC   =     -3024.64306016
  -exchange      EXHF   =         0.00000000
  -V(xc)+E(xc)   XCENC  =        57.36801505
  PAW double counting   =       273.69371870     -278.82719153
  entropy T*S    EENTRO =        -0.00002883
  eigenvalues    EBANDS =      -189.87062034
  atomic energy  EATOM  =       588.62352690
  free energy    TOTEN  =       -36.91437853 eV

  energy without entropy =      -36.91434970  energy(sigma->0) =      -36.91436411

 average (electrostatic) potential at core
  the test charge radii are     0.6991
  (the norm of the test charge is              1.0000)
       1 -58.2399       2 -58.2399       3 -58.2399       4 -58.2399

 E-fermi :  -2.7828     XC(G=0):  -2.1562     alpha+bet : -1.9046

[...]

 k-point   247 :       0.5000    0.5000    0.0000
  band No.  band energies     occupation
      1     -16.9492      2.00000
      2     -16.9492      2.00000
      3     -15.9259      2.00000
      4     -15.9259      2.00000
      5      -9.2222      2.00000
      6      -9.2222      2.00000
      7      -5.0706      2.00000
      8      -5.0706      2.00000
      9      -1.1048      0.00000
     10      -1.1048      0.00000
     11       4.3143      0.00000
     12       4.3143      0.00000

 soft charge-density along one line, spin component           1
         0         1         2         3         4         5         6         7         8         9
 total charge-density along one line

------------------------ aborting loop because EDIFF is reached ----------------------------------------

  FORCE on cell =-STRESS in cart. coord.  units (eV):
  Direction    XX          YY          ZZ          XY          YZ          ZX
  Alpha Z     6.18334     6.18334     6.18334
  Ewald    3065.18338  3066.47351 -3601.09920    -0.00000     0.00000    -0.00000
  Hartree  3001.57416  3002.02577 -2978.95687     0.00000    -0.00000    -0.00000
  E(xc)     -58.18548   -58.19723   -60.52323     0.00000    -0.00000    -0.00000
  Local   -6239.65245 -6241.18072  6374.26588    -0.00000     0.00000    -0.00000
  n-local   -13.56378   -13.90176   -12.65183     0.06051    -0.00000    -0.00000
  augment    -1.51570    -1.51686    -1.39713     0.00000     0.00000    -0.00000
  Kinetic   237.76045   240.11380   274.17772    -4.53806     0.00000     0.00000
  Fock        0.00000     0.00000     0.00000     0.00000     0.00000     0.00000
  Total      -2.21608    -0.00015    -0.00133     0.00000     0.00000     0.00000
  in kB     -16.84021    -0.00111    -0.01012     0.00000     0.00000     0.00000

 VOLUME and BASIS-vectors are now :
  energy-cutoff  :     2000.00
  volume of cell :      210.84
      direct lattice vectors                 reciprocal lattice vectors
     4.316419097  0.000000000  0.000000000     0.231673519  0.000000000  0.000000000
     0.000000000  2.462807813  0.000000000     0.000000000  0.406040615  0.000000000
     0.000000000  0.000000000 19.833280620     0.000000000  0.000000000  0.050420302

  length of vectors
     4.316419097  2.462807813 19.833280620     0.231673519  0.406040615  0.050420302

 FORCES acting on ions
    electron-ion (+dipol)            ewald-force                    non-local-force                 convergence-correction
   0.219E+01 0.102E-15 -.716E-09   -.219E+01 -.491E-14 -.192E-17   0.164E-02 0.000E+00 -.162E-26   -.140E-08 0.626E-15 -.218E-11
   -.219E+01 0.438E-14 -.694E-08   0.219E+01 0.385E-14 0.150E-17   -.164E-02 0.000E+00 0.162E-26   0.140E-08 -.155E-14 -.215E-11
   0.219E+01 -.193E-12 -.749E-09   -.219E+01 -.421E-14 -.111E-17   0.164E-02 0.000E+00 0.000E+00   -.140E-08 -.162E-15 -.200E-11
   -.219E+01 0.480E-15 -.694E-08   0.219E+01 0.455E-14 0.154E-17   -.164E-02 0.000E+00 -.505E-28   0.140E-08 -.688E-15 -.202E-11
   -.113E-05 -.188E-12 -.153E-07   -.311E-14 -.720E-15 0.000E+00   0.130E-17 0.000E+00 -.505E-28   -.188E-14 -.178E-14 -.835E-11

 POSITION                                       TOTAL-FORCE (eV/Angst)
      4.31536      0.00000      0.00000         0.000001      0.000000     -0.000000
      0.72047      1.23140     -0.00000        -0.000001     -0.000000      0.000000
      2.15715      1.23140      0.00000         0.000001      0.000000     -0.000000
      2.87867      0.00000     -0.00000        -0.000001      0.000000      0.000000
    total drift:                               -0.000001     -0.000000     -0.000000

  FREE ENERGIE OF THE ION-ELECTRON SYSTEM (eV)
  free  energy   TOTEN  =       -36.91437853 eV

  energy  without entropy=      -36.91434970  energy(sigma->0) =      -36.91436411

 d Force = 0.4859840E-12[ 0.748E-13, 0.897E-12]  d Energy = 0.2459046E-09-0.245E-09
 d Force =-0.2679475E-06[-0.268E-06,-0.268E-06]  d Ewald  =-0.2679476E-06 0.000E+00

 Quasi-Newton relaxation of ions (Broydens 2nd method)
  g(Force)  = 0.724E-13   g(Stress)= 0.000E+00

 retain information from N=  1 steps
 eigenvalues of (default step * inverse Hessian matrix)
  average eigenvalue of G=   0.0940
 eigenvalue spectrum of G is  0.0940

 reached required accuracy - stopping structural energy minimisation