     Program PWSCF v.6.4.1 starts on 18Jul2019 at 23:43:43

     R & G space division:  proc/nbgrp/npool/nimage =       2
     Reading input from graphene.1_vc_relax.in

     Current dimensions of program PWSCF are:
     Max number of different atomic species (ntypx) = 10
     Max number of k-points (npk) =  40000
     Max angular momentum in pseudopotentials (lmaxx) =  3
               file C.pbe-n-kjpaw_psl.1.0.0.UPF: wavefunction(s)  2S 2P renormalized

     Subspace diagonalization in iterative solution of the eigenvalue problem:
     a serial algorithm will be used

     bravais-lattice index     =           12
     lattice parameter (alat)  =       4.6487  a.u.
     unit-cell volume          =     707.3387 (a.u.)^3
     number of atoms/cell      =            2
     number of atomic types    =            1
     number of electrons       =         8.00
     number of Kohn-Sham states=            8
     kinetic-energy cutoff     =      40.0000  Ry
     charge density cutoff     =     400.0000  Ry
     convergence threshold     =      1.0E-08
     mixing beta               =       0.3000
     number of iterations used =            8  plain     mixing
     Exchange-correlation      = SLA PW PBX PBC ( 1  4  3  4 0 0)
     nstep                     =           50

     celldm(1)=   4.648726  celldm(2)=   1.000000  celldm(3)=   8.130081
     celldm(4)=  -0.500000  celldm(5)=   0.000000  celldm(6)=   0.000000

     crystal axes: (cart. coord. in units of alat)
               a(1) = (   1.000000   0.000000   0.000000 )
               a(2) = (  -0.500000   0.866025   0.000000 )
               a(3) = (   0.000000   0.000000   8.130081 )

     reciprocal axes: (cart. coord. in units 2 pi/alat)
               b(1) = (  1.000000  0.577350  0.000000 )
               b(2) = (  0.000000  1.154701  0.000000 )
               b(3) = (  0.000000  0.000000  0.123000 )

     PseudoPot. # 1 for C  read from file:
     /home/anonymous/quantumEspresso_2019/SSSP_precision_pseudos/C.pbe-n-kjpaw_psl.1.0.0.UPF
     MD5 check sum: 5d2aebdfa2cae82b50a7e79e9516da0f
     Pseudo is Projector augmented-wave + core cor, Zval =  4.0
     Generated using "atomic" code by A. Dal Corso v.5.1
     Shape of augmentation charge: PSQ
     Using radial grid of 1073 points,  4 beta functions with:
                l(1) =   0
                l(2) =   0
                l(3) =   1
                l(4) =   1
     Q(r) pseudized with 0 coefficients

     atomic species   valence    mass     pseudopotential
        C              4.00    12.01070     C ( 1.00)

     24 Sym. Ops., with inversion, found (18 have fractional translation)

   Cartesian axes

     site n.     atom                  positions (alat units)
         1           C   tau(   1) = (   0.0000000   0.0000000   2.0325203  )
         2           C   tau(   2) = (  -0.0000000   0.5773503   2.0325203  )

     number of k points=    19  Marzari-Vanderbilt smearing, width (Ry)=  0.0001
                       cart. coord. in units 2pi/alat
        k(    1) = (   0.0000000   0.0000000   0.0000000), wk =   0.0138889
        k(    2) = (   0.0000000   0.0962250   0.0000000), wk =   0.0833333
        k(    3 = (   0.0000000   0.1924501   0.0000000), wk =   0.0833333
        k(    4) = (   0.0000000   0.2886751   0.0000000), wk =   0.0833333
        k(    5) = (   0.0000000   0.3849002   0.0000000), wk =   0.0833333
        k(    6) = (   0.0000000   0.4811252   0.0000000), wk =   0.0833333
        k(    7) = (   0.0000000  -0.5773503   0.0000000), wk =   0.0416667
        k(    8) = (   0.0833333   0.1443376   0.0000000), wk =   0.0833333
        k(    9) = (   0.0833333   0.2405626   0.0000000), wk =   0.1666667
        k(   10) = (   0.0833333   0.3367877   0.0000000), wk =   0.1666667
        k(   11) = (   0.0833333   0.4330127   0.0000000), wk =   0.1666667
        k(   12) = (   0.0833333   0.5292377   0.0000000), wk =   0.1666667
        k(   13) = (   0.1666667   0.2886751   0.0000000), wk =   0.0833333
        k(   14) = (   0.1666667   0.3849002   0.0000000), wk =   0.1666667
        k(   15) = (   0.1666667   0.4811252   0.0000000), wk =   0.1666667
        k(   16) = (   0.1666667   0.5773503   0.0000000), wk =   0.0833333
        k(   17) = (   0.2500000   0.4330127   0.0000000), wk =   0.0833333
        k(   18) = (   0.2500000   0.5292377   0.0000000), wk =   0.1666667
        k(   19) = (   0.3333333   0.5773503   0.0000000), wk =   0.0277778

     Check: negative core charge=   -0.000002

     Initial potential from superposition of free atoms

     starting charge    7.99992, renormalised to    8.00000

     negative rho (up, down):  1.059E-04 0.000E+00
     Starting wfcs are    8 randomized atomic wfcs
     Checking if some PAW data can be deallocated...

     Self-consistent Calculation

     iteration #  1     ecut=    40.00 Ry     beta= 0.30
     Davidson diagonalization with overlap
     ethr =  1.00E-02,  avg # of iterations =  5.3

     negative rho (up, down):  1.067E-04 0.000E+00

     total energy              =     -36.90793178 Ry
     Harris-Foulkes estimate   =     -36.97897421 Ry
     estimated scf accuracy    <       0.20562476 Ry

[...]

     End of self-consistent calculation

          k = 0.0000 0.0000 0.0000 (  3053 PWs)   bands (ev):

   -21.9108  -9.9945  -5.3727  -5.3727   0.8525   1.5197   1.6487   2.6598

[...]

     the Fermi energy is    -2.3209 ev

!    total energy              =     -36.88581993 Ry
     Harris-Foulkes estimate   =     -36.88581989 Ry
     estimated scf accuracy    <          2.6E-09 Ry

     total all-electron energy =      -152.414016 Ry

     The total energy is the sum of the following terms:

     one-electron contribution =    -224.86556156 Ry
     hartree contribution      =     113.87400972 Ry
     xc contribution           =      -9.28438464 Ry
     ewald contribution        =      95.72438390 Ry
     one-center paw contrib.   =     -12.33426644 Ry
     smearing contrib. (-TS)   =      -0.00000091 Ry

     convergence has been achieved in   8 iterations

[...]

     Forces acting on atoms (cartesian axes, Ry/au):

     atom    1 type  1   force =    -0.00000000   -0.00000000    0.00000000
     atom    2 type  1   force =     0.00000000    0.00000000    0.00000000

     Total force =     0.000000     Total SCF correction =     0.000000

     Computing stress (Cartesian axis) and pressure

     negative rho (up, down):  1.258E-04 0.000E+00
          total   stress  (Ry/bohr**3)                   (kbar)     P=    2.82
   0.00003352   0.00000000   0.00000000          4.93      0.00      0.00
   0.00000000   0.00003352  -0.00000000          0.00      4.93     -0.00
   0.00000000   0.00000000  -0.00000956          0.00      0.00     -1.41

     BFGS Geometry Optimization

     number of scf cycles    =   1
     number of bfgs steps    =   0

     enthalpy new            =     -36.8858199251 Ry

     new trust radius        =       0.0044579891 bohr
     new conv_thr            =       0.0000000100 Ry

     new unit-cell volume =    708.52488 a.u.^3 (   104.99255 Ang^3 )
     density =      0.37992 g/cm^3

CELL_PARAMETERS (alat=  4.64872629)
   1.000838099   0.000000000   0.000000000
  -0.500419049   0.866751219   0.000000000
   0.000000000   0.000000000   8.130081301

ATOMIC_POSITIONS (crystal)
C       -0.000000000  -0.000000000   0.250000000
C        0.333333333   0.666666667   0.250000000

     Writing output data file graphene.save/
     NEW-OLD atomic charge density approx. for the potential

[...]

     negative rho (up, down):  1.269E-04 0.000E+00
     extrapolated charge    8.01339, renormalised to    8.00000

[...]

     enthalpy old            =     -36.8858199251 Ry
     enthalpy new            =     -36.8858524020 Ry

     CASE: enthalpy_new < enthalpy_old

[...]

          k =-0.0000 0.0961 0.0000 (  3034 PWs)   bands (ev):

[...]

     number of scf cycles    =   4
     number of bfgs steps    =   3

     enthalpy old            =     -36.8858714107 Ry
     enthalpy new            =     -36.8858744567 Ry

     CASE: enthalpy_new < enthalpy_old

     small trust_radius: resetting bfgs history

     new trust radius        =       0.0000064579 bohr
     new conv_thr            =            1.0E-10 Ry

     new unit-cell volume =    710.60315 a.u.^3 (   105.30052 Ang^3 )
     density =      0.37881 g/cm^3

[...]

ATOMIC_POSITIONS (crystal)
C       -0.000000000  -0.000000000   0.250000000
C        0.333333333   0.666666667   0.250000000

     Writing output data file graphene.save/
     NEW-OLD atomic charge density approx. for the potential

[...]

     negative rho (up, down):  1.305E-04 0.000E+00
     extrapolated charge    8.00002, renormalised to    8.00000

[...]

     Threshold (ethr) on eigenvalues was too large:
     Diagonalizing with lowered threshold

     Davidson diagonalization with overlap
     ethr =  2.00E-12,  avg # of iterations =  1.1

[...]

     bfgs converged in   5 scf cycles and   4 bfgs steps
     (criteria: energy <  1.0E-06 Ry, force <  1.0E-04Ry/Bohr, cell <  5.0E-01kbar)

     End of BFGS Geometry Optimization

     Final enthalpy =     -36.8858744567 Ry
Begin final coordinates
     new unit-cell volume =    710.60315 a.u.^3 (   105.30052 Ang^3 )
     density =      0.37881 g/cm^3

CELL_PARAMETERS (alat=  4.64872629)
   1.002304867   0.000000000   0.000000000
  -0.501152434   0.868021478   0.000000000
   0.000000000   0.000000000   8.130081301

ATOMIC_POSITIONS (crystal)
C       -0.000000000  -0.000000000   0.250000000
C        0.333333333   0.666666667   0.250000000
End final coordinates

     Writing output data file graphene.save/

     A final scf calculation at the relaxed structure.
     The G-vectors are recalculated for the final unit cell
     Results may differ from those at the preceding step.

     bravais-lattice index     =           12
     lattice parameter (alat)  =       4.6487  a.u.
     unit-cell volume          =     710.6031 (a.u.)^3
     number of atoms/cell      =            2
     number of atomic types    =            1
     number of electrons       =         8.00
     number of Kohn-Sham states=            8
     kinetic-energy cutoff     =      40.0000  Ry
     charge density cutoff     =     400.0000  Ry
     convergence threshold     =      1.0E-10
     mixing beta               =       0.3000
     number of iterations used =            8  plain     mixing
     Exchange-correlation      = SLA PW PBX PBC ( 1  4  3  4 0 0)

     celldm(1)=   4.648726  celldm(2)=   1.000000  celldm(3)=   8.130081
     celldm(4)=  -0.500000  celldm(5)=   0.000000  celldm(6)=   0.000000

     crystal axes: (cart. coord. in units of alat)
               a(1) = (   1.002305   0.000000   0.000000 )
               a(2) = (  -0.501152   0.868021   0.000000 )
               a(3) = (   0.000000   0.000000   8.130081 )

     reciprocal axes: (cart. coord. in units 2 pi/alat)
               b(1) = (  0.997700  0.576023  0.000000 )
               b(2) = ( -0.000000  1.152045  0.000000 )
               b(3) = (  0.000000  0.000000  0.123000 )

     PseudoPot. # 1 for C  read from file:
     /home/anonymous/quantumEspresso_2019/SSSP_precision_pseudos/C.pbe-n-kjpaw_psl.1.0.0.UPF
     MD5 check sum: 5d2aebdfa2cae82b50a7e79e9516da0f
     Pseudo is Projector augmented-wave + core cor, Zval =  4.0
     Generated using "atomic" code by A. Dal Corso v.5.1
     Shape of augmentation charge: PSQ
     Using radial grid of 1073 points,  4 beta functions with:
                l(1) =   0
                l(2) =   0
                l(3) =   1
                l(4) =   1
     Q(r) pseudized with 0 coefficients

     atomic species   valence    mass     pseudopotential
        C              4.00    12.01070     C ( 1.00)

     24 Sym. Ops., with inversion, found (18 have fractional translation)

   Cartesian axes

     site n.     atom                  positions (alat units)
         1           C   tau(   1) = (  -0.0000000  -0.0000000   2.0325203  )
         2           C   tau(   2) = (  -0.0000000   0.5786810   2.0325203  )

     number of k points=    19  Marzari-Vanderbilt smearing, width (Ry)=  0.0001
                       cart. coord. in units 2pi/alat
        k(    1) = (   0.0000000   0.0000000   0.0000000), wk =   0.0138889
        k(    2) = (  -0.0000000   0.0960038   0.0000000), wk =   0.0833333
        k(    3) = (  -0.0000000   0.1920075   0.0000000), wk =   0.0833333
        k(    4) = (  -0.0000000   0.2880113   0.0000000), wk =   0.0833333
        k(    5) = (  -0.0000000   0.3840151   0.0000000), wk =   0.0833333
        k(    6) = (  -0.0000000   0.4800188   0.0000000), wk =   0.0833333
        k(    7) = (   0.0000000  -0.5760226   0.0000000), wk =   0.0416667
        k(    8) = (   0.0831417   0.1440057   0.0000000), wk =   0.0833333
        k(    9) = (   0.0831417   0.2400094   0.0000000), wk =   0.1666667
        k(   10) = (   0.0831417   0.3360132   0.0000000), wk =   0.1666667
        k(   11) = (   0.0831417   0.4320170   0.0000000), wk =   0.1666667
        k(   12) = (   0.0831417   0.5280207   0.0000000), wk =   0.1666667
        k(   13) = (   0.1662834   0.2880113   0.0000000), wk =   0.0833333
        k(   14) = (   0.1662834   0.3840151   0.0000000), wk =   0.1666667
        k(   15) = (   0.1662834   0.4800188   0.0000000), wk =   0.1666667
        k(   16) = (   0.1662834   0.5760226   0.0000000), wk =   0.0833333
        k(   17) = (   0.2494251   0.4320170   0.0000000), wk =   0.0833333
        k(   18) = (   0.2494251   0.5280207   0.0000000), wk =   0.1666667
        k(   19) = (   0.3325668   0.5760226   0.0000000), wk =   0.0277778

     Check: negative core charge=   -0.000002

     Initial potential from superposition of free atoms

     starting charge    7.99992, renormalised to    8.00000

     negative rho (up, down):  1.066E-04 0.000E+00
     Starting wfcs are    8 randomized atomic wfcs
     Checking if some PAW data can be deallocated...

     Self-consistent Calculation

     iteration #  1     ecut=    40.00 Ry     beta= 0.30
     Davidson diagonalization with overlap
     c_bands:  1 eigenvalues not converged
     c_bands:  1 eigenvalues not converged
     c_bands:  1 eigenvalues not converged
     c_bands:  1 eigenvalues not converged
     c_bands:  1 eigenvalues not converged
     ethr =  1.00E-06,  avg # of iterations = 16.5

[...]

     total energy              =     -36.88591026 Ry
     Harris-Foulkes estimate   =     -36.88591027 Ry
     estimated scf accuracy    <          5.4E-09 Ry

     iteration #  9     ecut=    40.00 Ry     beta= 0.30
     Davidson diagonalization with overlap
     ethr =  6.74E-11,  avg # of iterations =  2.0

[...]

     End of self-consistent calculation

[...]

          k =-0.0000 0.4800 0.0000 (  3050 PWs)   bands (ev):

[...]

          k = 0.3326 0.5760 0.0000 (  3009 PWs)   bands (ev):

   -14.9593 -14.9593 -12.9224  -2.3463  -2.3463   8.2702  10.5309  10.5309

     the Fermi energy is    -2.3461 ev

!    total energy              =     -36.88591027 Ry
     Harris-Foulkes estimate   =     -36.88591026 Ry
     estimated scf accuracy    <          1.4E-11 Ry

     total all-electron energy =      -152.414106 Ry

     The total energy is the sum of the following terms:

     one-electron contribution =    -223.81294425 Ry
     hartree contribution      =     113.34108999 Ry
     xc contribution           =      -9.27398969 Ry
     ewald contribution        =      95.19374241 Ry
     one-center paw contrib.   =     -12.33380782 Ry
     smearing contrib. (-TS)   =      -0.00000091 Ry

     convergence has been achieved in   9 iterations

     negative rho (up, down):  1.263E-04 0.000E+00

     Forces acting on atoms (cartesian axes, Ry/au):

     atom    1 type  1   force =     0.00000000    0.00000000    0.00000000
     atom    2 type  1   force =     0.00000000    0.00000000    0.00000000

     Total force =     0.000000     Total SCF correction =     0.000000

     Computing stress (Cartesian axis) and pressure

     negative rho (up, down):  1.263E-04 0.000E+00
          total   stress  (Ry/bohr**3)                   (kbar)     P=   -0.42
   0.00000057  -0.00000000  -0.00000000          0.08     -0.00     -0.00
  -0.00000000   0.00000057   0.00000000         -0.00      0.08      0.00
   0.00000000   0.00000000  -0.00000961          0.00      0.00     -1.41

     Writing output data file graphene.save/

     General routines

     Parallel routines

   This run was terminated on:  23:45:49  18Jul2019

   JOB DONE.
=------------------------------------------------------------------------------=)