 vasp.5.3.5 31Mar14 (build Mar 02 2015 18:14:16) complex

 executed on             LinuxIFC date 2018.08.09  20:59:23

 INCAR:
 POTCAR:   PAW_PBE C 08Apr2002
 POTCAR:   PAW_PBE C 08Apr2002
   VRHFIN =C: s2p2

   TITEL  = PAW_PBE C 08Apr2002
   POMASS =   12.011; ZVAL   =    4.000    mass and valenz
   ENMAX  =  400.000; ENMIN  =  300.000 eV
   QCUT   =   -5.516; QGAM   =   11.032    optimization parameters

   Description
     l     E      TYP  RCUT    TYP  RCUT
     0   .000     23  1.200
     0   .000     23  1.200
     1   .000     23  1.500
     1  2.500     23  1.500
     2   .000      7  1.500

 PAW_PBE C 08Apr2002                    :

 POSCAR: MD-kMC export data
  positions in direct lattice
  velocities in cartesian coordinates
 exchange correlation table for  LEXCH =        8
   RHO(1)=    0.500       N(1)  =     2000
   RHO(2)=  100.500       N(2)  =     4000

 ion  position               nearest neighbor table
   1  0.001  0.000  0.000-   4 1.42   2 1.44   2 1.44
   2  0.166  0.500  0.000-   3 1.42   1 1.44   1 1.44
   3  0.501  0.500  0.000-   2 1.42   4 1.44   4 1.44
   4  0.666  0.000  0.000-   1 1.42   3 1.44   3 1.44

  LATTYP: Found a simple orthorhombic cell.
 ALAT       =     2.5168944598
 B/A-ratio  =     1.6919678080
 C/A-ratio  =     7.8155865111

  Lattice vectors:

 A1 = (   0.0000000000,  -2.5168944598,   0.0000000000)
 A2 = (  -4.2585044022,   0.0000000000,   0.0000000000)
 A3 = (   0.0000000000,   0.0000000000, -19.6710063898)

Analysis of symmetry for initial positions (statically):
 Subroutine PRICEL returns following result:

  LATTYP: Found a base centered orthorhombic cell.
 ALAT       =     2.5168944598
 B/A-ratio  =     1.6919678080
 C/A-ratio  =     7.8155865111

[...]

   2 primitive cells build up your supercell.

 Routine SETGRP: Setting up the symmetry group for a
 simple orthorhombic supercell.

 Subroutine GETGRP returns: Found  8 space group operations
 (whereof  4 operations were pure point group operations)
 out of a pool of  8 trial point group operations.

The static configuration has the point symmetry C_2v.
 The point group associated with its full space group is D_2h.

Analysis of symmetry for dynamics (positions and initial velocities):
 Subroutine PRICEL returns following result:

  LATTYP: Found a base centered orthorhombic cell.
 ALAT       =     2.5168944598
 B/A-ratio  =     1.6919678080
 C/A-ratio  =     7.8155865111

  Lattice vectors:

 A1 = (   2.1292522011,  -1.2584472299,   0.0000000000)
 A2 = (  -2.1292522011,  -1.2584472299,   0.0000000000)
 A3 = (   0.0000000000,   0.0000000000, -19.6710063898)

   2 primitive cells build up your supercell.

 Routine SETGRP: Setting up the symmetry group for a
 simple orthorhombic supercell.

 Subroutine GETGRP returns: Found  8 space group operations
 (whereof  4 operations were pure point group operations)
 out of a pool of  8 trial point group operations.

The dynamic configuration has the point symmetry C_2v.
 The point group associated with its full space group is D_2h.

 KPOINTS: Automatic mesh

Automatic generation of k-mesh.
Space group operators:
 irot       det(A)        alpha          n_x          n_y          n_z        tau_x        tau_y        tau_z
    1     1.000000     0.000000     1.000000     0.000000     0.000000     0.000000     0.000000     0.000000
    2    -1.000000   180.000000     0.000000     0.000000     1.000000     0.000000     0.000000     0.000000
    3     1.000000   180.000000     1.000000     0.000000     0.000000     0.000000     0.000000     0.000000
    4    -1.000000   180.000000     0.000000     1.000000     0.000000     0.000000     0.000000     0.000000
    5    -1.000000     0.000000     1.000000     0.000000     0.000000     0.166667    -0.500000     0.000000
    6     1.000000   180.000000     0.000000     0.000000     1.000000     0.166667    -0.500000     0.000000
    7    -1.000000   180.000000     1.000000     0.000000     0.000000     0.166667    -0.500000     0.000000
    8     1.000000   180.000000     0.000000     1.000000     0.000000     0.166667    -0.500000     0.000000

 Subroutine IBZKPT returns following result:

 Found    247 irreducible k-points:

 Following reciprocal coordinates:
            Coordinates               Weight
  0.000000  0.000000  0.000000      1.000000
  0.041667  0.000000  0.000000      2.000000
  0.083333  0.000000  0.000000      2.000000
  0.125000  0.000000  0.000000      2.000000
  0.166667  0.000000  0.000000      2.000000
  0.208333  0.000000  0.000000      2.000000
  0.250000  0.000000  0.000000      2.000000
  0.291667  0.000000  0.000000      2.000000
  0.333333  0.000000  0.000000      2.000000
  0.375000  0.000000  0.000000      2.000000
  0.416667  0.000000  0.000000      2.000000
  0.458333  0.000000  0.000000      2.000000
  0.500000  0.000000  0.000000      1.000000
  0.000000  0.027778  0.000000      2.000000
  0.041667  0.027778  0.000000      4.000000
  0.083333  0.027778  0.000000      4.000000
  0.125000  0.027778  0.000000      4.000000
  0.166667  0.027778  0.000000      4.000000
  0.208333  0.027778  0.000000      4.000000
  0.250000  0.027778  0.000000      4.000000
  0.291667  0.027778  0.000000      4.000000
  0.333333  0.027778  0.000000      4.000000
  0.375000  0.027778  0.000000      4.000000
  0.416667  0.027778  0.000000      4.000000
  0.458333  0.027778  0.000000      4.000000
  0.500000  0.027778  0.000000      2.000000
  0.000000  0.055556  0.000000      2.000000
  0.041667  0.055556  0.000000      4.000000
  0.083333  0.055556  0.000000      4.000000
  0.125000  0.055556  0.000000      4.000000
  0.166667  0.055556  0.000000      4.000000
  0.208333  0.055556  0.000000      4.000000
  0.250000  0.055556  0.000000      4.000000
  0.291667  0.055556  0.000000      4.000000
  0.333333  0.055556  0.000000      4.000000
  0.375000  0.055556  0.000000      4.000000
  0.416667  0.055556  0.000000      4.000000
  0.458333  0.055556  0.000000      4.000000
  0.500000  0.055556  0.000000      2.000000
  0.000000  0.083333  0.000000      2.000000
  0.041667  0.083333  0.000000      4.000000
  0.083333  0.083333  0.000000      4.000000
  0.125000  0.083333  0.000000      4.000000
  0.166667  0.083333  0.000000      4.000000
  0.208333  0.083333  0.000000      4.000000
  0.250000  0.083333  0.000000      4.000000
  0.291667  0.083333  0.000000      4.000000
  0.333333  0.083333  0.000000      4.000000
  0.375000  0.083333  0.000000      4.000000
  0.416667  0.083333  0.000000      4.000000
  0.458333  0.083333  0.000000      4.000000
  0.500000  0.083333  0.000000      2.000000
  0.000000  0.111111  0.000000      2.000000
  0.041667  0.111111  0.000000      4.000000
  0.083333  0.111111  0.000000      4.000000
  0.125000  0.111111  0.000000      4.000000
  0.166667  0.111111  0.000000      4.000000
  0.208333  0.111111  0.000000      4.000000
  0.250000  0.111111  0.000000      4.000000
  0.291667  0.111111  0.000000      4.000000
[...]
  0.458333  0.472222  0.000000      4.000000
  0.500000  0.472222  0.000000      2.000000
  0.000000  0.500000  0.000000      1.000000
  0.041667  0.500000  0.000000      2.000000
  0.083333  0.500000  0.000000      2.000000
  0.125000  0.500000  0.000000      2.000000
  0.166667  0.500000  0.000000      2.000000
  0.208333  0.500000  0.000000      2.000000
  0.250000  0.500000  0.000000      2.000000
  0.291667  0.500000  0.000000      2.000000
  0.333333  0.500000  0.000000      2.000000
  0.375000  0.500000  0.000000      2.000000
  0.416667  0.500000  0.000000      2.000000
  0.458333  0.500000  0.000000      2.000000
  0.500000  0.500000  0.000000      1.000000

 Following cartesian coordinates:
            Coordinates               Weight
  0.000000  0.000000  0.000000      1.000000
  0.009784  0.000000  0.000000      2.000000
  0.019569  0.000000  0.000000      2.000000
  0.029353  0.000000  0.000000      2.000000
  0.039137  0.000000  0.000000      2.000000
  0.048922  0.000000  0.000000      2.000000
  0.058706  0.000000  0.000000      2.000000
  0.068490  0.000000  0.000000      2.000000
  0.078275  0.000000  0.000000      2.000000
  0.088059  0.000000  0.000000      2.000000
  0.097843  0.000000  0.000000      2.000000
  0.107628  0.000000  0.000000      2.000000
  0.117412  0.000000  0.000000      1.000000
  0.000000  0.011037  0.000000      2.000000
  0.009784  0.011037  0.000000      4.000000
  0.019569  0.011037  0.000000      4.000000
  0.029353  0.011037  0.000000      4.000000
  0.039137  0.011037  0.000000      4.000000
  0.048922  0.011037  0.000000      4.000000
  0.058706  0.011037  0.000000      4.000000
  0.068490  0.011037  0.000000      4.000000
  0.078275  0.011037  0.000000      4.000000
  0.088059  0.011037  0.000000      4.000000
  0.097843  0.011037  0.000000      4.000000
  0.107628  0.011037  0.000000      4.000000
  0.117412  0.011037  0.000000      2.000000
  0.000000  0.022073  0.000000      2.000000
  0.009784  0.022073  0.000000      4.000000
  0.019569  0.022073  0.000000      4.000000
  0.029353  0.022073  0.000000      4.000000
  0.039137  0.022073  0.000000      4.000000
  0.048922  0.022073  0.000000      4.000000
  0.058706  0.022073  0.000000      4.000000
  0.068490  0.022073  0.000000      4.000000
  0.078275  0.022073  0.000000      4.000000
  0.088059  0.022073  0.000000      4.000000
  0.097843  0.022073  0.000000      4.000000
  0.107628  0.022073  0.000000      4.000000
  0.117412  0.022073  0.000000      2.000000
  0.000000  0.033110  0.000000      2.000000
  0.009784  0.033110  0.000000      4.000000
  0.019569  0.033110  0.000000      4.000000
  0.029353  0.033110  0.000000      4.000000
  0.039137  0.033110  0.000000      4.000000
  0.048922  0.033110  0.000000      4.000000
  0.058706  0.033110  0.000000      4.000000
  0.068490  0.033110  0.000000      4.000000
  0.078275  0.033110  0.000000      4.000000
  0.088059  0.033110  0.000000      4.000000
  0.097843  0.033110  0.000000      4.000000
  0.107628  0.033110  0.000000      4.000000
  0.117412  0.033110  0.000000      2.000000
  0.000000  0.044146  0.000000      2.000000
  0.009784  0.044146  0.000000      4.000000
  0.019569  0.044146  0.000000      4.000000
  0.029353  0.044146  0.000000      4.000000
  0.039137  0.044146  0.000000      4.000000
  0.048922  0.044146  0.000000      4.000000
  0.058706  0.044146  0.000000      4.000000
  0.068490  0.044146  0.000000      4.000000
[...]
  0.107628  0.187621  0.000000      4.000000
  0.117412  0.187621  0.000000      2.000000
  0.000000  0.198658  0.000000      1.000000
  0.009784  0.198658  0.000000      2.000000
  0.019569  0.198658  0.000000      2.000000
  0.029353  0.198658  0.000000      2.000000
  0.039137  0.198658  0.000000      2.000000
  0.048922  0.198658  0.000000      2.000000
  0.058706  0.198658  0.000000      2.000000
  0.068490  0.198658  0.000000      2.000000
  0.078275  0.198658  0.000000      2.000000
  0.088059  0.198658  0.000000      2.000000
  0.097843  0.198658  0.000000      2.000000
  0.107628  0.198658  0.000000      2.000000
  0.117412  0.198658  0.000000      1.000000

 I would recommend the setting:
   dimension x,y,z NGX =    62 NGY =   37 NGZ =  287
[...]
 k-point ** :   0.5000 0.2778 0.0000  plane waves:   42770
 k-point ** :   0.0000 0.3056 0.0000  plane waves:   42876
 k-point ** :   0.0417 0.3056 0.0000  plane waves:   42894
 k-point ** :   0.0833 0.3056 0.0000  plane waves:   42880
 k-point ** :   0.1250 0.3056 0.0000  plane waves:   42872
 k-point ** :   0.1667 0.3056 0.0000  plane waves:   42865
 k-point ** :   0.2083 0.3056 0.0000  plane waves:   42860
 k-point ** :   0.2500 0.3056 0.0000  plane waves:   42825
 k-point ** :   0.2917 0.3056 0.0000  plane waves:   42808
 k-point ** :   0.3333 0.3056 0.0000  plane waves:   42821
 k-point ** :   0.3750 0.3056 0.0000  plane waves:   42799
 k-point ** :   0.4167 0.3056 0.0000  plane waves:   42778
 k-point ** :   0.4583 0.3056 0.0000  plane waves:   42776
 k-point ** :   0.5000 0.3056 0.0000  plane waves:   42760
 k-point ** :   0.0000 0.3333 0.0000  plane waves:   42908
 k-point ** :   0.0417 0.3333 0.0000  plane waves:   42905
 k-point ** :   0.0833 0.3333 0.0000  plane waves:   42905
[...]
 k-point ** :   0.4583 0.4722 0.0000  plane waves:   42810
 k-point ** :   0.5000 0.4722 0.0000  plane waves:   42800
 k-point ** :   0.0000 0.5000 0.0000  plane waves:   42846
 k-point ** :   0.0417 0.5000 0.0000  plane waves:   42856
 k-point ** :   0.0833 0.5000 0.0000  plane waves:   42888
 k-point ** :   0.1250 0.5000 0.0000  plane waves:   42868
 k-point ** :   0.1667 0.5000 0.0000  plane waves:   42862
 k-point ** :   0.2083 0.5000 0.0000  plane waves:   42870
 k-point ** :   0.2500 0.5000 0.0000  plane waves:   42894
 k-point ** :   0.2917 0.5000 0.0000  plane waves:   42914
 k-point ** :   0.3333 0.5000 0.0000  plane waves:   42876
 k-point ** :   0.3750 0.5000 0.0000  plane waves:   42866
 k-point ** :   0.4167 0.5000 0.0000  plane waves:   42818
 k-point ** :   0.4583 0.5000 0.0000  plane waves:   42796
 k-point ** :   0.5000 0.5000 0.0000  plane waves:   42776

 maximum and minimum number of plane-waves per node :     21485    21323

 maximum number of plane-waves:     42938
 maximum index in each direction:
   IXMAX=   15   IYMAX=    9   IZMAX=   71
   IXMIN=  -16   IYMIN=   -9   IZMIN=  -71

 NGX is ok and might be reduce to  64
 NGY is ok and might be reduce to  38
 NGZ is ok and might be reduce to 286

 parallel 3D FFT for wavefunctions:
    minimum data exchange during FFTs selected (reduces bandwidth)
 parallel 3D FFT for charge:
    minimum data exchange during FFTs selected (reduces bandwidth)

 Broyden mixing: mesh for mixing (old mesh)
   NGX = 31   NGY = 19   NGZ =143
  (NGX  =128   NGY  = 80   NGZ  =576)
  gives a total of  84227 points

 initial charge density was supplied:
 charge density of overlapping atoms calculated
 number of electron      16.0000000 magnetization
 keeping initial charge density in first step

 Maximum index for augmentation-charges         5073 (set IRDMAX)

 First call to EWALD:  gamma=   0.298
 Maximum number of real-space cells 4x 6x 1
 Maximum number of reciprocal cells 2x 1x 8

 FEWALD executed in parallel

----------------------------------------- Iteration    1(   1)  ---------------------------------------

 eigenvalue-minimisations  :  5928
 total energy-change (2. order) : 0.1879945E+03  (-0.1056565E+04)
 number of electron      16.0000000 magnetization
 augmentation part       16.0000000 magnetization

 Free energy of the ion-electron system (eV)
  alpha Z        PSCENC =         6.18334092
  Ewald energy   TEWEN  =      2476.25607232
  -Hartree energ DENC   =     -2904.94863948
  -exchange      EXHF   =         0.00000000
  -V(xc)+E(xc)   XCENC  =        54.87243460
  PAW double counting   =       151.32577238     -155.92769107
  entropy T*S    EENTRO =        -0.00193875
  eigenvalues    EBANDS =       -28.38841797
  atomic energy  EATOM  =       588.62352690
  free energy    TOTEN  =       187.99445987 eV

  energy without entropy =      187.99639861  energy(sigma->0) =      187.99542924

[...]

 eigenvalue-minimisations  : 10420
 total energy-change (2. order) :-0.1975239E+03  (-0.1775724E+03)
 number of electron      16.0000000 magnetization
 augmentation part       16.0000000 magnetization

[...]

 Broyden mixing:
  rms(total) = 0.71537E+00    rms(broyden)= 0.71537E+00
  rms(prec ) = 0.77930E+00
  weight for this iteration     100.00

[...]

 eigenvalues of (default mixing * dielectric matrix)
  average eigenvalue GAMMA=   2.3052
  2.3052

[...]

WARNING in EDDRMM: call to ZHEGV failed, returncode =   6  3  1

[...]

 average (electrostatic) potential at core
  the test charge radii are     0.6991
  (the norm of the test charge is              1.0000)
       1 -58.2899       2 -58.2899       3 -58.2899       4 -58.2899

 E-fermi :  -2.8106     XC(G=0):  -2.1706     alpha+bet : -1.9046

 k-point     1 :       0.0000    0.0000    0.0000
  band No.  band energies     occupation
      1     -22.1151      2.00000
      2     -16.7658      2.00000
      3     -15.8849      2.00000
      4     -10.2520      2.00000
      5      -9.4170      2.00000
      6      -5.9557      2.00000
      7      -5.7474      2.00000
      8      -4.9447      2.00000
      9      -1.1274      0.00000
     10       0.5406      0.00000
     11       1.3392      0.00000
     12       2.6377      0.00000

[...]

 soft charge-density along one line, spin component           1
         0         1         2         3         4         5         6         7         8         9
 total charge-density along one line

------------------------ aborting loop because EDIFF is reached ----------------------------------------

  FORCE on cell =-STRESS in cart. coord.  units (eV):
  Direction    XX          YY          ZZ          XY          YZ          ZX
  Alpha Z     6.18334     6.18334     6.18334
  Ewald    3010.60094  3008.06742 -3542.41252    -0.00000     0.00000    -0.00000
  Hartree  2947.85575  2947.04151 -2924.42157     0.00000    -0.00000    -0.00000
  E(xc)     -58.05704   -58.03284   -60.36982    -0.00000    -0.00000    -0.00000
  Local   -6131.33175 -6128.45683  6261.40454     0.00000    -0.00000    -0.00000
  n-local   -13.84838   -13.19116   -12.53731     0.08232    -0.00000     0.00000
  augment    -1.49287    -1.49015    -1.38009     0.00000    -0.00000     0.00000
  Kinetic   240.09035   235.51771   273.53208    -4.63452     0.00000    -0.00000
  Fock        0.00000     0.00000     0.00000     0.00000     0.00000     0.00000
  Total       0.00034    -4.36099    -0.00135     0.00000     0.00000     0.00000
  in kB       0.00255   -33.13958    -0.01022     0.00000     0.00000     0.00000

 VOLUME and BASIS-vectors are now :
  energy-cutoff  :     2000.00
  volume of cell :      210.84
      direct lattice vectors                 reciprocal lattice vectors
     4.258504402  0.000000000  0.000000000     0.234824226  0.000000000  0.000000000
     0.000000000  2.516894460  0.000000000     0.000000000  0.397315031  0.000000000
     0.000000000  0.000000000 19.671006390     0.000000000  0.000000000  0.050836240

[...]

 FORCES acting on ions
    electron-ion (+dipol)            ewald-force                    non-local-force                 convergence-correction
   -.429E+01 -.312E-15 0.756E-09   0.429E+01 -.330E-14 0.607E-18   0.369E-02 0.694E-17 0.000E+00   0.106E-06 -.150E-14 -.827E-13
   0.429E+01 -.183E-12 -.272E-08   -.429E+01 0.913E-14 0.311E-18   -.369E-02 -.347E-17 0.000E+00   -.106E-06 -.507E-15 -.821E-13
   -.429E+01 0.590E-12 0.761E-09   0.429E+01 -.594E-14 0.260E-18   0.369E-02 0.694E-17 0.000E+00   0.106E-06 -.429E-15 -.827E-13
   0.429E+01 -.713E-15 -.269E-08   -.429E+01 0.649E-14 -.118E-17   -.369E-02 -.347E-17 0.000E+00   -.106E-06 -.154E-14 -.822E-13
   -.243E-06 0.406E-12 -.389E-08   0.266E-14 0.638E-14 0.000E+00   0.000E+00 0.694E-17 0.000E+00   -.239E-13 -.398E-14 -.330E-12

 POSITION                                       TOTAL-FORCE (eV/Angst)
      0.00221      0.00000      0.00000         0.000559     -0.000000      0.000000
      0.70754      1.25845      0.00000        -0.000559     -0.000000     -0.000000
      2.13146      1.25845      0.00000         0.000559      0.000000      0.000000
      2.83679      0.00000      0.00000        -0.000559      0.000000     -0.000000
    total drift:                               -0.000000      0.000000     -0.000000

  FREE ENERGIE OF THE ION-ELECTRON SYSTEM (eV)
  free  energy   TOTEN  =       -36.88181203 eV

  energy  without entropy=      -36.88181168  energy(sigma->0) =      -36.88181186

 Quasi-Newton relaxation of ions (Broydens 2nd method)
  g(Force)  = 0.604E-07   g(Stress)= 0.000E+00

 Reset! Starting new Quasi-Newton update for ions

[...]

 d Force =-0.9157605E-07[-0.244E-06, 0.604E-07]  d Energy =-0.9675944E-07 0.518E-08
 d Force = 0.4622972E-03[ 0.462E-03, 0.463E-03]  d Ewald  = 0.4622972E-03 0.100E-10

[...]

 retain information from N=  1 steps
 eigenvalues of (default step * inverse Hessian matrix)
  average eigenvalue of G=   0.1987
 eigenvalue spectrum of G is  0.1987

[...]

WARNING in EDDRMM: call to ZHEGV failed, returncode =   6  3  1

[...]

 d Force = 0.9724837E-07[-0.655E-09, 0.195E-06]  d Energy = 0.1013423E-06-0.409E-08
 d Force =-0.3703576E-03[-0.371E-03,-0.370E-03]  d Ewald  =-0.3703576E-03-0.773E-11

[...]

 eigenvalue-minimisations  :  4836
 total energy-change (2. order) : 0.5184120E-09  ( 0.5975071E-09)
 number of electron      16.0000000 magnetization
 augmentation part        0.3744037 magnetization

[...]

 eigenvalue-minimisations  :  3132
 total energy-change (2. order) :-0.8004690E-09  ( 0.1889024E-12)
 number of electron      16.0000000 magnetization
 augmentation part        0.3744037 magnetization

[...]

 d Force =-0.3936972E-12[-0.298E-11, 0.219E-11]  d Energy = 0.3792593E-09-0.380E-09
 d Force = 0.1240856E-05[ 0.124E-05, 0.124E-05]  d Ewald  = 0.1240856E-05 0.455E-12

[...]

 d Force = 0.9962221E-12[ 0.275E-12, 0.172E-11]  d Energy =-0.2488605E-09 0.250E-09
 d Force =-0.7148142E-06[-0.715E-06,-0.715E-06]  d Ewald  =-0.7148137E-06-0.455E-12

[...]

 d Force = 0.5599007E-13[ 0.596E-13, 0.524E-13]  d Energy = 0.1033413E-09-0.103E-09
 d Force =-0.1361876E-06[-0.136E-06,-0.136E-06]  d Ewald  =-0.1361877E-06 0.000E+00

[...]

 eigenvalue-minimisations  :   500
 total energy-change (2. order) :-0.1147100E-09  ( 0.7730442E-14)
 number of electron      16.0000000 magnetization
 augmentation part        0.3744037 magnetization

[...]

 eigenvalue-minimisations  :   407
 total energy-change (2. order) : 0.9345058E-10  (-0.1039498E-13)
 number of electron      16.0000000 magnetization
 augmentation part        0.3744037 magnetization

[...]

 d Force =-0.1551582E-11[-0.261E-11,-0.491E-12]  d Energy = 0.5366019E-10-0.552E-10
 d Force = 0.1120699E-05[ 0.112E-05, 0.112E-05]  d Ewald  = 0.1120699E-05-0.455E-12

[...]

 FEWALD executed in parallel

[...]

 eigenvalue-minimisations  :   814
 total energy-change (2. order) : 0.1531362E-09  ( 0.2366625E-13)
 number of electron      16.0000000 magnetization
 augmentation part        0.3744037 magnetization

 Broyden mixing:
  rms(total) = 0.17775E-08    rms(broyden)= 0.17775E-08
  rms(prec ) = 0.18715E-08
  weight for this iteration     100.00

 eigenvalues of (default mixing * dielectric matrix)
  average eigenvalue GAMMA=   1.5623
  2.5883  2.0363  0.0622

[...]

----------------------------------------- Iteration    8(   5)  ---------------------------------------

 eigenvalue-minimisations  :   667
 total energy-change (2. order) :-0.4774847E-10  (-0.1201097E-12)
 number of electron      16.0000000 magnetization
 augmentation part        0.3744037 magnetization

 Free energy of the ion-electron system (eV)
  alpha Z        PSCENC =         6.18334092
  Ewald energy   TEWEN  =      2476.25598025
  -Hartree energ DENC   =     -2970.47560853
  -exchange      EXHF   =         0.00000000
  -V(xc)+E(xc)   XCENC  =        57.21679617
  PAW double counting   =       270.42589131     -275.54460585
  entropy T*S    EENTRO =        -0.00000035
  eigenvalues    EBANDS =      -189.56713287
  atomic energy  EATOM  =       588.62352690
  free energy    TOTEN  =       -36.88181204 eV

  energy without entropy =      -36.88181169  energy(sigma->0) =      -36.88181186

 average (electrostatic) potential at core
  the test charge radii are     0.6991
  (the norm of the test charge is              1.0000)
       1 -58.2899       2 -58.2899       3 -58.2899       4 -58.2899

 E-fermi :  -2.8106     XC(G=0):  -2.1702     alpha+bet : -1.9046

[...]

 k-point   247 :       0.5000    0.5000    0.0000
  band No.  band energies     occupation
      1     -17.1031      2.00000
      2     -17.1031      2.00000
      3     -15.8687      2.00000
      4     -15.8687      2.00000
      5      -9.0053      2.00000
      6      -9.0053      2.00000
      7      -5.2052      2.00000
      8      -5.2052      2.00000
      9      -1.1550      0.00000
     10      -1.1550      0.00000
     11       4.5954      0.00000
     12       4.5954      0.00000

 soft charge-density along one line, spin component           1
         0         1         2         3         4         5         6         7         8         9
 total charge-density along one line

------------------------ aborting loop because EDIFF is reached ----------------------------------------

  FORCE on cell =-STRESS in cart. coord.  units (eV):
  Direction    XX          YY          ZZ          XY          YZ          ZX
  Alpha Z     6.18334     6.18334     6.18334
  Ewald    3010.59629  3008.07198 -3542.41252     0.00000     0.00000    -0.00000
  Hartree  2947.85509  2947.04210 -2924.42158    -0.00000     0.00000    -0.00000
  E(xc)     -58.05705   -58.03282   -60.36981    -0.00000     0.00000    -0.00000
  Local   -6131.32735 -6128.46112  6261.40457     0.00000     0.00000    -0.00000
  n-local   -13.84842   -13.19112   -12.53730     0.08232    -0.00000     0.00000
  augment    -1.49286    -1.49015    -1.38009     0.00000    -0.00000    -0.00000
  Kinetic   240.09102   235.51699   273.53205    -4.63454     0.00000    -0.00000
  Fock        0.00000     0.00000     0.00000     0.00000     0.00000     0.00000
  Total       0.00005    -4.36080    -0.00134     0.00000     0.00000     0.00000
  in kB       0.00041   -33.13813    -0.01021     0.00000     0.00000     0.00000

 VOLUME and BASIS-vectors are now :
  energy-cutoff  :     2000.00
  volume of cell :      210.84
      direct lattice vectors                 reciprocal lattice vectors
     4.258504402  0.000000000  0.000000000     0.234824226  0.000000000  0.000000000
     0.000000000  2.516894460  0.000000000     0.000000000  0.397315031  0.000000000
     0.000000000  0.000000000 19.671006390     0.000000000  0.000000000  0.050836240

  length of vectors
     4.258504402  2.516894460 19.671006390     0.234824226  0.397315031  0.050836240

 FORCES acting on ions
    electron-ion (+dipol)            ewald-force                    non-local-force                 convergence-correction
   -.429E+01 -.215E-15 0.757E-09   0.429E+01 -.159E-14 0.124E-17   0.349E-02 -.694E-17 0.606E-27   -.929E-08 -.227E-14 -.373E-12
   0.429E+01 0.242E-13 -.271E-08   -.429E+01 0.771E-14 -.666E-18   -.349E-02 0.347E-17 -.121E-26   0.929E-08 -.156E-14 -.329E-12
   -.429E+01 0.712E-12 0.740E-09   0.429E+01 -.452E-14 0.173E-18   0.349E-02 -.694E-17 0.000E+00   -.929E-08 -.762E-14 -.381E-12
   0.429E+01 -.313E-15 -.272E-08   -.429E+01 0.477E-14 -.744E-18   -.349E-02 0.347E-17 0.000E+00   0.929E-08 0.370E-14 -.430E-12
   -.243E-06 0.735E-12 -.393E-08   0.266E-14 0.638E-14 0.963E-34   0.434E-18 -.694E-17 -.606E-27   -.196E-13 -.775E-14 -.151E-11

 POSITION                                       TOTAL-FORCE (eV/Angst)
      0.00222      0.00000     -0.00000         0.000001      0.000000     -0.000000
      0.70753      1.25845      0.00000        -0.000001     -0.000000      0.000000
      2.13147      1.25845     -0.00000         0.000001      0.000000     -0.000000
      2.83679     -0.00000      0.00000        -0.000001     -0.000000      0.000000
    total drift:                               -0.000000      0.000000     -0.000000

  FREE ENERGIE OF THE ION-ELECTRON SYSTEM (eV)
  free  energy   TOTEN  =       -36.88181204 eV

  energy  without entropy=      -36.88181169  energy(sigma->0) =      -36.88181186

 d Force = 0.1506376E-11[-0.204E-12, 0.322E-11]  d Energy =-0.1913349E-09 0.193E-09
 d Force =-0.1379771E-05[-0.138E-05,-0.138E-05]  d Ewald  =-0.1379771E-05 0.000E+00

 Quasi-Newton relaxation of ions (Broydens 2nd method)
  g(Force)  = 0.773E-13   g(Stress)= 0.000E+00

 retain information from N=  1 steps
 eigenvalues of (default step * inverse Hessian matrix)
  average eigenvalue of G=   0.1571
 eigenvalue spectrum of G is  0.1571

 reached required accuracy - stopping structural energy minimisation