 vasp.5.3.5 31Mar14 (build Mar 02 2015 18:14:16) complex

 executed on             LinuxIFC date 2018.08.10  15:18:19

 INCAR:
 POTCAR:   PAW_PBE C 08Apr2002
 POTCAR:   PAW_PBE C 08Apr2002
   VRHFIN =C: s2p2

   TITEL  = PAW_PBE C 08Apr2002
   POMASS =   12.011; ZVAL   =    4.000    mass and valenz
   ENMAX  =  400.000; ENMIN  =  300.000 eV
   QCUT   =   -5.516; QGAM   =   11.032    optimization parameters

   Description
     l     E      TYP  RCUT    TYP  RCUT
     0   .000     23  1.200
     0   .000     23  1.200
     1   .000     23  1.500
     1  2.500     23  1.500
     2   .000      7  1.500

 PAW_PBE C 08Apr2002                    :

 POSCAR: MD-kMC export data
  positions in direct lattice
  velocities in cartesian coordinates
 exchange correlation table for  LEXCH =        8
   RHO(1)=    0.500       N(1)  =     2000
   RHO(2)=  100.500       N(2)  =     4000

 ion  position               nearest neighbor table
   1  0.000  0.000  0.000-   2 1.42   2 1.42   4 1.43
   2  0.167  0.500  0.000-   1 1.42   1 1.42   3 1.43
   3  0.500  0.500  0.000-   4 1.42   4 1.42   2 1.43
   4  0.667  0.000  0.000-   3 1.42   3 1.42   1 1.43

  LATTYP: Found a simple orthorhombic cell.
 ALAT       =     2.4670525225
 B/A-ratio  =     1.7323557167
 C/A-ratio  =     8.1054368138

  Lattice vectors:

 A1 = (   0.0000000000,  -2.4670525225,   0.0000000000)
 A2 = (  -4.2738125409,   0.0000000000,   0.0000000000)
 A3 = (   0.0000000000,   0.0000000000, -19.9965383379)

Analysis of symmetry for initial positions (statically):
 Subroutine PRICEL returns following result:

  LATTYP: Found a base centered orthorhombic cell.
 ALAT       =     2.4670525225
 B/A-ratio  =     1.7323557167
 C/A-ratio  =     8.1054368138

[...]

   2 primitive cells build up your supercell.

 Routine SETGRP: Setting up the symmetry group for a
 simple orthorhombic supercell.

 Subroutine GETGRP returns: Found  8 space group operations
 (whereof  4 operations were pure point group operations)
 out of a pool of  8 trial point group operations.

The static configuration has the point symmetry C_2v.
 The point group associated with its full space group is D_2h.

Analysis of symmetry for dynamics (positions and initial velocities):
 Subroutine PRICEL returns following result:

  LATTYP: Found a base centered orthorhombic cell.
 ALAT       =     2.4670525225
 B/A-ratio  =     1.7323557167
 C/A-ratio  =     8.1054368138

  Lattice vectors:

 A1 = (   2.1369062705,  -1.2335262613,   0.0000000000)
 A2 = (  -2.1369062705,  -1.2335262613,   0.0000000000)
 A3 = (   0.0000000000,   0.0000000000, -19.9965383379)

   2 primitive cells build up your supercell.

 Routine SETGRP: Setting up the symmetry group for a
 simple orthorhombic supercell.

 Subroutine GETGRP returns: Found  8 space group operations
 (whereof  4 operations were pure point group operations)
 out of a pool of  8 trial point group operations.

The dynamic configuration has the point symmetry C_2v.
 The point group associated with its full space group is D_2h.

 KPOINTS: Automatic mesh

Automatic generation of k-mesh.
Space group operators:
 irot       det(A)        alpha          n_x          n_y          n_z        tau_x        tau_y        tau_z
    1     1.000000     0.000001     1.000000     0.000000     0.000000     0.000000     0.000000     0.000000
    2    -1.000000   180.000000     0.000000     0.000000     1.000000     0.000000     0.000000     0.000000
    3     1.000000   180.000000     1.000000     0.000000     0.000000     0.000000     0.000000     0.000000
    4    -1.000000   180.000000     0.000000     1.000000     0.000000     0.000000     0.000000     0.000000
    5    -1.000000     0.000001     1.000000     0.000000     0.000000     0.166667    -0.500000     0.000000
    6     1.000000   180.000000     0.000000     0.000000     1.000000     0.166667    -0.500000     0.000000
    7    -1.000000   180.000000     1.000000     0.000000     0.000000     0.166667    -0.500000     0.000000
    8     1.000000   180.000000     0.000000     1.000000     0.000000     0.166667    -0.500000     0.000000

 Subroutine IBZKPT returns following result:

 Found    247 irreducible k-points:

 Following reciprocal coordinates:
            Coordinates               Weight
  0.000000  0.000000  0.000000      1.000000
  0.041667  0.000000  0.000000      2.000000
  0.083333  0.000000  0.000000      2.000000
  0.125000  0.000000  0.000000      2.000000
  0.166667  0.000000  0.000000      2.000000
  0.208333  0.000000  0.000000      2.000000
  0.250000  0.000000  0.000000      2.000000
  0.291667  0.000000  0.000000      2.000000
  0.333333  0.000000  0.000000      2.000000
  0.375000  0.000000  0.000000      2.000000
  0.416667  0.000000  0.000000      2.000000
  0.458333  0.000000  0.000000      2.000000
  0.500000  0.000000  0.000000      1.000000
  0.000000  0.027778  0.000000      2.000000
  0.041667  0.027778  0.000000      4.000000
  0.083333  0.027778  0.000000      4.000000
  0.125000  0.027778  0.000000      4.000000
  0.166667  0.027778  0.000000      4.000000
  0.208333  0.027778  0.000000      4.000000
  0.250000  0.027778  0.000000      4.000000
  0.291667  0.027778  0.000000      4.000000
  0.333333  0.027778  0.000000      4.000000
  0.375000  0.027778  0.000000      4.000000
  0.416667  0.027778  0.000000      4.000000
  0.458333  0.027778  0.000000      4.000000
  0.500000  0.027778  0.000000      2.000000
  0.000000  0.055556  0.000000      2.000000
  0.041667  0.055556  0.000000      4.000000
  0.083333  0.055556  0.000000      4.000000
  0.125000  0.055556  0.000000      4.000000
  0.166667  0.055556  0.000000      4.000000
  0.208333  0.055556  0.000000      4.000000
  0.250000  0.055556  0.000000      4.000000
  0.291667  0.055556  0.000000      4.000000
  0.333333  0.055556  0.000000      4.000000
  0.375000  0.055556  0.000000      4.000000
  0.416667  0.055556  0.000000      4.000000
  0.458333  0.055556  0.000000      4.000000
  0.500000  0.055556  0.000000      2.000000
  0.000000  0.083333  0.000000      2.000000
  0.041667  0.083333  0.000000      4.000000
  0.083333  0.083333  0.000000      4.000000
  0.125000  0.083333  0.000000      4.000000
  0.166667  0.083333  0.000000      4.000000
  0.208333  0.083333  0.000000      4.000000
  0.250000  0.083333  0.000000      4.000000
  0.291667  0.083333  0.000000      4.000000
  0.333333  0.083333  0.000000      4.000000
  0.375000  0.083333  0.000000      4.000000
  0.416667  0.083333  0.000000      4.000000
  0.458333  0.083333  0.000000      4.000000
  0.500000  0.083333  0.000000      2.000000
  0.000000  0.111111  0.000000      2.000000
  0.041667  0.111111  0.000000      4.000000
  0.083333  0.111111  0.000000      4.000000
  0.125000  0.111111  0.000000      4.000000
  0.166667  0.111111  0.000000      4.000000
  0.208333  0.111111  0.000000      4.000000
  0.250000  0.111111  0.000000      4.000000
  0.291667  0.111111  0.000000      4.000000
[...]
  0.458333  0.472222  0.000000      4.000000
  0.500000  0.472222  0.000000      2.000000
  0.000000  0.500000  0.000000      1.000000
  0.041667  0.500000  0.000000      2.000000
  0.083333  0.500000  0.000000      2.000000
  0.125000  0.500000  0.000000      2.000000
  0.166667  0.500000  0.000000      2.000000
  0.208333  0.500000  0.000000      2.000000
  0.250000  0.500000  0.000000      2.000000
  0.291667  0.500000  0.000000      2.000000
  0.333333  0.500000  0.000000      2.000000
  0.375000  0.500000  0.000000      2.000000
  0.416667  0.500000  0.000000      2.000000
  0.458333  0.500000  0.000000      2.000000
  0.500000  0.500000  0.000000      1.000000

 Following cartesian coordinates:
            Coordinates               Weight
  0.000000  0.000000  0.000000      1.000000
  0.009749  0.000000  0.000000      2.000000
  0.019499  0.000000  0.000000      2.000000
  0.029248  0.000000  0.000000      2.000000
  0.038997  0.000000  0.000000      2.000000
  0.048746  0.000000  0.000000      2.000000
  0.058496  0.000000  0.000000      2.000000
  0.068245  0.000000  0.000000      2.000000
  0.077994  0.000000  0.000000      2.000000
  0.087744  0.000000  0.000000      2.000000
  0.097493  0.000000  0.000000      2.000000
  0.107242  0.000000  0.000000      2.000000
  0.116992  0.000000  0.000000      1.000000
  0.000000  0.011259  0.000000      2.000000
  0.009749  0.011259  0.000000      4.000000
  0.019499  0.011259  0.000000      4.000000
  0.029248  0.011259  0.000000      4.000000
  0.038997  0.011259  0.000000      4.000000
  0.048746  0.011259  0.000000      4.000000
  0.058496  0.011259  0.000000      4.000000
  0.068245  0.011259  0.000000      4.000000
  0.077994  0.011259  0.000000      4.000000
  0.087744  0.011259  0.000000      4.000000
  0.097493  0.011259  0.000000      4.000000
  0.107242  0.011259  0.000000      4.000000
  0.116992  0.011259  0.000000      2.000000
  0.000000  0.022519  0.000000      2.000000
  0.009749  0.022519  0.000000      4.000000
  0.019499  0.022519  0.000000      4.000000
  0.029248  0.022519  0.000000      4.000000
  0.038997  0.022519  0.000000      4.000000
  0.048746  0.022519  0.000000      4.000000
  0.058496  0.022519  0.000000      4.000000
  0.068245  0.022519  0.000000      4.000000
  0.077994  0.022519  0.000000      4.000000
  0.087744  0.022519  0.000000      4.000000
  0.097493  0.022519  0.000000      4.000000
  0.107242  0.022519  0.000000      4.000000
  0.116992  0.022519  0.000000      2.000000
  0.000000  0.033778  0.000000      2.000000
  0.009749  0.033778  0.000000      4.000000
  0.019499  0.033778  0.000000      4.000000
  0.029248  0.033778  0.000000      4.000000
  0.038997  0.033778  0.000000      4.000000
  0.048746  0.033778  0.000000      4.000000
  0.058496  0.033778  0.000000      4.000000
  0.068245  0.033778  0.000000      4.000000
  0.077994  0.033778  0.000000      4.000000
  0.087744  0.033778  0.000000      4.000000
  0.097493  0.033778  0.000000      4.000000
  0.107242  0.033778  0.000000      4.000000
  0.116992  0.033778  0.000000      2.000000
  0.000000  0.045038  0.000000      2.000000
  0.009749  0.045038  0.000000      4.000000
  0.019499  0.045038  0.000000      4.000000
  0.029248  0.045038  0.000000      4.000000
  0.038997  0.045038  0.000000      4.000000
  0.048746  0.045038  0.000000      4.000000
  0.058496  0.045038  0.000000      4.000000
  0.068245  0.045038  0.000000      4.000000
[...]
  0.107242  0.191411  0.000000      4.000000
  0.116992  0.191411  0.000000      2.000000
  0.000000  0.202671  0.000000      1.000000
  0.009749  0.202671  0.000000      2.000000
  0.019499  0.202671  0.000000      2.000000
  0.029248  0.202671  0.000000      2.000000
  0.038997  0.202671  0.000000      2.000000
  0.048746  0.202671  0.000000      2.000000
  0.058496  0.202671  0.000000      2.000000
  0.068245  0.202671  0.000000      2.000000
  0.077994  0.202671  0.000000      2.000000
  0.087744  0.202671  0.000000      2.000000
  0.097493  0.202671  0.000000      2.000000
  0.107242  0.202671  0.000000      2.000000
  0.116992  0.202671  0.000000      1.000000

 I would recommend the setting:
   dimension x,y,z NGX =    62 NGY =   36 NGZ =  292
[...]
 k-point ** :   0.3333 0.3056 0.0000  plane waves:   42840
 k-point ** :   0.3750 0.3056 0.0000  plane waves:   42828
 k-point ** :   0.4167 0.3056 0.0000  plane waves:   42820
 k-point ** :   0.4583 0.3056 0.0000  plane waves:   42816
 k-point ** :   0.5000 0.3056 0.0000  plane waves:   42852
 k-point ** :   0.0000 0.3333 0.0000  plane waves:   42912
 k-point ** :   0.0417 0.3333 0.0000  plane waves:   42899
 k-point ** :   0.0833 0.3333 0.0000  plane waves:   42871
[...]
 k-point ** :   0.4583 0.4722 0.0000  plane waves:   42813
 k-point ** :   0.5000 0.4722 0.0000  plane waves:   42830
 k-point ** :   0.0000 0.5000 0.0000  plane waves:   42878
 k-point ** :   0.0417 0.5000 0.0000  plane waves:   42948
 k-point ** :   0.0833 0.5000 0.0000  plane waves:   42932
 k-point ** :   0.1250 0.5000 0.0000  plane waves:   42930
 k-point ** :   0.1667 0.5000 0.0000  plane waves:   42910
 k-point ** :   0.2083 0.5000 0.0000  plane waves:   42938
 k-point ** :   0.2500 0.5000 0.0000  plane waves:   42932
 k-point ** :   0.2917 0.5000 0.0000  plane waves:   42888
 k-point ** :   0.3333 0.5000 0.0000  plane waves:   42854
 k-point ** :   0.3750 0.5000 0.0000  plane waves:   42814
 k-point ** :   0.4167 0.5000 0.0000  plane waves:   42796
 k-point ** :   0.4583 0.5000 0.0000  plane waves:   42818
 k-point ** :   0.5000 0.5000 0.0000  plane waves:   42816

 maximum and minimum number of plane-waves per node :     21508    21250

 maximum number of plane-waves:     42948
 maximum index in each direction:
   IXMAX=   15   IYMAX=    8   IZMAX=   72
   IXMIN=  -16   IYMIN=   -9   IZMIN=  -72

 NGX is ok and might be reduce to  64
 NGY is ok and might be reduce to  36
 NGZ is ok and might be reduce to 290

 parallel 3D FFT for wavefunctions:
    minimum data exchange during FFTs selected (reduces bandwidth)
 parallel 3D FFT for charge:
    minimum data exchange during FFTs selected (reduces bandwidth)

 Broyden mixing: mesh for mixing (old mesh)
   NGX = 31   NGY = 17   NGZ =145
  (NGX  =128   NGY  = 72   NGZ  =588)
  gives a total of  76415 points

 initial charge density was supplied:
 charge density of overlapping atoms calculated
 number of electron      16.0000000 magnetization
 keeping initial charge density in first step

 Maximum index for augmentation-charges         4659 (set IRDMAX)

 First call to EWALD:  gamma=   0.298
 Maximum number of real-space cells 4x 6x 1
 Maximum number of reciprocal cells 2x 1x 8

 FEWALD executed in parallel

----------------------------------------- Iteration    1(   1)  ---------------------------------------

 eigenvalue-minimisations  :  5928
 total energy-change (2. order) : 0.1906800E+03  (-0.1059922E+04)
 number of electron      16.0000000 magnetization
 augmentation part       16.0000000 magnetization

 Free energy of the ion-electron system (eV)
  alpha Z        PSCENC =         6.18334092
  Ewald energy   TEWEN  =      2585.69091270
  -Hartree energ DENC   =     -3011.10636546
  -exchange      EXHF   =         0.00000000
  -V(xc)+E(xc)   XCENC  =        55.09529400
  PAW double counting   =       151.32577238     -155.92769107
  entropy T*S    EENTRO =        -0.00135744
  eigenvalues    EBANDS =       -29.20346284
  atomic energy  EATOM  =       588.62352690
  free energy    TOTEN  =       190.67997010 eV

  energy without entropy =      190.68132754  energy(sigma->0) =      190.68064882

[...]

 eigenvalue-minimisations  : 10508
 total energy-change (2. order) :-0.2001652E+03  (-0.1777207E+03)
 number of electron      16.0000000 magnetization
 augmentation part       16.0000000 magnetization

[...]

 Broyden mixing:
  rms(total) = 0.73682E+00    rms(broyden)= 0.73682E+00
  rms(prec ) = 0.80104E+00
  weight for this iteration     100.00

[...]

 eigenvalues of (default mixing * dielectric matrix)
  average eigenvalue GAMMA=   2.3078
  2.3078

[...]

 average (electrostatic) potential at core
  the test charge radii are     0.6991
  (the norm of the test charge is              1.0000)
       1 -58.1901       2 -58.1901       3 -58.1901       4 -58.1901

 E-fermi :  -2.7540     XC(G=0):  -2.1424     alpha+bet : -1.9046

 k-point     1 :       0.0000    0.0000    0.0000
  band No.  band energies     occupation
      1     -22.2529      2.00000
      2     -17.0264      2.00000
      3     -15.9628      2.00000
      4     -10.3584      2.00000
      5      -9.1640      2.00000
      6      -5.8026      2.00000
      7      -5.7697      2.00000
      8      -5.1200      2.00000
      9      -1.0625      0.00000
     10       0.5240      0.00000
     11       1.3253      0.00000
     12       1.7074      0.00000

[...]

 soft charge-density along one line, spin component           1
         0         1         2         3         4         5         6         7         8         9
 total charge-density along one line

------------------------ aborting loop because EDIFF is reached ----------------------------------------

  FORCE on cell =-STRESS in cart. coord.  units (eV):
  Direction    XX          YY          ZZ          XY          YZ          ZX
  Alpha Z     6.18334     6.18334     6.18334
  Ewald    3122.64271  3123.67606 -3660.62813     0.00000     0.00000    -0.00000
  Hartree  3056.90290  3057.04931 -3034.31325    -0.00000    -0.00000    -0.00000
  E(xc)     -58.33971   -58.33603   -60.67687     0.00000    -0.00000    -0.00000
  Local   -6352.09596 -6353.07862  6488.78678     0.00000    -0.00000    -0.00000
  n-local   -13.94754   -13.94450   -12.76608     0.05688    -0.00000     0.00000
  augment    -1.54074    -1.54232    -1.41421     0.00000    -0.00000    -0.00000
  Kinetic   240.15183   240.02576   274.82710    -4.60149     0.00000    -0.00000
  Fock        0.00000     0.00000     0.00000     0.00000     0.00000     0.00000
  Total      -0.04317     0.03300    -0.00132     0.00000     0.00000     0.00000
  in kB      -0.32807     0.25076    -0.01002     0.00000     0.00000     0.00000

 VOLUME and BASIS-vectors are now :
  energy-cutoff  :     2000.00
  volume of cell :      210.84
      direct lattice vectors                 reciprocal lattice vectors
     4.273812541  0.000000000  0.000000000     0.233983122  0.000000000  0.000000000
     0.000000000  2.467052523  0.000000000     0.000000000  0.405341999  0.000000000
     0.000000000  0.000000000 19.996538338     0.000000000  0.000000000  0.050008656

[...]

 FORCES acting on ions
    electron-ion (+dipol)            ewald-force                    non-local-force                 convergence-correction
   0.200E+00 -.111E-14 0.286E-09   -.238E+00 -.491E-14 0.377E-31   -.214E-01 0.000E+00 0.000E+00   -.246E-06 0.151E-14 0.194E-12
   -.200E+00 0.117E-13 -.454E-08   0.238E+00 0.102E-13 -.847E-20   0.214E-01 -.347E-17 0.000E+00   0.246E-06 -.227E-14 0.195E-12
   0.200E+00 0.588E-12 0.300E-09   -.238E+00 -.698E-14 -.377E-31   -.214E-01 0.139E-16 -.103E-24   -.246E-06 0.149E-14 0.194E-12
   -.200E+00 0.813E-15 -.454E-08   0.238E+00 0.811E-14 0.847E-20   0.214E-01 -.104E-16 0.258E-24   0.246E-06 -.221E-14 0.195E-12
   -.455E-06 0.600E-12 -.849E-08   0.197E-14 0.640E-14 -.451E-35   0.694E-17 0.000E+00 0.155E-24   -.884E-12 -.148E-14 0.779E-12

 POSITION                                       TOTAL-FORCE (eV/Angst)
      0.00056      0.00000      0.00000        -0.059579      0.000000      0.000000
      0.71174      1.23353      0.00000         0.059579     -0.000000     -0.000000
      2.13747      1.23353      0.00000        -0.059579     -0.000000      0.000000
      2.84865      0.00000      0.00000         0.059579      0.000000     -0.000000
    total drift:                               -0.000000      0.000000     -0.000000

  FREE ENERGIE OF THE ION-ELECTRON SYSTEM (eV)
  free  energy   TOTEN  =       -36.92541800 eV

  energy  without entropy=      -36.92529125  energy(sigma->0) =      -36.92535463

 Quasi-Newton relaxation of ions (Broydens 2nd method)
  g(Force)  = 0.685E-03   g(Stress)= 0.000E+00

 Reset! Starting new Quasi-Newton update for ions

[...]

 d Force =-0.1040769E-02[-0.277E-02, 0.685E-03]  d Energy =-0.1033030E-02-0.774E-05
 d Force =-0.3166881E-02[-0.907E-02, 0.273E-02]  d Ewald  =-0.3147825E-02-0.191E-04

[...]

 retain information from N=  1 steps
 eigenvalues of (default step * inverse Hessian matrix)
  average eigenvalue of G=   0.1985
 eigenvalue spectrum of G is  0.1985

[...]

WARNING in EDDRMM: call to ZHEGV failed, returncode =   6  3  1

[...]

 d Force = 0.1106299E-02[-0.488E-05, 0.222E-02]  d Energy = 0.1101610E-02 0.469E-05
 d Force = 0.3469902E-02[-0.329E-03, 0.727E-02]  d Ewald  = 0.3460085E-02 0.982E-05

[...]

WARNING in EDDRMM: call to ZHEGV failed, returncode =   6  3  1

[...]

 d Force = 0.5280792E-08[-0.159E-09, 0.107E-07]  d Energy = 0.5400580E-08-0.120E-09
 d Force = 0.7045253E-06[ 0.686E-06, 0.723E-06]  d Ewald  = 0.7045255E-06-0.455E-12

[...]

 eigenvalue-minimisations  :  4996
 total energy-change (2. order) : 0.3524292E-09  ( 0.5733905E-09)
 number of electron      16.0000000 magnetization
 augmentation part        0.3818090 magnetization

[...]

 eigenvalue-minimisations  :  3005
 total energy-change (2. order) :-0.3602736E-09  ( 0.3327511E-13)
 number of electron      16.0000000 magnetization
 augmentation part        0.3818090 magnetization

[...]

 d Force =-0.6596214E-12[-0.365E-11, 0.233E-11]  d Energy =-0.2432898E-10 0.237E-10
 d Force =-0.1004692E-07[-0.101E-07,-0.100E-07]  d Ewald  =-0.1004628E-07-0.455E-12

[...]

 eigenvalue-minimisations  :   754
 total energy-change (2. order) : 0.2384013E-09  (-0.5004227E-14)
 number of electron      16.0000000 magnetization
 augmentation part        0.3818090 magnetization

[...]

 d Force = 0.1284703E-11[ 0.342E-12, 0.223E-11]  d Energy = 0.2876277E-10-0.275E-10
 d Force = 0.6132901E-08[ 0.613E-08, 0.613E-08]  d Ewald  = 0.6132268E-08 0.455E-12

[...]

 eigenvalue-minimisations  :   430
 total energy-change (2. order) :-0.4974936E-09  (-0.2187551E-14)
 number of electron      16.0000000 magnetization
 augmentation part        0.3818090 magnetization

[...]

 d Force = 0.7724944E-13[ 0.923E-13, 0.622E-13]  d Energy =-0.1326725E-09 0.133E-09
 d Force = 0.1113948E-08[ 0.111E-08, 0.111E-08]  d Ewald  = 0.1115041E-08-0.909E-12

[...]

 Broyden mixing:
  rms(total) = 0.11960E-10    rms(broyden)= 0.10168E-10
  rms(prec ) = 0.12969E-10
  weight for this iteration     100.00
  WARNING: grid for Broyden might be to small

[...]

 Broyden mixing:
  rms(total) = 0.17559E-10    rms(broyden)= 0.14852E-10
  rms(prec ) = 0.27138E-10
  weight for this iteration     100.00
  WARNING: grid for Broyden might be to small

[...]

 d Force =-0.4575353E-12[-0.632E-12,-0.283E-12]  d Energy = 0.2825118E-09-0.283E-09
 d Force =-0.3418117E-08[-0.342E-08,-0.342E-08]  d Ewald  =-0.3418791E-08 0.455E-12

[...]

 FEWALD executed in parallel

[...]

 eigenvalue-minimisations  :   444
 total energy-change (2. order) : 0.5163656E-09  ( 0.0000000E+00)
 number of electron      16.0000000 magnetization
 augmentation part        0.3818090 magnetization

[...]

 Broyden mixing:
  rms(total) = 0.28575E-10    rms(broyden)= 0.27937E-10
  rms(prec ) = 0.39461E-10
  weight for this iteration     100.00

 eigenvalues of (default mixing * dielectric matrix)
  average eigenvalue GAMMA=   2.1343
  2.6982  2.5610  2.5610  0.7171

[...]

----------------------------------------- Iteration    9(   6)  ---------------------------------------

 eigenvalue-minimisations  :   510
 total energy-change (2. order) :-0.9981704E-10  ( 0.0000000E+00)
 number of electron      16.0000000 magnetization
 augmentation part        0.3818090 magnetization

 Free energy of the ion-electron system (eV)
  alpha Z        PSCENC =         6.18334092
  Ewald energy   TEWEN  =      2585.69059974
  -Hartree energ DENC   =     -3079.63871180
  -exchange      EXHF   =         0.00000000
  -V(xc)+E(xc)   XCENC  =        57.51942711
  PAW double counting   =       277.01034988     -282.15889883
  entropy T*S    EENTRO =        -0.00013055
  eigenvalues    EBANDS =      -190.15498997
  atomic energy  EATOM  =       588.62352690
  free energy    TOTEN  =       -36.92548659 eV

  energy without entropy =      -36.92535604  energy(sigma->0) =      -36.92542131

 average (electrostatic) potential at core
  the test charge radii are     0.6991
  (the norm of the test charge is              1.0000)
       1 -58.1901       2 -58.1901       3 -58.1901       4 -58.1901

 E-fermi :  -2.7540     XC(G=0):  -2.1424     alpha+bet : -1.9046

[...]

 k-point   247 :       0.5000    0.5000    0.0000
  band No.  band energies     occupation
      1     -17.0193      2.00000
      2     -17.0193      2.00000
      3     -15.9726      2.00000
      4     -15.9726      2.00000
      5      -9.1594      2.00000
      6      -9.1594      2.00000
      7      -5.1098      2.00000
      8      -5.1098      2.00000
      9      -1.0755      0.00000
     10      -1.0755      0.00000
     11       4.6044      0.00000
     12       4.6044      0.00000

 soft charge-density along one line, spin component           1
         0         1         2         3         4         5         6         7         8         9
 total charge-density along one line

------------------------ aborting loop because EDIFF is reached ----------------------------------------

  FORCE on cell =-STRESS in cart. coord.  units (eV):
  Direction    XX          YY          ZZ          XY          YZ          ZX
  Alpha Z     6.18334     6.18334     6.18334
  Ewald    3123.14710  3123.17136 -3660.62813    -0.00000     0.00000     0.00000
  Hartree  3056.97223  3056.97972 -3034.31324    -0.00000    -0.00000    -0.00000
  E(xc)     -58.33778   -58.33793   -60.67686    -0.00000    -0.00000    -0.00000
  Local   -6352.57321 -6352.60106  6488.78686     0.00000    -0.00000     0.00000
  n-local   -13.94347   -13.94858   -12.76607     0.05622     0.00000     0.00000
  augment    -1.54153    -1.54152    -1.41421     0.00000    -0.00000     0.00000
  Kinetic   240.07221   240.10516   274.82698    -4.59897    -0.00000    -0.00000
  Fock        0.00000     0.00000     0.00000     0.00000     0.00000     0.00000
  Total      -0.02113     0.01050    -0.00132     0.00000     0.00000     0.00000
  in kB      -0.16055     0.07979    -0.01003     0.00000     0.00000     0.00000

 VOLUME and BASIS-vectors are now :
  energy-cutoff  :     2000.00
  volume of cell :      210.84
      direct lattice vectors                 reciprocal lattice vectors
     4.273812541  0.000000000  0.000000000     0.233983122  0.000000000  0.000000000
     0.000000000  2.467052523  0.000000000     0.000000000  0.405341999  0.000000000
     0.000000000  0.000000000 19.996538338     0.000000000  0.000000000  0.050008656

  length of vectors
     4.273812541  2.467052523 19.996538338     0.233983122  0.405341999  0.050008656

 FORCES acting on ions
    electron-ion (+dipol)            ewald-force                    non-local-force                 convergence-correction
   0.339E-01 0.133E-15 -.742E-11   -.339E-01 0.226E-14 0.165E-17   0.198E-04 0.347E-17 0.000E+00   -.768E-11 0.257E-16 0.148E-12
   -.339E-01 -.198E-12 -.520E-08   0.339E-01 0.414E-14 -.796E-18   -.198E-04 -.347E-17 0.000E+00   0.769E-11 -.121E-14 0.153E-12
   0.339E-01 -.155E-12 -.171E-10   -.339E-01 0.202E-14 0.197E-18   0.198E-04 0.347E-17 0.000E+00   -.770E-11 0.376E-15 0.155E-12
   -.339E-01 0.128E-15 -.520E-08   0.339E-01 -.202E-14 -.105E-17   -.198E-04 -.347E-17 0.000E+00   0.770E-11 -.164E-14 0.150E-12
   -.479E-06 -.352E-12 -.104E-07   0.181E-14 0.640E-14 0.000E+00   -.136E-19 0.000E+00 0.000E+00   0.336E-14 -.244E-14 0.606E-12

 POSITION                                       TOTAL-FORCE (eV/Angst)
     -0.00001      0.00000     -0.00000        -0.000000     -0.000000      0.000000
      0.71232      1.23353      0.00000         0.000000      0.000000     -0.000000
      2.13689      1.23353     -0.00000        -0.000000      0.000000      0.000000
      2.84922     -0.00000      0.00000         0.000000      0.000000     -0.000000
    total drift:                               -0.000000     -0.000000     -0.000000

  FREE ENERGIE OF THE ION-ELECTRON SYSTEM (eV)
  free  energy   TOTEN  =       -36.92548659 eV

  energy  without entropy=      -36.92535604  energy(sigma->0) =      -36.92542131

 d Force = 0.6179224E-12[ 0.909E-13, 0.114E-11]  d Energy =-0.1111857E-09 0.112E-09
 d Force = 0.6192748E-08[ 0.619E-08, 0.619E-08]  d Ewald  = 0.6192749E-08 0.000E+00

 Quasi-Newton relaxation of ions (Broydens 2nd method)
  g(Force)  = 0.478E-13   g(Stress)= 0.000E+00

 retain information from N=  1 steps
 eigenvalues of (default step * inverse Hessian matrix)
  average eigenvalue of G=   0.1639
 eigenvalue spectrum of G is  0.1639

 reached required accuracy - stopping structural energy minimisation