 vasp.5.3.5 31Mar14 (build Mar 02 2015 18:14:16) complex

 executed on             LinuxIFC date 2018.08.10  14:32:03

 INCAR:
 POTCAR:   PAW_PBE C 08Apr2002
 POTCAR:   PAW_PBE C 08Apr2002
   VRHFIN =C: s2p2

   TITEL  = PAW_PBE C 08Apr2002
   POMASS =   12.011; ZVAL   =    4.000    mass and valenz
   ENMAX  =  400.000; ENMIN  =  300.000 eV
   QCUT   =   -5.516; QGAM   =   11.032    optimization parameters

   Description
     l     E      TYP  RCUT    TYP  RCUT
     0   .000     23  1.200
     0   .000     23  1.200
     1   .000     23  1.500
     1  2.500     23  1.500
     2   .000      7  1.500

 PAW_PBE C 08Apr2002                    :

 POSCAR: MD-kMC export data
  positions in direct lattice
  velocities in cartesian coordinates
 exchange correlation table for  LEXCH =        8
   RHO(1)=    0.500       N(1)  =     2000
   RHO(2)=  100.500       N(2)  =     4000

 ion  position               nearest neighbor table
   1  0.999  0.000  0.000-   2 1.43   2 1.43   4 1.46
   2  0.167  0.500  0.000-   1 1.43   1 1.43   3 1.46
   3  0.499  0.500  0.000-   4 1.43   4 1.43   2 1.46
   4  0.667  0.000  0.000-   3 1.43   3 1.43   1 1.46

  LATTYP: Found a simple orthorhombic cell.
 ALAT       =     2.4555006947
 B/A-ratio  =     1.7922309417
 C/A-ratio  =     7.9457432915

  Lattice vectors:

 A1 = (   0.0000000000,  -2.4555006947,   0.0000000000)
 A2 = (  -4.4008243224,   0.0000000000,   0.0000000000)
 A3 = (   0.0000000000,   0.0000000000, -19.5107781722)

Analysis of symmetry for initial positions (statically):
 Subroutine PRICEL returns following result:

  LATTYP: Found a base centered orthorhombic cell.
 ALAT       =     2.4555006947
 B/A-ratio  =     1.7922309417
 C/A-ratio  =     7.9457432915

[...]

   2 primitive cells build up your supercell.

 Routine SETGRP: Setting up the symmetry group for a
 simple orthorhombic supercell.

 Subroutine GETGRP returns: Found  8 space group operations
 (whereof  4 operations were pure point group operations)
 out of a pool of  8 trial point group operations.

The static configuration has the point symmetry C_2v.
 The point group associated with its full space group is D_2h.

Analysis of symmetry for dynamics (positions and initial velocities):
 Subroutine PRICEL returns following result:

  LATTYP: Found a base centered orthorhombic cell.
 ALAT       =     2.4555006947
 B/A-ratio  =     1.7922309417
 C/A-ratio  =     7.9457432915

  Lattice vectors:

 A1 = (   2.2004121612,  -1.2277503474,   0.0000000000)
 A2 = (  -2.2004121612,  -1.2277503474,   0.0000000000)
 A3 = (   0.0000000000,   0.0000000000, -19.5107781722)

   2 primitive cells build up your supercell.

 Routine SETGRP: Setting up the symmetry group for a
 simple orthorhombic supercell.

 Subroutine GETGRP returns: Found  8 space group operations
 (whereof  4 operations were pure point group operations)
 out of a pool of  8 trial point group operations.

The dynamic configuration has the point symmetry C_2v.
 The point group associated with its full space group is D_2h.

 KPOINTS: Automatic mesh

Automatic generation of k-mesh.
Space group operators:
 irot       det(A)        alpha          n_x          n_y          n_z        tau_x        tau_y        tau_z
    1     1.000000     0.000000     1.000000     0.000000     0.000000     0.000000     0.000000     0.000000
    2    -1.000000   179.999999     0.000000     0.000000     1.000000     0.000000     0.000000     0.000000
    3     1.000000   180.000000     1.000000     0.000000     0.000000     0.000000     0.000000     0.000000
    4    -1.000000   180.000000     0.000000     1.000000     0.000000     0.000000     0.000000     0.000000
    5    -1.000000     0.000000     1.000000     0.000000     0.000000     0.166667    -0.500000     0.000000
    6     1.000000   179.999999     0.000000     0.000000     1.000000     0.166667    -0.500000     0.000000
    7    -1.000000   180.000000     1.000000     0.000000     0.000000     0.166667    -0.500000     0.000000
    8     1.000000   180.000000     0.000000     1.000000     0.000000     0.166667    -0.500000     0.000000

 Subroutine IBZKPT returns following result:

 Found    247 irreducible k-points:

 Following reciprocal coordinates:
            Coordinates               Weight
  0.000000  0.000000  0.000000      1.000000
  0.041667  0.000000  0.000000      2.000000
  0.083333  0.000000  0.000000      2.000000
  0.125000  0.000000  0.000000      2.000000
  0.166667  0.000000  0.000000      2.000000
  0.208333  0.000000  0.000000      2.000000
  0.250000  0.000000  0.000000      2.000000
  0.291667  0.000000  0.000000      2.000000
  0.333333  0.000000  0.000000      2.000000
  0.375000  0.000000  0.000000      2.000000
  0.416667  0.000000  0.000000      2.000000
  0.458333  0.000000  0.000000      2.000000
  0.500000  0.000000  0.000000      1.000000
  0.000000  0.027778  0.000000      2.000000
  0.041667  0.027778  0.000000      4.000000
  0.083333  0.027778  0.000000      4.000000
  0.125000  0.027778  0.000000      4.000000
  0.166667  0.027778  0.000000      4.000000
  0.208333  0.027778  0.000000      4.000000
  0.250000  0.027778  0.000000      4.000000
  0.291667  0.027778  0.000000      4.000000
  0.333333  0.027778  0.000000      4.000000
  0.375000  0.027778  0.000000      4.000000
  0.416667  0.027778  0.000000      4.000000
  0.458333  0.027778  0.000000      4.000000
  0.500000  0.027778  0.000000      2.000000
  0.000000  0.055556  0.000000      2.000000
  0.041667  0.055556  0.000000      4.000000
  0.083333  0.055556  0.000000      4.000000
  0.125000  0.055556  0.000000      4.000000
  0.166667  0.055556  0.000000      4.000000
  0.208333  0.055556  0.000000      4.000000
  0.250000  0.055556  0.000000      4.000000
  0.291667  0.055556  0.000000      4.000000
  0.333333  0.055556  0.000000      4.000000
  0.375000  0.055556  0.000000      4.000000
  0.416667  0.055556  0.000000      4.000000
  0.458333  0.055556  0.000000      4.000000
  0.500000  0.055556  0.000000      2.000000
  0.000000  0.083333  0.000000      2.000000
  0.041667  0.083333  0.000000      4.000000
  0.083333  0.083333  0.000000      4.000000
  0.125000  0.083333  0.000000      4.000000
  0.166667  0.083333  0.000000      4.000000
  0.208333  0.083333  0.000000      4.000000
  0.250000  0.083333  0.000000      4.000000
  0.291667  0.083333  0.000000      4.000000
  0.333333  0.083333  0.000000      4.000000
  0.375000  0.083333  0.000000      4.000000
  0.416667  0.083333  0.000000      4.000000
  0.458333  0.083333  0.000000      4.000000
  0.500000  0.083333  0.000000      2.000000
  0.000000  0.111111  0.000000      2.000000
  0.041667  0.111111  0.000000      4.000000
  0.083333  0.111111  0.000000      4.000000
  0.125000  0.111111  0.000000      4.000000
  0.166667  0.111111  0.000000      4.000000
  0.208333  0.111111  0.000000      4.000000
  0.250000  0.111111  0.000000      4.000000
  0.291667  0.111111  0.000000      4.000000
[...]
  0.458333  0.472222  0.000000      4.000000
  0.500000  0.472222  0.000000      2.000000
  0.000000  0.500000  0.000000      1.000000
  0.041667  0.500000  0.000000      2.000000
  0.083333  0.500000  0.000000      2.000000
  0.125000  0.500000  0.000000      2.000000
  0.166667  0.500000  0.000000      2.000000
  0.208333  0.500000  0.000000      2.000000
  0.250000  0.500000  0.000000      2.000000
  0.291667  0.500000  0.000000      2.000000
  0.333333  0.500000  0.000000      2.000000
  0.375000  0.500000  0.000000      2.000000
  0.416667  0.500000  0.000000      2.000000
  0.458333  0.500000  0.000000      2.000000
  0.500000  0.500000  0.000000      1.000000

 Following cartesian coordinates:
            Coordinates               Weight
  0.000000  0.000000  0.000000      1.000000
  0.009468  0.000000  0.000000      2.000000
  0.018936  0.000000  0.000000      2.000000
  0.028404  0.000000  0.000000      2.000000
  0.037872  0.000000  0.000000      2.000000
  0.047340  0.000000  0.000000      2.000000
  0.056808  0.000000  0.000000      2.000000
  0.066275  0.000000  0.000000      2.000000
  0.075743  0.000000  0.000000      2.000000
  0.085211  0.000000  0.000000      2.000000
  0.094679  0.000000  0.000000      2.000000
  0.104147  0.000000  0.000000      2.000000
  0.113615  0.000000  0.000000      1.000000
  0.000000  0.011312  0.000000      2.000000
  0.009468  0.011312  0.000000      4.000000
  0.018936  0.011312  0.000000      4.000000
  0.028404  0.011312  0.000000      4.000000
  0.037872  0.011312  0.000000      4.000000
  0.047340  0.011312  0.000000      4.000000
  0.056808  0.011312  0.000000      4.000000
  0.066275  0.011312  0.000000      4.000000
  0.075743  0.011312  0.000000      4.000000
  0.085211  0.011312  0.000000      4.000000
  0.094679  0.011312  0.000000      4.000000
  0.104147  0.011312  0.000000      4.000000
  0.113615  0.011312  0.000000      2.000000
  0.000000  0.022625  0.000000      2.000000
  0.009468  0.022625  0.000000      4.000000
  0.018936  0.022625  0.000000      4.000000
  0.028404  0.022625  0.000000      4.000000
  0.037872  0.022625  0.000000      4.000000
  0.047340  0.022625  0.000000      4.000000
  0.056808  0.022625  0.000000      4.000000
  0.066275  0.022625  0.000000      4.000000
  0.075743  0.022625  0.000000      4.000000
  0.085211  0.022625  0.000000      4.000000
  0.094679  0.022625  0.000000      4.000000
  0.104147  0.022625  0.000000      4.000000
  0.113615  0.022625  0.000000      2.000000
  0.000000  0.033937  0.000000      2.000000
  0.009468  0.033937  0.000000      4.000000
  0.018936  0.033937  0.000000      4.000000
  0.028404  0.033937  0.000000      4.000000
  0.037872  0.033937  0.000000      4.000000
  0.047340  0.033937  0.000000      4.000000
  0.056808  0.033937  0.000000      4.000000
  0.066275  0.033937  0.000000      4.000000
  0.075743  0.033937  0.000000      4.000000
  0.085211  0.033937  0.000000      4.000000
  0.094679  0.033937  0.000000      4.000000
  0.104147  0.033937  0.000000      4.000000
  0.113615  0.033937  0.000000      2.000000
  0.000000  0.045250  0.000000      2.000000
  0.009468  0.045250  0.000000      4.000000
  0.018936  0.045250  0.000000      4.000000
  0.028404  0.045250  0.000000      4.000000
  0.037872  0.045250  0.000000      4.000000
  0.047340  0.045250  0.000000      4.000000
  0.056808  0.045250  0.000000      4.000000
  0.066275  0.045250  0.000000      4.000000
[...]
  0.104147  0.192312  0.000000      4.000000
  0.113615  0.192312  0.000000      2.000000
  0.000000  0.203624  0.000000      1.000000
  0.009468  0.203624  0.000000      2.000000
  0.018936  0.203624  0.000000      2.000000
  0.028404  0.203624  0.000000      2.000000
  0.037872  0.203624  0.000000      2.000000
  0.047340  0.203624  0.000000      2.000000
  0.056808  0.203624  0.000000      2.000000
  0.066275  0.203624  0.000000      2.000000
  0.075743  0.203624  0.000000      2.000000
  0.085211  0.203624  0.000000      2.000000
  0.094679  0.203624  0.000000      2.000000
  0.104147  0.203624  0.000000      2.000000
  0.113615  0.203624  0.000000      1.000000

 I would recommend the setting:
   dimension x,y,z NGX =    64 NGY =   36 NGZ =  285
[...]
 k-point ** :   0.4167 0.2778 0.0000  plane waves:   42852
 k-point ** :   0.4583 0.2778 0.0000  plane waves:   42857
 k-point ** :   0.5000 0.2778 0.0000  plane waves:   42874
 k-point ** :   0.0000 0.3056 0.0000  plane waves:   42804
 k-point ** :   0.0417 0.3056 0.0000  plane waves:   42813
 k-point ** :   0.0833 0.3056 0.0000  plane waves:   42829
 k-point ** :   0.1250 0.3056 0.0000  plane waves:   42861
 k-point ** :   0.1667 0.3056 0.0000  plane waves:   42868
 k-point ** :   0.2083 0.3056 0.0000  plane waves:   42869
 k-point ** :   0.2500 0.3056 0.0000  plane waves:   42846
 k-point ** :   0.2917 0.3056 0.0000  plane waves:   42857
 k-point ** :   0.3333 0.3056 0.0000  plane waves:   42850
 k-point ** :   0.3750 0.3056 0.0000  plane waves:   42860
 k-point ** :   0.4167 0.3056 0.0000  plane waves:   42867
 k-point ** :   0.4583 0.3056 0.0000  plane waves:   42879
 k-point ** :   0.5000 0.3056 0.0000  plane waves:   42902
 k-point ** :   0.0000 0.3333 0.0000  plane waves:   42828
 k-point ** :   0.0417 0.3333 0.0000  plane waves:   42821
 k-point ** :   0.0833 0.3333 0.0000  plane waves:   42824
[...]
 k-point ** :   0.4583 0.4722 0.0000  plane waves:   42948
 k-point ** :   0.5000 0.4722 0.0000  plane waves:   42952
 k-point ** :   0.0000 0.5000 0.0000  plane waves:   42730
 k-point ** :   0.0417 0.5000 0.0000  plane waves:   42754
 k-point ** :   0.0833 0.5000 0.0000  plane waves:   42796
 k-point ** :   0.1250 0.5000 0.0000  plane waves:   42820
 k-point ** :   0.1667 0.5000 0.0000  plane waves:   42838
 k-point ** :   0.2083 0.5000 0.0000  plane waves:   42880
 k-point ** :   0.2500 0.5000 0.0000  plane waves:   42904
 k-point ** :   0.2917 0.5000 0.0000  plane waves:   42952
 k-point ** :   0.3333 0.5000 0.0000  plane waves:   42956
 k-point ** :   0.3750 0.5000 0.0000  plane waves:   42966
 k-point ** :   0.4167 0.5000 0.0000  plane waves:   42932
 k-point ** :   0.4583 0.5000 0.0000  plane waves:   42964
 k-point ** :   0.5000 0.5000 0.0000  plane waves:   42984

 maximum and minimum number of plane-waves per node :     21495    21299

 maximum number of plane-waves:     42984
 maximum index in each direction:
   IXMAX=   16   IYMAX=    8   IZMAX=   71
   IXMIN=  -16   IYMIN=   -9   IZMIN=  -71

 WARNING: aliasing errors must be expected set NGX to  66 to avoid them
 NGY is ok and might be reduce to  36
 NGZ is ok and might be reduce to 286
 aliasing errors are usually negligible using standard VASP settings
 and one can safely disregard these warnings

 parallel 3D FFT for wavefunctions:
    minimum data exchange during FFTs selected (reduces bandwidth)
 parallel 3D FFT for charge:
    minimum data exchange during FFTs selected (reduces bandwidth)

 Broyden mixing: mesh for mixing (old mesh)
   NGX = 33   NGY = 17   NGZ =143
  (NGX  =128   NGY  = 72   NGZ  =576)
  gives a total of  80223 points

 initial charge density was supplied:
 charge density of overlapping atoms calculated
 number of electron      16.0000000 magnetization
 keeping initial charge density in first step

 Maximum index for augmentation-charges         4575 (set IRDMAX)

 First call to EWALD:  gamma=   0.298
 Maximum number of real-space cells 4x 6x 1
 Maximum number of reciprocal cells 2x 1x 8

 FEWALD executed in parallel

----------------------------------------- Iteration    1(   1)  ---------------------------------------

 eigenvalue-minimisations  :  5928
 total energy-change (2. order) : 0.1858314E+03  (-0.1057232E+04)
 number of electron      16.0000000 magnetization
 augmentation part       16.0000000 magnetization

 Free energy of the ion-electron system (eV)
  alpha Z        PSCENC =         6.18334092
  Ewald energy   TEWEN  =      2423.14099550
  -Hartree energ DENC   =     -2853.42270465
  -exchange      EXHF   =         0.00000000
  -V(xc)+E(xc)   XCENC  =        54.76241050
  PAW double counting   =       151.32577238     -155.92769107
  entropy T*S    EENTRO =        -0.00132289
  eigenvalues    EBANDS =       -28.85296311
  atomic energy  EATOM  =       588.62352690
  free energy    TOTEN  =       185.83136448 eV

  energy without entropy =      185.83268737  energy(sigma->0) =      185.83202593

[...]

 eigenvalue-minimisations  : 10428
 total energy-change (2. order) :-0.1950547E+03  (-0.1739434E+03)
 number of electron      16.0000000 magnetization
 augmentation part       16.0000000 magnetization

[...]

 Broyden mixing:
  rms(total) = 0.70341E+00    rms(broyden)= 0.70341E+00
  rms(prec ) = 0.76695E+00
  weight for this iteration     100.00

[...]

 eigenvalues of (default mixing * dielectric matrix)
  average eigenvalue GAMMA=   2.3144
  2.3144

[...]

WARNING in EDDRMM: call to ZHEGV failed, returncode =   6  3  1
WARNING in EDDRMM: call to ZHEGV failed, returncode =   6  3  1
WARNING in EDDRMM: call to ZHEGV failed, returncode =   6  3  1
WARNING in EDDRMM: call to ZHEGV failed, returncode =   6  3  1
WARNING in EDDRMM: call to ZHEGV failed, returncode =   6  3  1
WARNING in EDDRMM: call to ZHEGV failed, returncode =   6  3  1
WARNING in EDDRMM: call to ZHEGV failed, returncode =   6  3  1
WARNING in EDDRMM: call to ZHEGV failed, returncode =   6  3  1
WARNING in EDDRMM: call to ZHEGV failed, returncode =   6  3  1

[...]

 average (electrostatic) potential at core
  the test charge radii are     0.6991
  (the norm of the test charge is              1.0000)
       1 -58.3394       2 -58.3394       3 -58.3394       4 -58.3394

 E-fermi :  -2.8374     XC(G=0):  -2.1869     alpha+bet : -1.9046

 k-point     1 :       0.0000    0.0000    0.0000
  band No.  band energies     occupation
      1     -22.0470      2.00000
      2     -17.3002      2.00000
      3     -15.8027      2.00000
      4     -10.1994      2.00000
      5      -8.7398      2.00000
      6      -6.0453      2.00000
      7      -5.7178      2.00000
      8      -5.3773      2.00000
      9      -1.2046      0.00000
     10       0.5489      0.00000
     11       1.3458      0.00000
     12       1.7364      0.00000

[...]

 soft charge-density along one line, spin component           1
         0         1         2         3         4         5         6         7         8         9
 total charge-density along one line

------------------------ aborting loop because EDIFF is reached ----------------------------------------

  FORCE on cell =-STRESS in cart. coord.  units (eV):
  Direction    XX          YY          ZZ          XY          YZ          ZX
  Alpha Z     6.18334     6.18334     6.18334
  Ewald    2951.90889  2956.17071 -3484.93880    -0.00000     0.00000    -0.00000
  Hartree  2893.55116  2894.98991 -2871.05090    -0.00000    -0.00000    -0.00000
  E(xc)     -57.88398   -57.91650   -60.21827    -0.00000    -0.00000    -0.00000
  Local   -6019.20472 -6024.25289  6150.91324    -0.00000    -0.00000     0.00000
  n-local   -12.83276   -13.78696   -12.42439     0.07033     0.00000    -0.00000
  augment    -1.46613    -1.46874    -1.36333    -0.00000     0.00000     0.00000
  Kinetic   233.32042   240.07895   272.89775    -4.42684    -0.00000     0.00000
  Fock        0.00000     0.00000     0.00000     0.00000     0.00000     0.00000
  Total      -6.42379    -0.00217    -0.00136     0.00000     0.00000     0.00000
  in kB     -48.81500    -0.01651    -0.01032     0.00000     0.00000     0.00000

 VOLUME and BASIS-vectors are now :
  energy-cutoff  :     2000.00
  volume of cell :      210.84
      direct lattice vectors                 reciprocal lattice vectors
     4.400824322  0.000000000  0.000000000     0.227230157  0.000000000  0.000000000
     0.000000000  2.455500695  0.000000000     0.000000000  0.407248918  0.000000000
     0.000000000  0.000000000 19.510778172     0.000000000  0.000000000  0.051253722

[...]

 FORCES acting on ions
    electron-ion (+dipol)            ewald-force                    non-local-force                 convergence-correction
   0.637E+01 0.375E-16 -.302E-08   -.636E+01 0.277E-14 -.569E-18   -.922E-02 0.000E+00 0.414E-24   -.236E-06 -.151E-14 -.837E-13
   -.637E+01 0.698E-14 -.120E-07   0.636E+01 0.449E-14 -.508E-19   0.922E-02 0.000E+00 -.207E-24   0.236E-06 0.382E-15 -.834E-13
   0.637E+01 -.210E-12 -.305E-08   -.636E+01 0.191E-14 0.544E-18   -.922E-02 0.000E+00 0.414E-24   -.236E-06 -.158E-14 -.837E-13
   -.637E+01 0.197E-15 -.120E-07   0.636E+01 0.363E-14 0.762E-19   0.922E-02 0.000E+00 -.207E-24   0.236E-06 0.446E-15 -.834E-13
   -.746E-06 -.202E-12 -.301E-07   0.000E+00 0.128E-13 0.000E+00   -.173E-17 0.000E+00 0.414E-24   -.200E-12 -.226E-14 -.334E-12

 POSITION                                       TOTAL-FORCE (eV/Angst)
      4.39814      0.00000      0.00000         0.001349      0.000000      0.000000
      0.73616      1.22775      0.00000        -0.001349     -0.000000     -0.000000
      2.19773      1.22775      0.00000         0.001349     -0.000000      0.000000
      2.93657      0.00000      0.00000        -0.001349      0.000000     -0.000000
    total drift:                               -0.000001     -0.000000     -0.000000

  FREE ENERGIE OF THE ION-ELECTRON SYSTEM (eV)
  free  energy   TOTEN  =       -36.83045710 eV

  energy  without entropy=      -36.83045710  energy(sigma->0) =      -36.83045710

 Quasi-Newton relaxation of ions (Broydens 2nd method)
  g(Force)  = 0.351E-06   g(Stress)= 0.000E+00

 Reset! Starting new Quasi-Newton update for ions

[...]

 d Force =-0.4543471E-06[-0.126E-05, 0.351E-06]  d Energy =-0.4374028E-06-0.169E-07
 d Force =-0.1659835E-02[-0.166E-02,-0.166E-02]  d Ewald  =-0.1659835E-02 0.206E-09

[...]

 retain information from N=  1 steps
 eigenvalues of (default step * inverse Hessian matrix)
  average eigenvalue of G=   0.2180
 eigenvalue spectrum of G is  0.2180

[...]

WARNING in EDDRMM: call to ZHEGV failed, returncode =   6  3  1

[...]

 d Force = 0.4936319E-06[ 0.198E-08, 0.985E-06]  d Energy = 0.4801236E-06 0.135E-07
 d Force = 0.1298456E-02[ 0.130E-02, 0.130E-02]  d Ewald  = 0.1298456E-02-0.973E-10

[...]

 eigenvalue-minimisations  :  5000
 total energy-change (2. order) : 0.7647714E-09  ( 0.5223196E-09)
 number of electron      16.0000000 magnetization
 augmentation part        0.3707709 magnetization

[...]

 eigenvalue-minimisations  :  2895
 total energy-change (2. order) :-0.4969252E-09  ( 0.4458697E-12)
 number of electron      16.0000000 magnetization
 augmentation part        0.3707709 magnetization

[...]

 d Force =-0.8240997E-12[-0.565E-11, 0.401E-11]  d Energy =-0.3193463E-09 0.319E-09
 d Force = 0.2617136E-05[ 0.262E-05, 0.262E-05]  d Ewald  = 0.2617137E-05-0.136E-11

[...]

 FEWALD executed in parallel

[...]

 eigenvalue-minimisations  :  1647
 total energy-change (2. order) :-0.5126140E-09  (-0.3601235E-13)
 number of electron      16.0000000 magnetization
 augmentation part        0.3707709 magnetization

[...]

 eigenvalue-minimisations  :  1549
 total energy-change (2. order) : 0.3126388E-10  (-0.9373572E-13)
 number of electron      16.0000000 magnetization
 augmentation part        0.3707709 magnetization

[...]

 Broyden mixing:
  rms(total) = 0.30355E-08    rms(broyden)= 0.30355E-08
  rms(prec ) = 0.38022E-08
  weight for this iteration     100.00

 eigenvalues of (default mixing * dielectric matrix)
  average eigenvalue GAMMA=   1.2155
  2.5485  0.5490  0.5490

[...]

----------------------------------------- Iteration    5(   5)  ---------------------------------------

 eigenvalue-minimisations  :  1409
 total energy-change (2. order) : 0.5002221E-11  ( 0.5648979E-13)
 number of electron      16.0000000 magnetization
 augmentation part        0.3707709 magnetization

 Free energy of the ion-electron system (eV)
  alpha Z        PSCENC =         6.18334092
  Ewald energy   TEWEN  =      2423.14135579
  -Hartree energ DENC   =     -2917.49049600
  -exchange      EXHF   =         0.00000000
  -V(xc)+E(xc)   XCENC  =        57.06739515
  PAW double counting   =       267.24546439     -272.34989922
  entropy T*S    EENTRO =        -0.00000000
  eigenvalues    EBANDS =      -189.25114507
  atomic energy  EATOM  =       588.62352690
  free energy    TOTEN  =       -36.83045714 eV

  energy without entropy =      -36.83045714  energy(sigma->0) =      -36.83045714

 average (electrostatic) potential at core
  the test charge radii are     0.6991
  (the norm of the test charge is              1.0000)
       1 -58.3394       2 -58.3394       3 -58.3394       4 -58.3394

 E-fermi :  -2.8372     XC(G=0):  -2.1841     alpha+bet : -1.9046

[...]

 k-point   247 :       0.5000    0.5000    0.0000
  band No.  band energies     occupation
      1     -16.8114      2.00000
      2     -16.8114      2.00000
      3     -15.8359      2.00000
      4     -15.8359      2.00000
      5      -9.3254      2.00000
      6      -9.3254      2.00000
      7      -4.9924      2.00000
      8      -4.9924      2.00000
      9      -1.1685      0.00000
     10      -1.1685      0.00000
     11       3.7627      0.00000
     12       3.7627      0.00000

 soft charge-density along one line, spin component           1
         0         1         2         3         4         5         6         7         8         9
 total charge-density along one line

------------------------ aborting loop because EDIFF is reached ----------------------------------------

  FORCE on cell =-STRESS in cart. coord.  units (eV):
  Direction    XX          YY          ZZ          XY          YZ          ZX
  Alpha Z     6.18334     6.18334     6.18334
  Ewald    2951.89689  2956.18307 -3484.93880     0.00000     0.00000    -0.00000
  Hartree  2893.54955  2894.99184 -2871.05089    -0.00000    -0.00000    -0.00000
  E(xc)     -57.88405   -57.91647   -60.21829     0.00000    -0.00000    -0.00000
  Local   -6019.19320 -6024.26489  6150.91316    -0.00000     0.00000    -0.00000
  n-local   -12.83287   -13.78686   -12.42441     0.07034    -0.00000     0.00000
  augment    -1.46612    -1.46876    -1.36333     0.00000     0.00000     0.00000
  Kinetic   233.32245   240.07715   272.89788    -4.42689     0.00000    -0.00000
  Fock        0.00000     0.00000     0.00000     0.00000     0.00000     0.00000
  Total      -6.42401    -0.00158    -0.00133     0.00000     0.00000     0.00000
  in kB     -48.81666    -0.01203    -0.01013     0.00000     0.00000     0.00000

 VOLUME and BASIS-vectors are now :
  energy-cutoff  :     2000.00
  volume of cell :      210.84
      direct lattice vectors                 reciprocal lattice vectors
     4.400824322  0.000000000  0.000000000     0.227230157  0.000000000  0.000000000
     0.000000000  2.455500695  0.000000000     0.000000000  0.407248918  0.000000000
     0.000000000  0.000000000 19.510778172     0.000000000  0.000000000  0.051253722

  length of vectors
     4.400824322  2.455500695 19.510778172     0.227230157  0.407248918  0.051253722

 FORCES acting on ions
    electron-ion (+dipol)            ewald-force                    non-local-force                 convergence-correction
   0.638E+01 0.634E-16 -.298E-08   -.637E+01 -.188E-14 -.111E-17   -.970E-02 0.000E+00 0.000E+00   -.313E-07 0.160E-14 -.451E-11
   -.638E+01 0.207E-12 -.120E-07   0.637E+01 0.935E-14 -.324E-18   0.970E-02 0.000E+00 0.000E+00   0.313E-07 -.231E-14 -.442E-11
   0.638E+01 -.265E-12 -.301E-08   -.637E+01 0.989E-15 0.246E-18   -.970E-02 0.000E+00 0.000E+00   -.313E-07 0.782E-14 -.394E-11
   -.638E+01 0.187E-15 -.120E-07   0.637E+01 0.434E-14 0.119E-17   0.970E-02 0.000E+00 0.404E-27   0.313E-07 -.786E-14 -.400E-11
   -.746E-06 -.575E-13 -.300E-07   0.000E+00 0.128E-13 -.193E-33   0.173E-17 0.000E+00 0.404E-27   0.296E-14 -.755E-15 -.169E-10

 POSITION                                       TOTAL-FORCE (eV/Angst)
      4.39815      0.00000      0.00000         0.000001      0.000000      0.000000
      0.73614      1.22775     -0.00000        -0.000001     -0.000000     -0.000000
      2.19774      1.22775      0.00000         0.000001      0.000000      0.000000
      2.93655      0.00000     -0.00000        -0.000001     -0.000000     -0.000000
    total drift:                               -0.000001     -0.000000     -0.000000

  FREE ENERGIE OF THE ION-ELECTRON SYSTEM (eV)
  free  energy   TOTEN  =       -36.83045714 eV

  energy  without entropy=      -36.83045714  energy(sigma->0) =      -36.83045714

 d Force = 0.1753550E-11[ 0.198E-12, 0.331E-11]  d Energy = 0.2568186E-09-0.255E-09
 d Force =-0.1531850E-05[-0.153E-05,-0.153E-05]  d Ewald  =-0.1531851E-05 0.455E-12

 Quasi-Newton relaxation of ions (Broydens 2nd method)
  g(Force)  = 0.131E-12   g(Stress)= 0.000E+00

 retain information from N=  1 steps
 eigenvalues of (default step * inverse Hessian matrix)
  average eigenvalue of G=   0.0964
 eigenvalue spectrum of G is  0.0964

 reached required accuracy - stopping structural energy minimisation