 vasp.5.3.5 31Mar14 (build Mar 02 2015 18:14:16) complex

 executed on             LinuxIFC date 2018.08.09  19:56:22

 INCAR:
 POTCAR:   PAW_PBE C 08Apr2002
 POTCAR:   PAW_PBE C 08Apr2002
   VRHFIN =C: s2p2

   TITEL  = PAW_PBE C 08Apr2002
   POMASS =   12.011; ZVAL   =    4.000    mass and valenz
   ENMAX  =  400.000; ENMIN  =  300.000 eV
   QCUT   =   -5.516; QGAM   =   11.032    optimization parameters

   Description
     l     E      TYP  RCUT    TYP  RCUT
     0   .000     23  1.200
     0   .000     23  1.200
     1   .000     23  1.500
     1  2.500     23  1.500
     2   .000      7  1.500

 PAW_PBE C 08Apr2002                    :

 POSCAR: MD-kMC export data
  positions in direct lattice
  velocities in cartesian coordinates
 exchange correlation table for  LEXCH =        8
   RHO(1)=    0.500       N(1)  =     2000
   RHO(2)=  100.500       N(2)  =     4000

 ion  position               nearest neighbor table
   1  0.000  0.000  0.000-   4 1.42   2 1.44   2 1.44
   2  0.166  0.500  0.000-   3 1.42   1 1.44   1 1.44
   3  0.500  0.500  0.000-   2 1.42   4 1.44   4 1.44
   4  0.666  0.000  0.000-   1 1.42   3 1.44   3 1.44

  LATTYP: Found a simple orthorhombic cell.
 ALAT       =     2.5038171198
 B/A-ratio  =     1.7022850874
 C/A-ratio  =     7.8905736237

  Lattice vectors:

 A1 = (   0.0000000000,  -2.5038171198,   0.0000000000)
 A2 = (  -4.2622105446,   0.0000000000,   0.0000000000)
 A3 = (   0.0000000000,   0.0000000000, -19.7565533243)

Analysis of symmetry for initial positions (statically):
 Subroutine PRICEL returns following result:

  LATTYP: Found a base centered orthorhombic cell.
 ALAT       =     2.5038171198
 B/A-ratio  =     1.7022850874
 C/A-ratio  =     7.8905736237

[...]

   2 primitive cells build up your supercell.

 Routine SETGRP: Setting up the symmetry group for a
 simple orthorhombic supercell.

 Subroutine GETGRP returns: Found  8 space group operations
 (whereof  4 operations were pure point group operations)
 out of a pool of  8 trial point group operations.

The static configuration has the point symmetry C_2v.
 The point group associated with its full space group is D_2h.

Analysis of symmetry for dynamics (positions and initial velocities):
 Subroutine PRICEL returns following result:

  LATTYP: Found a base centered orthorhombic cell.
 ALAT       =     2.5038171198
 B/A-ratio  =     1.7022850874
 C/A-ratio  =     7.8905736237

  Lattice vectors:

 A1 = (   2.1311052723,  -1.2519085599,   0.0000000000)
 A2 = (  -2.1311052723,  -1.2519085599,   0.0000000000)
 A3 = (   0.0000000000,   0.0000000000, -19.7565533243)

   2 primitive cells build up your supercell.

 Routine SETGRP: Setting up the symmetry group for a
 simple orthorhombic supercell.

 Subroutine GETGRP returns: Found  8 space group operations
 (whereof  4 operations were pure point group operations)
 out of a pool of  8 trial point group operations.

The dynamic configuration has the point symmetry C_2v.
 The point group associated with its full space group is D_2h.

 KPOINTS: Automatic mesh

Automatic generation of k-mesh.
Space group operators:
 irot       det(A)        alpha          n_x          n_y          n_z        tau_x        tau_y        tau_z
    1     1.000000     0.000000     1.000000     0.000000     0.000000     0.000000     0.000000     0.000000
    2    -1.000000   180.000000     0.000000     0.000000     1.000000     0.000000     0.000000     0.000000
    3     1.000000   180.000000     1.000000     0.000000     0.000000     0.000000     0.000000     0.000000
    4    -1.000000   180.000000     0.000000     1.000000     0.000000     0.000000     0.000000     0.000000
    5    -1.000000     0.000000     1.000000     0.000000     0.000000     0.166667    -0.500000     0.000000
    6     1.000000   180.000000     0.000000     0.000000     1.000000     0.166667    -0.500000     0.000000
    7    -1.000000   180.000000     1.000000     0.000000     0.000000     0.166667    -0.500000     0.000000
    8     1.000000   180.000000     0.000000     1.000000     0.000000     0.166667    -0.500000     0.000000

 Subroutine IBZKPT returns following result:

 Found    247 irreducible k-points:

 Following reciprocal coordinates:
            Coordinates               Weight
  0.000000  0.000000  0.000000      1.000000
  0.041667  0.000000  0.000000      2.000000
  0.083333  0.000000  0.000000      2.000000
  0.125000  0.000000  0.000000      2.000000
  0.166667  0.000000  0.000000      2.000000
  0.208333  0.000000  0.000000      2.000000
  0.250000  0.000000  0.000000      2.000000
  0.291667  0.000000  0.000000      2.000000
  0.333333  0.000000  0.000000      2.000000
  0.375000  0.000000  0.000000      2.000000
  0.416667  0.000000  0.000000      2.000000
  0.458333  0.000000  0.000000      2.000000
  0.500000  0.000000  0.000000      1.000000
  0.000000  0.027778  0.000000      2.000000
  0.041667  0.027778  0.000000      4.000000
  0.083333  0.027778  0.000000      4.000000
  0.125000  0.027778  0.000000      4.000000
  0.166667  0.027778  0.000000      4.000000
  0.208333  0.027778  0.000000      4.000000
  0.250000  0.027778  0.000000      4.000000
  0.291667  0.027778  0.000000      4.000000
  0.333333  0.027778  0.000000      4.000000
  0.375000  0.027778  0.000000      4.000000
  0.416667  0.027778  0.000000      4.000000
  0.458333  0.027778  0.000000      4.000000
  0.500000  0.027778  0.000000      2.000000
  0.000000  0.055556  0.000000      2.000000
  0.041667  0.055556  0.000000      4.000000
  0.083333  0.055556  0.000000      4.000000
  0.125000  0.055556  0.000000      4.000000
  0.166667  0.055556  0.000000      4.000000
  0.208333  0.055556  0.000000      4.000000
  0.250000  0.055556  0.000000      4.000000
  0.291667  0.055556  0.000000      4.000000
  0.333333  0.055556  0.000000      4.000000
  0.375000  0.055556  0.000000      4.000000
  0.416667  0.055556  0.000000      4.000000
  0.458333  0.055556  0.000000      4.000000
  0.500000  0.055556  0.000000      2.000000
  0.000000  0.083333  0.000000      2.000000
  0.041667  0.083333  0.000000      4.000000
  0.083333  0.083333  0.000000      4.000000
  0.125000  0.083333  0.000000      4.000000
  0.166667  0.083333  0.000000      4.000000
  0.208333  0.083333  0.000000      4.000000
  0.250000  0.083333  0.000000      4.000000
  0.291667  0.083333  0.000000      4.000000
  0.333333  0.083333  0.000000      4.000000
  0.375000  0.083333  0.000000      4.000000
  0.416667  0.083333  0.000000      4.000000
  0.458333  0.083333  0.000000      4.000000
  0.500000  0.083333  0.000000      2.000000
  0.000000  0.111111  0.000000      2.000000
  0.041667  0.111111  0.000000      4.000000
  0.083333  0.111111  0.000000      4.000000
  0.125000  0.111111  0.000000      4.000000
  0.166667  0.111111  0.000000      4.000000
  0.208333  0.111111  0.000000      4.000000
  0.250000  0.111111  0.000000      4.000000
  0.291667  0.111111  0.000000      4.000000
[...]
  0.458333  0.472222  0.000000      4.000000
  0.500000  0.472222  0.000000      2.000000
  0.000000  0.500000  0.000000      1.000000
  0.041667  0.500000  0.000000      2.000000
  0.083333  0.500000  0.000000      2.000000
  0.125000  0.500000  0.000000      2.000000
  0.166667  0.500000  0.000000      2.000000
  0.208333  0.500000  0.000000      2.000000
  0.250000  0.500000  0.000000      2.000000
  0.291667  0.500000  0.000000      2.000000
  0.333333  0.500000  0.000000      2.000000
  0.375000  0.500000  0.000000      2.000000
  0.416667  0.500000  0.000000      2.000000
  0.458333  0.500000  0.000000      2.000000
  0.500000  0.500000  0.000000      1.000000

 Following cartesian coordinates:
            Coordinates               Weight
  0.000000  0.000000  0.000000      1.000000
  0.009776  0.000000  0.000000      2.000000
  0.019552  0.000000  0.000000      2.000000
  0.029328  0.000000  0.000000      2.000000
  0.039103  0.000000  0.000000      2.000000
  0.048879  0.000000  0.000000      2.000000
  0.058655  0.000000  0.000000      2.000000
  0.068431  0.000000  0.000000      2.000000
  0.078207  0.000000  0.000000      2.000000
  0.087983  0.000000  0.000000      2.000000
  0.097758  0.000000  0.000000      2.000000
  0.107534  0.000000  0.000000      2.000000
  0.117310  0.000000  0.000000      1.000000
  0.000000  0.011094  0.000000      2.000000
  0.009776  0.011094  0.000000      4.000000
  0.019552  0.011094  0.000000      4.000000
  0.029328  0.011094  0.000000      4.000000
  0.039103  0.011094  0.000000      4.000000
  0.048879  0.011094  0.000000      4.000000
  0.058655  0.011094  0.000000      4.000000
  0.068431  0.011094  0.000000      4.000000
  0.078207  0.011094  0.000000      4.000000
  0.087983  0.011094  0.000000      4.000000
  0.097758  0.011094  0.000000      4.000000
  0.107534  0.011094  0.000000      4.000000
  0.117310  0.011094  0.000000      2.000000
  0.000000  0.022188  0.000000      2.000000
  0.009776  0.022188  0.000000      4.000000
  0.019552  0.022188  0.000000      4.000000
  0.029328  0.022188  0.000000      4.000000
  0.039103  0.022188  0.000000      4.000000
  0.048879  0.022188  0.000000      4.000000
  0.058655  0.022188  0.000000      4.000000
  0.068431  0.022188  0.000000      4.000000
  0.078207  0.022188  0.000000      4.000000
  0.087983  0.022188  0.000000      4.000000
  0.097758  0.022188  0.000000      4.000000
  0.107534  0.022188  0.000000      4.000000
  0.117310  0.022188  0.000000      2.000000
  0.000000  0.033283  0.000000      2.000000
  0.009776  0.033283  0.000000      4.000000
  0.019552  0.033283  0.000000      4.000000
  0.029328  0.033283  0.000000      4.000000
  0.039103  0.033283  0.000000      4.000000
  0.048879  0.033283  0.000000      4.000000
  0.058655  0.033283  0.000000      4.000000
  0.068431  0.033283  0.000000      4.000000
  0.078207  0.033283  0.000000      4.000000
  0.087983  0.033283  0.000000      4.000000
  0.097758  0.033283  0.000000      4.000000
  0.107534  0.033283  0.000000      4.000000
  0.117310  0.033283  0.000000      2.000000
  0.000000  0.044377  0.000000      2.000000
  0.009776  0.044377  0.000000      4.000000
  0.019552  0.044377  0.000000      4.000000
  0.029328  0.044377  0.000000      4.000000
  0.039103  0.044377  0.000000      4.000000
  0.048879  0.044377  0.000000      4.000000
  0.058655  0.044377  0.000000      4.000000
  0.068431  0.044377  0.000000      4.000000
[...]
  0.107534  0.188601  0.000000      4.000000
  0.117310  0.188601  0.000000      2.000000
  0.000000  0.199695  0.000000      1.000000
  0.009776  0.199695  0.000000      2.000000
  0.019552  0.199695  0.000000      2.000000
  0.029328  0.199695  0.000000      2.000000
  0.039103  0.199695  0.000000      2.000000
  0.048879  0.199695  0.000000      2.000000
  0.058655  0.199695  0.000000      2.000000
  0.068431  0.199695  0.000000      2.000000
  0.078207  0.199695  0.000000      2.000000
  0.087983  0.199695  0.000000      2.000000
  0.097758  0.199695  0.000000      2.000000
  0.107534  0.199695  0.000000      2.000000
  0.117310  0.199695  0.000000      1.000000

 I would recommend the setting:
   dimension x,y,z NGX =    62 NGY =   37 NGZ =  288
[...]
 k-point ** :   0.2500 0.2778 0.0000  plane waves:   42842
 k-point ** :   0.2917 0.2778 0.0000  plane waves:   42806
 k-point ** :   0.3333 0.2778 0.0000  plane waves:   42792
 k-point ** :   0.3750 0.2778 0.0000  plane waves:   42768
 k-point ** :   0.4167 0.2778 0.0000  plane waves:   42775
 k-point ** :   0.4583 0.2778 0.0000  plane waves:   42756
 k-point ** :   0.5000 0.2778 0.0000  plane waves:   42742
 k-point ** :   0.0000 0.3056 0.0000  plane waves:   42892
 k-point ** :   0.0417 0.3056 0.0000  plane waves:   42899
 k-point ** :   0.0833 0.3056 0.0000  plane waves:   42905
 k-point ** :   0.1250 0.3056 0.0000  plane waves:   42903
 k-point ** :   0.1667 0.3056 0.0000  plane waves:   42871
 k-point ** :   0.2083 0.3056 0.0000  plane waves:   42845
 k-point ** :   0.2500 0.3056 0.0000  plane waves:   42837
 k-point ** :   0.2917 0.3056 0.0000  plane waves:   42815
 k-point ** :   0.3333 0.3056 0.0000  plane waves:   42776
 k-point ** :   0.3750 0.3056 0.0000  plane waves:   42776
 k-point ** :   0.4167 0.3056 0.0000  plane waves:   42783
 k-point ** :   0.4583 0.3056 0.0000  plane waves:   42757
 k-point ** :   0.5000 0.3056 0.0000  plane waves:   42750
 k-point ** :   0.0000 0.3333 0.0000  plane waves:   42904
 k-point ** :   0.0417 0.3333 0.0000  plane waves:   42887
 k-point ** :   0.0833 0.3333 0.0000  plane waves:   42905
[...]
 k-point ** :   0.4583 0.4722 0.0000  plane waves:   42833
 k-point ** :   0.5000 0.4722 0.0000  plane waves:   42822
 k-point ** :   0.0000 0.5000 0.0000  plane waves:   42862
 k-point ** :   0.0417 0.5000 0.0000  plane waves:   42838
 k-point ** :   0.0833 0.5000 0.0000  plane waves:   42872
 k-point ** :   0.1250 0.5000 0.0000  plane waves:   42874
 k-point ** :   0.1667 0.5000 0.0000  plane waves:   42908
 k-point ** :   0.2083 0.5000 0.0000  plane waves:   42880
 k-point ** :   0.2500 0.5000 0.0000  plane waves:   42892
 k-point ** :   0.2917 0.5000 0.0000  plane waves:   42888
 k-point ** :   0.3333 0.5000 0.0000  plane waves:   42888
 k-point ** :   0.3750 0.5000 0.0000  plane waves:   42882
 k-point ** :   0.4167 0.5000 0.0000  plane waves:   42852
 k-point ** :   0.4583 0.5000 0.0000  plane waves:   42880
 k-point ** :   0.5000 0.5000 0.0000  plane waves:   42784

 maximum and minimum number of plane-waves per node :     21494    21316

 maximum number of plane-waves:     42926
 maximum index in each direction:
   IXMAX=   15   IYMAX=    9   IZMAX=   72
   IXMIN=  -16   IYMIN=   -9   IZMIN=  -72

 NGX is ok and might be reduce to  64
 NGY is ok and might be reduce to  38
 WARNING: aliasing errors must be expected set NGZ to 290 to avoid them
 aliasing errors are usually negligible using standard VASP settings
 and one can safely disregard these warnings

 parallel 3D FFT for wavefunctions:
    minimum data exchange during FFTs selected (reduces bandwidth)
 parallel 3D FFT for charge:
    minimum data exchange during FFTs selected (reduces bandwidth)

 Broyden mixing: mesh for mixing (old mesh)
   NGX = 31   NGY = 19   NGZ =145
  (NGX  =128   NGY  = 80   NGZ  =576)
  gives a total of  85405 points

 initial charge density was supplied:
 charge density of overlapping atoms calculated
 number of electron      16.0000000 magnetization
 keeping initial charge density in first step

 Maximum index for augmentation-charges         5073 (set IRDMAX)

 First call to EWALD:  gamma=   0.298
 Maximum number of real-space cells 4x 6x 1
 Maximum number of reciprocal cells 2x 1x 8

 FEWALD executed in parallel

----------------------------------------- Iteration    1(   1)  ---------------------------------------

 eigenvalue-minimisations  :  5928
 total energy-change (2. order) : 0.1883010E+03  (-0.1061542E+04)
 number of electron      16.0000000 magnetization
 augmentation part       16.0000000 magnetization

 Free energy of the ion-electron system (eV)
  alpha Z        PSCENC =         6.18334092
  Ewald energy   TEWEN  =      2504.81979035
  -Hartree energ DENC   =     -2932.65591104
  -exchange      EXHF   =         0.00000000
  -V(xc)+E(xc)   XCENC  =        54.93115977
  PAW double counting   =       151.32577238     -155.92769107
  entropy T*S    EENTRO =        -0.00137222
  eigenvalues    EBANDS =       -28.99758149
  atomic energy  EATOM  =       588.62352690
  free energy    TOTEN  =       188.30103451 eV

  energy without entropy =      188.30240673  energy(sigma->0) =      188.30172062

[...]

 eigenvalue-minimisations  : 10456
 total energy-change (2. order) :-0.1978792E+03  (-0.1762434E+03)
 number of electron      16.0000000 magnetization
 augmentation part       16.0000000 magnetization

[...]

 Broyden mixing:
  rms(total) = 0.72022E+00    rms(broyden)= 0.72022E+00
  rms(prec ) = 0.78417E+00
  weight for this iteration     100.00

[...]

 eigenvalues of (default mixing * dielectric matrix)
  average eigenvalue GAMMA=   2.3159
  2.3159

[...]

 average (electrostatic) potential at core
  the test charge radii are     0.6991
  (the norm of the test charge is              1.0000)
       1 -58.2635       2 -58.2635       3 -58.2635       4 -58.2635

 E-fermi :  -2.7961     XC(G=0):  -2.1631     alpha+bet : -1.9046

 k-point     1 :       0.0000    0.0000    0.0000
  band No.  band energies     occupation
      1     -22.1514      2.00000
      2     -16.8324      2.00000
      3     -15.9068      2.00000
      4     -10.2800      2.00000
      5      -9.3533      2.00000
      6      -5.9157      2.00000
      7      -5.7541      2.00000
      8      -4.9882      2.00000
      9      -1.1113      0.00000
     10       0.5361      0.00000
     11       1.3354      0.00000
     12       2.6772      0.00000

[...]

 soft charge-density along one line, spin component           1
         0         1         2         3         4         5         6         7         8         9
 total charge-density along one line

------------------------ aborting loop because EDIFF is reached ----------------------------------------

  FORCE on cell =-STRESS in cart. coord.  units (eV):
  Direction    XX          YY          ZZ          XY          YZ          ZX
  Alpha Z     6.18334     6.18334     6.18334
  Ewald    3039.94566  3038.16449 -3573.29058    -0.00000     0.00000     0.00000
  Hartree  2976.34001  2975.73953 -2953.11067     0.00000    -0.00000    -0.00000
  E(xc)     -58.13123   -58.11314   -60.45074     0.00000     0.00000    -0.00000
  Local   -6189.06498 -6187.00990  6320.78195    -0.00000    -0.00000    -0.00000
  n-local   -13.87764   -13.38668   -12.59778     0.07573    -0.00000     0.00000
  augment    -1.50549    -1.50355    -1.38907     0.00000     0.00000    -0.00000
  Kinetic   240.10784   236.69158   273.87223    -4.62708    -0.00000    -0.00000
  Fock        0.00000     0.00000     0.00000     0.00000     0.00000     0.00000
  Total      -0.00249    -3.23434    -0.00134     0.00000     0.00000     0.00000
  in kB      -0.01891   -24.57802    -0.01017     0.00000     0.00000     0.00000

 VOLUME and BASIS-vectors are now :
  energy-cutoff  :     2000.00
  volume of cell :      210.84
      direct lattice vectors                 reciprocal lattice vectors
     4.262210545  0.000000000  0.000000000     0.234620038  0.000000000  0.000000000
     0.000000000  2.503817120  0.000000000     0.000000000  0.399390192  0.000000000
     0.000000000  0.000000000 19.756553324     0.000000000  0.000000000  0.050616116

[...]

 FORCES acting on ions
    electron-ion (+dipol)            ewald-force                    non-local-force                 convergence-correction
   -.317E+01 -.198E-15 0.664E-09   0.317E+01 -.338E-14 -.100E-17   -.790E-03 0.347E-17 0.000E+00   0.759E-09 -.611E-15 -.849E-13
   0.317E+01 0.193E-12 -.327E-08   -.317E+01 0.124E-14 -.306E-33   0.790E-03 -.347E-17 0.000E+00   -.759E-09 -.506E-16 -.840E-13
   -.317E+01 -.146E-12 0.664E-09   0.317E+01 -.369E-14 0.100E-17   -.790E-03 0.347E-17 0.000E+00   0.759E-09 0.293E-15 -.848E-13
   0.317E+01 -.809E-15 -.324E-08   -.317E+01 0.925E-15 0.289E-33   0.790E-03 -.347E-17 0.000E+00   -.759E-09 -.931E-15 -.840E-13
   -.210E-06 0.452E-13 -.519E-08   0.444E-15 -.491E-14 -.963E-34   -.434E-18 0.000E+00 0.000E+00   -.328E-14 -.130E-14 -.338E-12

 POSITION                                       TOTAL-FORCE (eV/Angst)
      0.00168      0.00000      0.00000        -0.002928     -0.000000      0.000000
      0.70869      1.25191      0.00000         0.002928      0.000000     -0.000000
      2.13278      1.25191      0.00000        -0.002928      0.000000      0.000000
      2.83980      0.00000      0.00000         0.002928     -0.000000     -0.000000
    total drift:                               -0.000000      0.000000     -0.000000

  FREE ENERGIE OF THE ION-ELECTRON SYSTEM (eV)
  free  energy   TOTEN  =       -36.90160343 eV

  energy  without entropy=      -36.90159821  energy(sigma->0) =      -36.90160082

 Quasi-Newton relaxation of ions (Broydens 2nd method)
  g(Force)  = 0.165E-05   g(Stress)= 0.000E+00

 Reset! Starting new Quasi-Newton update for ions

[...]

 d Force =-0.2544414E-05[-0.674E-05, 0.165E-05]  d Energy =-0.2527211E-05-0.172E-07
 d Force =-0.1805707E-02[-0.182E-02,-0.179E-02]  d Ewald  =-0.1805705E-02-0.223E-08

[...]

 retain information from N=  1 steps
 eigenvalues of (default step * inverse Hessian matrix)
  average eigenvalue of G=   0.1970
 eigenvalue spectrum of G is  0.1970

[...]

 d Force = 0.2708492E-05[ 0.222E-08, 0.541E-05]  d Energy = 0.2693746E-05 0.147E-07
 d Force = 0.1452173E-02[ 0.144E-02, 0.146E-02]  d Ewald  = 0.1452172E-02 0.115E-08

[...]

 eigenvalue-minimisations  :  4764
 total energy-change (2. order) : 0.4173444E-09  ( 0.6105073E-09)
 number of electron      16.0000000 magnetization
 augmentation part        0.3763523 magnetization

[...]

 eigenvalue-minimisations  :  2300
 total energy-change (2. order) :-0.7496510E-09  ( 0.2141086E-13)
 number of electron      16.0000000 magnetization
 augmentation part        0.3763523 magnetization

[...]

 d Force = 0.7325069E-13[-0.763E-12, 0.910E-12]  d Energy = 0.1396074E-09-0.140E-09
 d Force = 0.5915968E-06[ 0.592E-06, 0.592E-06]  d Ewald  = 0.5915967E-06 0.000E+00

[...]

 eigenvalue-minimisations  :  1406
 total energy-change (2. order) :-0.6405116E-09  ( 0.1579806E-13)
 number of electron      16.0000000 magnetization
 augmentation part        0.3763523 magnetization

[...]

 d Force = 0.2189875E-12[ 0.899E-13, 0.348E-12]  d Energy =-0.3831246E-10 0.385E-10
 d Force =-0.2698888E-06[-0.270E-06,-0.270E-06]  d Ewald  =-0.2698889E-06 0.000E+00

[...]

 FEWALD executed in parallel

[...]

 eigenvalue-minimisations  :   699
 total energy-change (2. order) : 0.1058424E-09  (-0.1521417E-15)
 number of electron      16.0000000 magnetization
 augmentation part        0.3763523 magnetization

[...]

 eigenvalue-minimisations  :   724
 total energy-change (2. order) :-0.2730758E-09  (-0.1015648E-13)
 number of electron      16.0000000 magnetization
 augmentation part        0.3763523 magnetization

 Broyden mixing:
  rms(total) = 0.15818E-09    rms(broyden)= 0.15804E-09
  rms(prec ) = 0.20404E-09
  weight for this iteration     100.00

 eigenvalues of (default mixing * dielectric matrix)
  average eigenvalue GAMMA=   1.7820
  2.8558  2.5474  0.8625  0.8625

[...]

----------------------------------------- Iteration    6(   6)  ---------------------------------------

 eigenvalue-minimisations  :   726
 total energy-change (2. order) : 0.6889422E-10  ( 0.6760025E-14)
 number of electron      16.0000000 magnetization
 augmentation part        0.3763523 magnetization

 Free energy of the ion-electron system (eV)
  alpha Z        PSCENC =         6.18334092
  Ewald energy   TEWEN  =      2504.82014365
  -Hartree energ DENC   =     -2998.96916657
  -exchange      EXHF   =         0.00000000
  -V(xc)+E(xc)   XCENC  =        57.29658366
  PAW double counting   =       272.14430677     -277.27077059
  entropy T*S    EENTRO =        -0.00000508
  eigenvalues    EBANDS =      -189.72956326
  atomic energy  EATOM  =       588.62352690
  free energy    TOTEN  =       -36.90160359 eV

  energy without entropy =      -36.90159851  energy(sigma->0) =      -36.90160105

 average (electrostatic) potential at core
  the test charge radii are     0.6991
  (the norm of the test charge is              1.0000)
       1 -58.2635       2 -58.2635       3 -58.2635       4 -58.2635

 E-fermi :  -2.7961     XC(G=0):  -2.1628     alpha+bet : -1.9046

[...]

 k-point   247 :       0.5000    0.5000    0.0000
  band No.  band energies     occupation
      1     -17.0825      2.00000
      2     -17.0825      2.00000
      3     -15.8967      2.00000
      4     -15.8967      2.00000
      5      -9.0455      2.00000
      6      -9.0455      2.00000
      7      -5.1812      2.00000
      8      -5.1812      2.00000
      9      -1.1348      0.00000
     10      -1.1348      0.00000
     11       4.5995      0.00000
     12       4.5995      0.00000

 soft charge-density along one line, spin component           1
         0         1         2         3         4         5         6         7         8         9
 total charge-density along one line

------------------------ aborting loop because EDIFF is reached ----------------------------------------

  FORCE on cell =-STRESS in cart. coord.  units (eV):
  Direction    XX          YY          ZZ          XY          YZ          ZX
  Alpha Z     6.18334     6.18334     6.18334
  Ewald    3039.96983  3038.14068 -3573.29058     0.00000     0.00000    -0.00000
  Hartree  2976.34341  2975.73641 -2953.11065    -0.00000    -0.00000    -0.00000
  E(xc)     -58.13116   -58.11325   -60.45076    -0.00000     0.00000    -0.00000
  Local   -6189.08782 -6186.98749  6320.78184     0.00000    -0.00000     0.00000
  n-local   -13.87744   -13.38688   -12.59779     0.07570     0.00000    -0.00000
  augment    -1.50553    -1.50352    -1.38907    -0.00000     0.00000     0.00000
  Kinetic   240.10432   236.69531   273.87234    -4.62695    -0.00000     0.00000
  Fock        0.00000     0.00000     0.00000     0.00000     0.00000     0.00000
  Total      -0.00106    -3.23540    -0.00134     0.00000     0.00000     0.00000
  in kB      -0.00803   -24.58612    -0.01016     0.00000     0.00000     0.00000

 VOLUME and BASIS-vectors are now :
  energy-cutoff  :     2000.00
  volume of cell :      210.84
      direct lattice vectors                 reciprocal lattice vectors
     4.262210545  0.000000000  0.000000000     0.234620038  0.000000000  0.000000000
     0.000000000  2.503817120  0.000000000     0.000000000  0.399390192  0.000000000
     0.000000000  0.000000000 19.756553324     0.000000000  0.000000000  0.050616116

  length of vectors
     4.262210545  2.503817120 19.756553324     0.234620038  0.399390192  0.050616116

 FORCES acting on ions
    electron-ion (+dipol)            ewald-force                    non-local-force                 convergence-correction
   -.318E+01 -.471E-15 0.658E-09   0.318E+01 0.215E-14 -.123E-18   0.244E-03 0.173E-16 0.000E+00   0.212E-08 -.300E-14 0.142E-11
   0.318E+01 -.154E-12 -.330E-08   -.318E+01 -.537E-14 -.434E-34   -.244E-03 -.694E-17 -.162E-26   -.212E-08 0.387E-15 0.142E-11
   -.318E+01 0.703E-12 0.637E-09   0.318E+01 0.292E-14 0.123E-18   0.244E-03 0.104E-16 -.162E-26   0.212E-08 -.144E-14 0.143E-11
   0.318E+01 -.356E-15 -.332E-08   -.318E+01 -.460E-14 0.481E-34   -.244E-03 -.139E-16 0.000E+00   -.212E-08 -.121E-14 0.144E-11
   -.210E-06 0.549E-12 -.533E-08   0.444E-15 -.491E-14 0.000E+00   0.000E+00 0.694E-17 -.323E-26   0.416E-14 -.526E-14 0.572E-11

 POSITION                                       TOTAL-FORCE (eV/Angst)
      0.00165     -0.00000      0.00000        -0.000000      0.000000     -0.000000
      0.70872      1.25191     -0.00000         0.000000      0.000000      0.000000
      2.13276      1.25191      0.00000        -0.000000     -0.000000     -0.000000
      2.83982      0.00000     -0.00000         0.000000      0.000000      0.000000
    total drift:                               -0.000000      0.000000     -0.000000

  FREE ENERGIE OF THE ION-ELECTRON SYSTEM (eV)
  free  energy   TOTEN  =       -36.90160359 eV

  energy  without entropy=      -36.90159851  energy(sigma->0) =      -36.90160105

 d Force = 0.1684482E-13[ 0.241E-14, 0.313E-13]  d Energy = 0.2252136E-09-0.225E-09
 d Force =-0.9393667E-07[-0.939E-07,-0.939E-07]  d Ewald  =-0.9393625E-07-0.455E-12

 Quasi-Newton relaxation of ions (Broydens 2nd method)
  g(Force)  = 0.128E-14   g(Stress)= 0.000E+00

 retain information from N=  1 steps
 eigenvalues of (default step * inverse Hessian matrix)
  average eigenvalue of G=   0.1565
 eigenvalue spectrum of G is  0.1565

 reached required accuracy - stopping structural energy minimisation