 vasp.5.3.5 31Mar14 (build Mar 02 2015 18:14:16) complex

 executed on             LinuxIFC date 2018.08.09  15:04:38

 INCAR:
 POTCAR:   PAW_PBE C 08Apr2002
 POTCAR:   PAW_PBE C 08Apr2002
   VRHFIN =C: s2p2

   TITEL  = PAW_PBE C 08Apr2002
   POMASS =   12.011; ZVAL   =    4.000    mass and valenz
   ENMAX  =  400.000; ENMIN  =  300.000 eV
   QCUT   =   -5.516; QGAM   =   11.032    optimization parameters

   Description
     l     E      TYP  RCUT    TYP  RCUT
     0   .000     23  1.200
     0   .000     23  1.200
     1   .000     23  1.500
     1  2.500     23  1.500
     2   .000      7  1.500

 PAW_PBE C 08Apr2002                    :

 POSCAR: MD-kMC export data
  positions in direct lattice
  velocities in cartesian coordinates
 exchange correlation table for  LEXCH =        8
   RHO(1)=    0.500       N(1)  =     2000
   RHO(2)=  100.500       N(2)  =     4000

 ion  position               nearest neighbor table
   1  1.000  0.000  0.000-   2 1.43   2 1.43   4 1.44
   2  0.167  0.500  0.000-   1 1.43   1 1.43   3 1.44
   3  0.500  0.500  0.000-   4 1.43   4 1.43   2 1.44
   4  0.667  0.000  0.000-   3 1.43   3 1.43   1 1.44

  LATTYP: Found a simple orthorhombic cell.
 ALAT       =     2.4608737623
 B/A-ratio  =     1.7625284998
 C/A-ratio  =     8.0268385719

  Lattice vectors:

 A1 = (   0.0000000000,  -2.4608737623,   0.0000000000)
 A2 = (  -4.3373601406,   0.0000000000,   0.0000000000)
 A3 = (   0.0000000000,   0.0000000000, -19.7530364360)

Analysis of symmetry for initial positions (statically):
 Subroutine PRICEL returns following result:

  LATTYP: Found a base centered orthorhombic cell.
 ALAT       =     2.4608737623
 B/A-ratio  =     1.7625284998
 C/A-ratio  =     8.0268385719

[...]

   2 primitive cells build up your supercell.

 Routine SETGRP: Setting up the symmetry group for a
 simple orthorhombic supercell.

 Subroutine GETGRP returns: Found  8 space group operations
 (whereof  4 operations were pure point group operations)
 out of a pool of  8 trial point group operations.

The static configuration has the point symmetry C_2v.
 The point group associated with its full space group is D_2h.

Analysis of symmetry for dynamics (positions and initial velocities):
 Subroutine PRICEL returns following result:

  LATTYP: Found a base centered orthorhombic cell.
 ALAT       =     2.4608737623
 B/A-ratio  =     1.7625284998
 C/A-ratio  =     8.0268385719

  Lattice vectors:

 A1 = (   2.1686800703,  -1.2304368812,   0.0000000000)
 A2 = (  -2.1686800703,  -1.2304368812,   0.0000000000)
 A3 = (   0.0000000000,   0.0000000000, -19.7530364360)

   2 primitive cells build up your supercell.

 Routine SETGRP: Setting up the symmetry group for a
 simple orthorhombic supercell.

 Subroutine GETGRP returns: Found  8 space group operations
 (whereof  4 operations were pure point group operations)
 out of a pool of  8 trial point group operations.

The dynamic configuration has the point symmetry C_2v.
 The point group associated with its full space group is D_2h.

 KPOINTS: Automatic mesh

Automatic generation of k-mesh.
Space group operators:
 irot       det(A)        alpha          n_x          n_y          n_z        tau_x        tau_y        tau_z
    1     1.000000     0.000000     1.000000     0.000000     0.000000     0.000000     0.000000     0.000000
    2    -1.000000   180.000000     0.000000     0.000000     1.000000     0.000000     0.000000     0.000000
    3     1.000000   180.000000     1.000000     0.000000     0.000000     0.000000     0.000000     0.000000
    4    -1.000000   180.000000     0.000000     1.000000     0.000000     0.000000     0.000000     0.000000
    5    -1.000000     0.000000     1.000000     0.000000     0.000000     0.166667    -0.500000     0.000000
    6     1.000000   180.000000     0.000000     0.000000     1.000000     0.166667    -0.500000     0.000000
    7    -1.000000   180.000000     1.000000     0.000000     0.000000     0.166667    -0.500000     0.000000
    8     1.000000   180.000000     0.000000     1.000000     0.000000     0.166667    -0.500000     0.000000

 Subroutine IBZKPT returns following result:

 Found    247 irreducible k-points:

 Following reciprocal coordinates:
            Coordinates               Weight
  0.000000  0.000000  0.000000      1.000000
  0.041667  0.000000  0.000000      2.000000
  0.083333  0.000000  0.000000      2.000000
  0.125000  0.000000  0.000000      2.000000
  0.166667  0.000000  0.000000      2.000000
  0.208333  0.000000  0.000000      2.000000
  0.250000  0.000000  0.000000      2.000000
  0.291667  0.000000  0.000000      2.000000
  0.333333  0.000000  0.000000      2.000000
  0.375000  0.000000  0.000000      2.000000
  0.416667  0.000000  0.000000      2.000000
  0.458333  0.000000  0.000000      2.000000
  0.500000  0.000000  0.000000      1.000000
  0.000000  0.027778  0.000000      2.000000
  0.041667  0.027778  0.000000      4.000000
  0.083333  0.027778  0.000000      4.000000
  0.125000  0.027778  0.000000      4.000000
  0.166667  0.027778  0.000000      4.000000
  0.208333  0.027778  0.000000      4.000000
  0.250000  0.027778  0.000000      4.000000
  0.291667  0.027778  0.000000      4.000000
  0.333333  0.027778  0.000000      4.000000
  0.375000  0.027778  0.000000      4.000000
  0.416667  0.027778  0.000000      4.000000
  0.458333  0.027778  0.000000      4.000000
  0.500000  0.027778  0.000000      2.000000
  0.000000  0.055556  0.000000      2.000000
  0.041667  0.055556  0.000000      4.000000
  0.083333  0.055556  0.000000      4.000000
  0.125000  0.055556  0.000000      4.000000
  0.166667  0.055556  0.000000      4.000000
  0.208333  0.055556  0.000000      4.000000
  0.250000  0.055556  0.000000      4.000000
  0.291667  0.055556  0.000000      4.000000
  0.333333  0.055556  0.000000      4.000000
  0.375000  0.055556  0.000000      4.000000
  0.416667  0.055556  0.000000      4.000000
  0.458333  0.055556  0.000000      4.000000
  0.500000  0.055556  0.000000      2.000000
  0.000000  0.083333  0.000000      2.000000
  0.041667  0.083333  0.000000      4.000000
  0.083333  0.083333  0.000000      4.000000
  0.125000  0.083333  0.000000      4.000000
  0.166667  0.083333  0.000000      4.000000
  0.208333  0.083333  0.000000      4.000000
  0.250000  0.083333  0.000000      4.000000
  0.291667  0.083333  0.000000      4.000000
  0.333333  0.083333  0.000000      4.000000
  0.375000  0.083333  0.000000      4.000000
  0.416667  0.083333  0.000000      4.000000
  0.458333  0.083333  0.000000      4.000000
  0.500000  0.083333  0.000000      2.000000
  0.000000  0.111111  0.000000      2.000000
  0.041667  0.111111  0.000000      4.000000
  0.083333  0.111111  0.000000      4.000000
  0.125000  0.111111  0.000000      4.000000
  0.166667  0.111111  0.000000      4.000000
  0.208333  0.111111  0.000000      4.000000
  0.250000  0.111111  0.000000      4.000000
  0.291667  0.111111  0.000000      4.000000
[...]
  0.458333  0.472222  0.000000      4.000000
  0.500000  0.472222  0.000000      2.000000
  0.000000  0.500000  0.000000      1.000000
  0.041667  0.500000  0.000000      2.000000
  0.083333  0.500000  0.000000      2.000000
  0.125000  0.500000  0.000000      2.000000
  0.166667  0.500000  0.000000      2.000000
  0.208333  0.500000  0.000000      2.000000
  0.250000  0.500000  0.000000      2.000000
  0.291667  0.500000  0.000000      2.000000
  0.333333  0.500000  0.000000      2.000000
  0.375000  0.500000  0.000000      2.000000
  0.416667  0.500000  0.000000      2.000000
  0.458333  0.500000  0.000000      2.000000
  0.500000  0.500000  0.000000      1.000000

 Following cartesian coordinates:
            Coordinates               Weight
  0.000000  0.000000  0.000000      1.000000
  0.009606  0.000000  0.000000      2.000000
  0.019213  0.000000  0.000000      2.000000
  0.028819  0.000000  0.000000      2.000000
  0.038426  0.000000  0.000000      2.000000
  0.048032  0.000000  0.000000      2.000000
  0.057639  0.000000  0.000000      2.000000
  0.067245  0.000000  0.000000      2.000000
  0.076852  0.000000  0.000000      2.000000
  0.086458  0.000000  0.000000      2.000000
  0.096065  0.000000  0.000000      2.000000
  0.105671  0.000000  0.000000      2.000000
  0.115277  0.000000  0.000000      1.000000
  0.000000  0.011288  0.000000      2.000000
  0.009606  0.011288  0.000000      4.000000
  0.019213  0.011288  0.000000      4.000000
  0.028819  0.011288  0.000000      4.000000
  0.038426  0.011288  0.000000      4.000000
  0.048032  0.011288  0.000000      4.000000
  0.057639  0.011288  0.000000      4.000000
  0.067245  0.011288  0.000000      4.000000
  0.076852  0.011288  0.000000      4.000000
  0.086458  0.011288  0.000000      4.000000
  0.096065  0.011288  0.000000      4.000000
  0.105671  0.011288  0.000000      4.000000
  0.115277  0.011288  0.000000      2.000000
  0.000000  0.022576  0.000000      2.000000
  0.009606  0.022576  0.000000      4.000000
  0.019213  0.022576  0.000000      4.000000
  0.028819  0.022576  0.000000      4.000000
  0.038426  0.022576  0.000000      4.000000
  0.048032  0.022576  0.000000      4.000000
  0.057639  0.022576  0.000000      4.000000
  0.067245  0.022576  0.000000      4.000000
  0.076852  0.022576  0.000000      4.000000
  0.086458  0.022576  0.000000      4.000000
  0.096065  0.022576  0.000000      4.000000
  0.105671  0.022576  0.000000      4.000000
  0.115277  0.022576  0.000000      2.000000
  0.000000  0.033863  0.000000      2.000000
  0.009606  0.033863  0.000000      4.000000
  0.019213  0.033863  0.000000      4.000000
  0.028819  0.033863  0.000000      4.000000
  0.038426  0.033863  0.000000      4.000000
  0.048032  0.033863  0.000000      4.000000
  0.057639  0.033863  0.000000      4.000000
  0.067245  0.033863  0.000000      4.000000
  0.076852  0.033863  0.000000      4.000000
  0.086458  0.033863  0.000000      4.000000
  0.096065  0.033863  0.000000      4.000000
  0.105671  0.033863  0.000000      4.000000
  0.115277  0.033863  0.000000      2.000000
  0.000000  0.045151  0.000000      2.000000
  0.009606  0.045151  0.000000      4.000000
  0.019213  0.045151  0.000000      4.000000
  0.028819  0.045151  0.000000      4.000000
  0.038426  0.045151  0.000000      4.000000
  0.048032  0.045151  0.000000      4.000000
  0.057639  0.045151  0.000000      4.000000
  0.067245  0.045151  0.000000      4.000000
[...]
  0.105671  0.191892  0.000000      4.000000
  0.115277  0.191892  0.000000      2.000000
  0.000000  0.203180  0.000000      1.000000
  0.009606  0.203180  0.000000      2.000000
  0.019213  0.203180  0.000000      2.000000
  0.028819  0.203180  0.000000      2.000000
  0.038426  0.203180  0.000000      2.000000
  0.048032  0.203180  0.000000      2.000000
  0.057639  0.203180  0.000000      2.000000
  0.067245  0.203180  0.000000      2.000000
  0.076852  0.203180  0.000000      2.000000
  0.086458  0.203180  0.000000      2.000000
  0.096065  0.203180  0.000000      2.000000
  0.105671  0.203180  0.000000      2.000000
  0.115277  0.203180  0.000000      1.000000

 I would recommend the setting:
   dimension x,y,z NGX =    63 NGY =   36 NGZ =  288
[...]
 k-point ** :   0.2083 0.2778 0.0000  plane waves:   42828
 k-point ** :   0.2500 0.2778 0.0000  plane waves:   42848
 k-point ** :   0.2917 0.2778 0.0000  plane waves:   42851
 k-point ** :   0.3333 0.2778 0.0000  plane waves:   42841
 k-point ** :   0.3750 0.2778 0.0000  plane waves:   42850
 k-point ** :   0.4167 0.2778 0.0000  plane waves:   42855
 k-point ** :   0.4583 0.2778 0.0000  plane waves:   42852
 k-point ** :   0.5000 0.2778 0.0000  plane waves:   42842
 k-point ** :   0.0000 0.3056 0.0000  plane waves:   42870
 k-point ** :   0.0417 0.3056 0.0000  plane waves:   42863
 k-point ** :   0.0833 0.3056 0.0000  plane waves:   42869
 k-point ** :   0.1250 0.3056 0.0000  plane waves:   42848
 k-point ** :   0.1667 0.3056 0.0000  plane waves:   42839
 k-point ** :   0.2083 0.3056 0.0000  plane waves:   42843
 k-point ** :   0.2500 0.3056 0.0000  plane waves:   42844
 k-point ** :   0.2917 0.3056 0.0000  plane waves:   42844
 k-point ** :   0.3333 0.3056 0.0000  plane waves:   42871
 k-point ** :   0.3750 0.3056 0.0000  plane waves:   42866
 k-point ** :   0.4167 0.3056 0.0000  plane waves:   42845
 k-point ** :   0.4583 0.3056 0.0000  plane waves:   42851
 k-point ** :   0.5000 0.3056 0.0000  plane waves:   42840
 k-point ** :   0.0000 0.3333 0.0000  plane waves:   42872
 k-point ** :   0.0417 0.3333 0.0000  plane waves:   42900
 k-point ** :   0.0833 0.3333 0.0000  plane waves:   42880
[...]
 k-point ** :   0.4583 0.4722 0.0000  plane waves:   42934
 k-point ** :   0.5000 0.4722 0.0000  plane waves:   42942
 k-point ** :   0.0000 0.5000 0.0000  plane waves:   42902
 k-point ** :   0.0417 0.5000 0.0000  plane waves:   42882
 k-point ** :   0.0833 0.5000 0.0000  plane waves:   42864
 k-point ** :   0.1250 0.5000 0.0000  plane waves:   42886
 k-point ** :   0.1667 0.5000 0.0000  plane waves:   42854
 k-point ** :   0.2083 0.5000 0.0000  plane waves:   42832
 k-point ** :   0.2500 0.5000 0.0000  plane waves:   42858
 k-point ** :   0.2917 0.5000 0.0000  plane waves:   42870
 k-point ** :   0.3333 0.5000 0.0000  plane waves:   42910
 k-point ** :   0.3750 0.5000 0.0000  plane waves:   42902
 k-point ** :   0.4167 0.5000 0.0000  plane waves:   42920
 k-point ** :   0.4583 0.5000 0.0000  plane waves:   42914
 k-point ** :   0.5000 0.5000 0.0000  plane waves:   42908

 maximum and minimum number of plane-waves per node :     21492    21298

 maximum number of plane-waves:     42958
 maximum index in each direction:
   IXMAX=   15   IYMAX=    8   IZMAX=   72
   IXMIN=  -16   IYMIN=   -9   IZMIN=  -72

 NGX is ok and might be reduce to  64
 NGY is ok and might be reduce to  36
 WARNING: aliasing errors must be expected set NGZ to 290 to avoid them
 aliasing errors are usually negligible using standard VASP settings
 and one can safely disregard these warnings

 parallel 3D FFT for wavefunctions:
    minimum data exchange during FFTs selected (reduces bandwidth)
 parallel 3D FFT for charge:
    minimum data exchange during FFTs selected (reduces bandwidth)

 Broyden mixing: mesh for mixing (old mesh)
   NGX = 31   NGY = 17   NGZ =145
  (NGX  =128   NGY  = 72   NGZ  =576)
  gives a total of  76415 points

 initial charge density was supplied:
 charge density of overlapping atoms calculated
 number of electron      16.0000000 magnetization
 keeping initial charge density in first step

 Maximum index for augmentation-charges         4557 (set IRDMAX)

 First call to EWALD:  gamma=   0.298
 Maximum number of real-space cells 4x 6x 1
 Maximum number of reciprocal cells 2x 1x 8

 FEWALD executed in parallel

----------------------------------------- Iteration    1(   1)  ---------------------------------------

 eigenvalue-minimisations  :  5928
 total energy-change (2. order) : 0.1895842E+03  (-0.1061207E+04)
 number of electron      16.0000000 magnetization
 augmentation part       16.0000000 magnetization

 Free energy of the ion-electron system (eV)
  alpha Z        PSCENC =         6.18334092
  Ewald energy   TEWEN  =      2503.64435966
  -Hartree energ DENC   =     -2931.51486862
  -exchange      EXHF   =         0.00000000
  -V(xc)+E(xc)   XCENC  =        54.92878700
  PAW double counting   =       151.32577238     -155.92769107
  entropy T*S    EENTRO =        -0.00087656
  eigenvalues    EBANDS =       -27.67816156
  atomic energy  EATOM  =       588.62352690
  free energy    TOTEN  =       189.58418906 eV

  energy without entropy =      189.58506562  energy(sigma->0) =      189.58462734

[...]

 eigenvalue-minimisations  : 10420
 total energy-change (2. order) :-0.1982032E+03  (-0.1761058E+03)
 number of electron      16.0000000 magnetization
 augmentation part       16.0000000 magnetization

[...]

 Broyden mixing:
  rms(total) = 0.71787E+00    rms(broyden)= 0.71787E+00
  rms(prec ) = 0.78139E+00
  weight for this iteration     100.00

[...]

 eigenvalues of (default mixing * dielectric matrix)
  average eigenvalue GAMMA=   2.3241
  2.3241

[...]

 average (electrostatic) potential at core
  the test charge radii are     0.6991
  (the norm of the test charge is              1.0000)
       1 -58.2646       2 -58.2646       3 -58.2646       4 -58.2646

 E-fermi :  -2.7967     XC(G=0):  -2.1634     alpha+bet : -1.9046

 k-point     1 :       0.0000    0.0000    0.0000
  band No.  band energies     occupation
      1     -22.1499      2.00000
      2     -17.1664      2.00000
      3     -15.8915      2.00000
      4     -10.2789      2.00000
      5      -8.9423      2.00000
      6      -5.9223      2.00000
      7      -5.7487      2.00000
      8      -5.2475      2.00000
      9      -1.1445      0.00000
     10       0.5363      0.00000
     11       1.3356      0.00000
     12       1.7242      0.00000

[...]

 soft charge-density along one line, spin component           1
         0         1         2         3         4         5         6         7         8         9
 total charge-density along one line

------------------------ aborting loop because EDIFF is reached ----------------------------------------

  FORCE on cell =-STRESS in cart. coord.  units (eV):
  Direction    XX          YY          ZZ          XY          YZ          ZX
  Alpha Z     6.18334     6.18334     6.18334
  Ewald    3036.87434  3038.78831 -3572.01854     0.00000     0.00000     0.00000
  Hartree  2974.52551  2975.19922 -2951.92855     0.00000    -0.00000    -0.00000
  E(xc)     -58.11036   -58.12780   -60.44748    -0.00000    -0.00000    -0.00000
  Local   -6184.50516 -6186.78116  6318.33546    -0.00000     0.00000    -0.00000
  n-local   -13.37973   -13.87580   -12.59547     0.06276    -0.00000    -0.00000
  augment    -1.50321    -1.50476    -1.38872     0.00000    -0.00000     0.00000
  Kinetic   236.63338   240.11772   273.85861    -4.50912     0.00000    -0.00000
  Fock        0.00000     0.00000     0.00000     0.00000     0.00000     0.00000
  Total      -3.28189    -0.00093    -0.00135     0.00000     0.00000     0.00000
  in kB     -24.93936    -0.00707    -0.01027     0.00000     0.00000     0.00000

 VOLUME and BASIS-vectors are now :
  energy-cutoff  :     2000.00
  volume of cell :      210.84
      direct lattice vectors                 reciprocal lattice vectors
     4.337360141  0.000000000  0.000000000     0.230554985  0.000000000  0.000000000
     0.000000000  2.460873762  0.000000000     0.000000000  0.406359731  0.000000000
     0.000000000  0.000000000 19.753036436     0.000000000  0.000000000  0.050625128

[...]

 FORCES acting on ions
    electron-ion (+dipol)            ewald-force                    non-local-force                 convergence-correction
   0.323E+01 0.393E-15 -.130E-08   -.323E+01 0.515E-14 0.137E-18   0.116E-02 0.000E+00 0.000E+00   -.114E-06 0.444E-15 -.825E-13
   -.323E+01 -.255E-14 -.840E-08   0.323E+01 0.233E-14 0.317E-18   -.116E-02 0.000E+00 0.000E+00   0.114E-06 -.140E-14 -.819E-13
   0.323E+01 -.193E-12 -.130E-08   -.323E+01 0.223E-14 0.744E-18   0.116E-02 0.000E+00 0.000E+00   -.114E-06 0.387E-15 -.824E-13
   -.323E+01 0.215E-15 -.842E-08   0.323E+01 -.584E-15 -.120E-17   -.116E-02 0.000E+00 -.103E-24   0.114E-06 -.131E-14 -.817E-13
   -.125E-05 -.194E-12 -.194E-07   -.311E-14 0.913E-14 0.000E+00   0.217E-18 0.000E+00 -.103E-24   -.164E-12 -.188E-14 -.329E-12

 POSITION                                       TOTAL-FORCE (eV/Angst)
      4.33581      0.00000      0.00000         0.000903     -0.000000     -0.000000
      0.72445      1.23044      0.00000        -0.000903      0.000000      0.000000
      2.16713      1.23044      0.00000         0.000903      0.000000     -0.000000
      2.89313      0.00000      0.00000        -0.000903     -0.000000      0.000000
    total drift:                               -0.000001     -0.000000     -0.000000

  FREE ENERGIE OF THE ION-ELECTRON SYSTEM (eV)
  free  energy   TOTEN  =       -36.90107105 eV

  energy  without entropy=      -36.90106602  energy(sigma->0) =      -36.90106854

 Quasi-Newton relaxation of ions (Broydens 2nd method)
  g(Force)  = 0.157E-06   g(Stress)= 0.000E+00

 Reset! Starting new Quasi-Newton update for ions

[...]

WARNING in EDDRMM: call to ZHEGV failed, returncode =   6  3  1

[...]

 d Force =-0.2277225E-06[-0.613E-06, 0.157E-06]  d Energy =-0.2219397E-06-0.578E-08
 d Force =-0.5641920E-03[-0.566E-03,-0.563E-03]  d Ewald  =-0.5641921E-03 0.641E-10

[...]

 retain information from N=  1 steps
 eigenvalues of (default step * inverse Hessian matrix)
  average eigenvalue of G=   0.2043
 eigenvalue spectrum of G is  0.2043

[...]

WARNING in EDDRMM: call to ZHEGV failed, returncode =   6  3  1

[...]

 d Force = 0.2435323E-06[-0.523E-09, 0.488E-06]  d Energy = 0.2392114E-06 0.432E-08
 d Force = 0.4491434E-03[ 0.448E-03, 0.450E-03]  d Ewald  = 0.4491434E-03-0.323E-10

[...]

 eigenvalue-minimisations  :  4624
 total energy-change (2. order) : 0.8456027E-09  ( 0.5442110E-09)
 number of electron      16.0000000 magnetization
 augmentation part        0.3762751 magnetization

[...]

 eigenvalue-minimisations  :  3001
 total energy-change (2. order) :-0.6210712E-09  ( 0.2546790E-12)
 number of electron      16.0000000 magnetization
 augmentation part        0.3762751 magnetization

[...]

 d Force =-0.1916161E-12[-0.944E-12, 0.561E-12]  d Energy =-0.1546141E-09 0.154E-09
 d Force =-0.4804056E-06[-0.480E-06,-0.480E-06]  d Ewald  =-0.4804060E-06 0.455E-12

[...]

 FEWALD executed in parallel

[...]

 eigenvalue-minimisations  :  4284
 total energy-change (2. order) : 0.6202754E-09  ( 0.5490105E-09)
 number of electron      16.0000000 magnetization
 augmentation part        0.3762751 magnetization

[...]

 eigenvalue-minimisations  :  1436
 total energy-change (2. order) :-0.6142500E-09  ( 0.2071594E-13)
 number of electron      16.0000000 magnetization
 augmentation part        0.3762751 magnetization

[...]

 eigenvalue-minimisations  :  1394
 total energy-change (2. order) : 0.2177103E-09  (-0.5976289E-13)
 number of electron      16.0000000 magnetization
 augmentation part        0.3762751 magnetization

 Broyden mixing:
  rms(total) = 0.12131E-08    rms(broyden)= 0.12131E-08
  rms(prec ) = 0.19209E-08
  weight for this iteration     100.00

 eigenvalues of (default mixing * dielectric matrix)
  average eigenvalue GAMMA=   1.9402
  2.8104  2.2632  0.7470

[...]

----------------------------------------- Iteration    5(   5)  ---------------------------------------

 eigenvalue-minimisations  :  1380
 total energy-change (2. order) :-0.3706191E-10  (-0.2469629E-13)
 number of electron      16.0000000 magnetization
 augmentation part        0.3762751 magnetization

 Free energy of the ion-electron system (eV)
  alpha Z        PSCENC =         6.18334092
  Ewald energy   TEWEN  =      2503.64447489
  -Hartree energ DENC   =     -2997.79628243
  -exchange      EXHF   =         0.00000000
  -V(xc)+E(xc)   XCENC  =        57.29336052
  PAW double counting   =       272.07475686     -277.20090650
  entropy T*S    EENTRO =        -0.00000499
  eigenvalues    EBANDS =      -189.72333725
  atomic energy  EATOM  =       588.62352690
  free energy    TOTEN  =       -36.90107107 eV

  energy without entropy =      -36.90106608  energy(sigma->0) =      -36.90106858

 average (electrostatic) potential at core
  the test charge radii are     0.6991
  (the norm of the test charge is              1.0000)
       1 -58.2646       2 -58.2646       3 -58.2646       4 -58.2646

 E-fermi :  -2.7967     XC(G=0):  -2.1630     alpha+bet : -1.9046

[...]

 k-point   247 :       0.5000    0.5000    0.0000
  band No.  band energies     occupation
      1     -16.9149      2.00000
      2     -16.9149      2.00000
      3     -15.9031      2.00000
      4     -15.9031      2.00000
      5      -9.2505      2.00000
      6      -9.2505      2.00000
      7      -5.0515      2.00000
      8      -5.0515      2.00000
      9      -1.1197      0.00000
     10      -1.1197      0.00000
     11       4.1746      0.00000
     12       4.1746      0.00000

 soft charge-density along one line, spin component           1
         0         1         2         3         4         5         6         7         8         9
 total charge-density along one line

------------------------ aborting loop because EDIFF is reached ----------------------------------------

  FORCE on cell =-STRESS in cart. coord.  units (eV):
  Direction    XX          YY          ZZ          XY          YZ          ZX
  Alpha Z     6.18334     6.18334     6.18334
  Ewald    3036.86666  3038.79612 -3572.01854     0.00000     0.00000     0.00000
  Hartree  2974.52447  2975.20036 -2951.92854    -0.00000    -0.00000    -0.00000
  E(xc)     -58.11039   -58.12778   -60.44749     0.00000    -0.00000    -0.00000
  Local   -6184.49784 -6186.78862  6318.33543    -0.00000     0.00000     0.00000
  n-local   -13.37980   -13.87574   -12.59548     0.06277     0.00000     0.00000
  augment    -1.50320    -1.50478    -1.38872    -0.00000    -0.00000     0.00000
  Kinetic   236.63460   240.11657   273.85865    -4.50915    -0.00000    -0.00000
  Fock        0.00000     0.00000     0.00000     0.00000     0.00000     0.00000
  Total      -3.28216    -0.00054    -0.00135     0.00000     0.00000     0.00000
  in kB     -24.94144    -0.00407    -0.01026     0.00000     0.00000     0.00000

 VOLUME and BASIS-vectors are now :
  energy-cutoff  :     2000.00
  volume of cell :      210.84
      direct lattice vectors                 reciprocal lattice vectors
     4.337360141  0.000000000  0.000000000     0.230554985  0.000000000  0.000000000
     0.000000000  2.460873762  0.000000000     0.000000000  0.406359731  0.000000000
     0.000000000  0.000000000 19.753036436     0.000000000  0.000000000  0.050625128

  length of vectors
     4.337360141  2.460873762 19.753036436     0.230554985  0.406359731  0.050625128

 FORCES acting on ions
    electron-ion (+dipol)            ewald-force                    non-local-force                 convergence-correction
   0.323E+01 -.426E-16 -.134E-08   -.323E+01 0.673E-14 0.693E-32   0.837E-03 -.694E-17 0.129E-25   -.618E-08 0.657E-15 0.136E-11
   -.323E+01 0.187E-12 -.838E-08   0.323E+01 -.142E-14 0.491E-18   -.837E-03 -.694E-17 -.182E-25   0.618E-08 -.188E-14 0.137E-11
   0.323E+01 -.204E-12 -.129E-08   -.323E+01 0.599E-14 -.693E-32   0.837E-03 -.694E-17 0.129E-25   -.618E-08 -.290E-14 0.137E-11
   -.323E+01 0.207E-15 -.841E-08   0.323E+01 -.217E-14 -.491E-18   -.837E-03 -.694E-17 -.129E-25   0.618E-08 0.144E-14 0.137E-11
   -.125E-05 -.171E-13 -.194E-07   -.311E-14 0.913E-14 0.000E+00   -.217E-18 -.278E-16 -.525E-26   -.453E-14 -.268E-14 0.547E-11

 POSITION                                       TOTAL-FORCE (eV/Angst)
      4.33582     -0.00000     -0.00000        -0.000000      0.000000     -0.000000
      0.72444      1.23044      0.00000         0.000000     -0.000000      0.000000
      2.16714      1.23044     -0.00000        -0.000000     -0.000000     -0.000000
      2.89312     -0.00000      0.00000         0.000000      0.000000      0.000000
    total drift:                               -0.000001     -0.000000     -0.000000

  FREE ENERGIE OF THE ION-ELECTRON SYSTEM (eV)
  free  energy   TOTEN  =       -36.90107107 eV

  energy  without entropy=      -36.90106608  energy(sigma->0) =      -36.90106858

 d Force = 0.3033547E-12[ 0.146E-13, 0.592E-12]  d Energy =-0.6741629E-10 0.677E-10
 d Force = 0.3013988E-06[ 0.301E-06, 0.301E-06]  d Ewald  = 0.3013993E-06-0.455E-12

 Quasi-Newton relaxation of ions (Broydens 2nd method)
  g(Force)  = 0.475E-14   g(Stress)= 0.000E+00

 retain information from N=  1 steps
 eigenvalues of (default step * inverse Hessian matrix)
  average eigenvalue of G=   0.0780
 eigenvalue spectrum of G is  0.0780

 reached required accuracy - stopping structural energy minimisation