 vasp.5.3.5 31Mar14 (build Mar 02 2015 18:14:16) complex

 executed on             LinuxIFC date 2018.08.10  15:18:32

 INCAR:
 POTCAR:   PAW_PBE C 08Apr2002
 POTCAR:   PAW_PBE C 08Apr2002
   VRHFIN =C: s2p2

   TITEL  = PAW_PBE C 08Apr2002
   POMASS =   12.011; ZVAL   =    4.000    mass and valenz
   ENMAX  =  400.000; ENMIN  =  300.000 eV
   QCUT   =   -5.516; QGAM   =   11.032    optimization parameters

   Description
     l     E      TYP  RCUT    TYP  RCUT
     0   .000     23  1.200
     0   .000     23  1.200
     1   .000     23  1.500
     1  2.500     23  1.500
     2   .000      7  1.500

 PAW_PBE C 08Apr2002                    :

 POSCAR: MD-kMC export data
  positions in direct lattice
  velocities in cartesian coordinates
 exchange correlation table for  LEXCH =        8
   RHO(1)=    0.500       N(1)  =     2000
   RHO(2)=  100.500       N(2)  =     4000

 ion  position               nearest neighbor table
   1  0.000  0.000  0.000-   2 1.42   2 1.42   4 1.43
   2  0.167  0.500  0.000-   1 1.42   1 1.42   3 1.43
   3  0.500  0.500  0.000-   4 1.42   4 1.42   2 1.43
   4  0.667  0.000  0.000-   3 1.42   3 1.42   1 1.43

  LATTYP: Found a simple orthorhombic cell.
 ALAT       =     2.4674226359
 B/A-ratio  =     1.7320430689
 C/A-ratio  =     8.1032523532

  Lattice vectors:

 A1 = (   0.0000000000,  -2.4674226359,   0.0000000000)
 A2 = (  -4.2736822747,   0.0000000000,   0.0000000000)
 A3 = (   0.0000000000,   0.0000000000, -19.9941482809)

Analysis of symmetry for initial positions (statically):
 Subroutine PRICEL returns following result:

  LATTYP: Found a hexagonal cell.
 ALAT       =     2.4674143678
 C/A-ratio  =     8.1032795067

[...]

   2 primitive cells build up your supercell.

 Routine SETGRP: Setting up the symmetry group for a
 simple orthorhombic supercell.

 Subroutine GETGRP returns: Found  8 space group operations
 (whereof  4 operations were pure point group operations)
 out of a pool of  8 trial point group operations.

The static configuration has the point symmetry C_2v.
 The point group associated with its full space group is D_2h.

Analysis of symmetry for dynamics (positions and initial velocities):
 Subroutine PRICEL returns following result:

  LATTYP: Found a hexagonal cell.
 ALAT       =     2.4674143678
 C/A-ratio  =     8.1032795067

  Lattice vectors:

 A1 = (   2.1368411373,  -1.2337113180,   0.0000000000)
 A2 = (  -2.1368411373,  -1.2337113180,   0.0000000000)
 A3 = (   0.0000000000,   0.0000000000, -19.9941482809)

   2 primitive cells build up your supercell.

 Routine SETGRP: Setting up the symmetry group for a
 simple orthorhombic supercell.

 Subroutine GETGRP returns: Found  8 space group operations
 (whereof  4 operations were pure point group operations)
 out of a pool of  8 trial point group operations.

The dynamic configuration has the point symmetry C_2v.
 The point group associated with its full space group is D_2h.

 KPOINTS: Automatic mesh

Automatic generation of k-mesh.
Space group operators:
 irot       det(A)        alpha          n_x          n_y          n_z        tau_x        tau_y        tau_z
    1     1.000000     0.000000     1.000000     0.000000     0.000000     0.000000     0.000000     0.000000
    2    -1.000000   179.999999     0.000000     0.000000     1.000000     0.000000     0.000000     0.000000
    3     1.000000   180.000000     1.000000     0.000000     0.000000     0.000000     0.000000     0.000000
    4    -1.000000   180.000000     0.000000     1.000000     0.000000     0.000000     0.000000     0.000000
    5    -1.000000     0.000000     1.000000     0.000000     0.000000     0.166667    -0.500000     0.000000
    6     1.000000   179.999999     0.000000     0.000000     1.000000     0.166667    -0.500000     0.000000
    7    -1.000000   180.000000     1.000000     0.000000     0.000000     0.166667    -0.500000     0.000000
    8     1.000000   180.000000     0.000000     1.000000     0.000000     0.166667    -0.500000     0.000000

 Subroutine IBZKPT returns following result:

 Found    247 irreducible k-points:

 Following reciprocal coordinates:
            Coordinates               Weight
  0.000000  0.000000  0.000000      1.000000
  0.041667  0.000000  0.000000      2.000000
  0.083333  0.000000  0.000000      2.000000
  0.125000  0.000000  0.000000      2.000000
  0.166667  0.000000  0.000000      2.000000
  0.208333  0.000000  0.000000      2.000000
  0.250000  0.000000  0.000000      2.000000
  0.291667  0.000000  0.000000      2.000000
  0.333333  0.000000  0.000000      2.000000
  0.375000  0.000000  0.000000      2.000000
  0.416667  0.000000  0.000000      2.000000
  0.458333  0.000000  0.000000      2.000000
  0.500000  0.000000  0.000000      1.000000
  0.000000  0.027778  0.000000      2.000000
  0.041667  0.027778  0.000000      4.000000
  0.083333  0.027778  0.000000      4.000000
  0.125000  0.027778  0.000000      4.000000
  0.166667  0.027778  0.000000      4.000000
  0.208333  0.027778  0.000000      4.000000
  0.250000  0.027778  0.000000      4.000000
  0.291667  0.027778  0.000000      4.000000
  0.333333  0.027778  0.000000      4.000000
  0.375000  0.027778  0.000000      4.000000
  0.416667  0.027778  0.000000      4.000000
  0.458333  0.027778  0.000000      4.000000
  0.500000  0.027778  0.000000      2.000000
  0.000000  0.055556  0.000000      2.000000
  0.041667  0.055556  0.000000      4.000000
  0.083333  0.055556  0.000000      4.000000
  0.125000  0.055556  0.000000      4.000000
  0.166667  0.055556  0.000000      4.000000
  0.208333  0.055556  0.000000      4.000000
  0.250000  0.055556  0.000000      4.000000
  0.291667  0.055556  0.000000      4.000000
  0.333333  0.055556  0.000000      4.000000
  0.375000  0.055556  0.000000      4.000000
  0.416667  0.055556  0.000000      4.000000
  0.458333  0.055556  0.000000      4.000000
  0.500000  0.055556  0.000000      2.000000
  0.000000  0.083333  0.000000      2.000000
  0.041667  0.083333  0.000000      4.000000
  0.083333  0.083333  0.000000      4.000000
  0.125000  0.083333  0.000000      4.000000
  0.166667  0.083333  0.000000      4.000000
  0.208333  0.083333  0.000000      4.000000
  0.250000  0.083333  0.000000      4.000000
  0.291667  0.083333  0.000000      4.000000
  0.333333  0.083333  0.000000      4.000000
  0.375000  0.083333  0.000000      4.000000
  0.416667  0.083333  0.000000      4.000000
  0.458333  0.083333  0.000000      4.000000
  0.500000  0.083333  0.000000      2.000000
  0.000000  0.111111  0.000000      2.000000
  0.041667  0.111111  0.000000      4.000000
  0.083333  0.111111  0.000000      4.000000
  0.125000  0.111111  0.000000      4.000000
  0.166667  0.111111  0.000000      4.000000
  0.208333  0.111111  0.000000      4.000000
  0.250000  0.111111  0.000000      4.000000
  0.291667  0.111111  0.000000      4.000000
[...]
  0.458333  0.472222  0.000000      4.000000
  0.500000  0.472222  0.000000      2.000000
  0.000000  0.500000  0.000000      1.000000
  0.041667  0.500000  0.000000      2.000000
  0.083333  0.500000  0.000000      2.000000
  0.125000  0.500000  0.000000      2.000000
  0.166667  0.500000  0.000000      2.000000
  0.208333  0.500000  0.000000      2.000000
  0.250000  0.500000  0.000000      2.000000
  0.291667  0.500000  0.000000      2.000000
  0.333333  0.500000  0.000000      2.000000
  0.375000  0.500000  0.000000      2.000000
  0.416667  0.500000  0.000000      2.000000
  0.458333  0.500000  0.000000      2.000000
  0.500000  0.500000  0.000000      1.000000

 Following cartesian coordinates:
            Coordinates               Weight
  0.000000  0.000000  0.000000      1.000000
  0.009750  0.000000  0.000000      2.000000
  0.019499  0.000000  0.000000      2.000000
  0.029249  0.000000  0.000000      2.000000
  0.038998  0.000000  0.000000      2.000000
  0.048748  0.000000  0.000000      2.000000
  0.058498  0.000000  0.000000      2.000000
  0.068247  0.000000  0.000000      2.000000
  0.077997  0.000000  0.000000      2.000000
  0.087746  0.000000  0.000000      2.000000
  0.097496  0.000000  0.000000      2.000000
  0.107246  0.000000  0.000000      2.000000
  0.116995  0.000000  0.000000      1.000000
  0.000000  0.011258  0.000000      2.000000
  0.009750  0.011258  0.000000      4.000000
  0.019499  0.011258  0.000000      4.000000
  0.029249  0.011258  0.000000      4.000000
  0.038998  0.011258  0.000000      4.000000
  0.048748  0.011258  0.000000      4.000000
  0.058498  0.011258  0.000000      4.000000
  0.068247  0.011258  0.000000      4.000000
  0.077997  0.011258  0.000000      4.000000
  0.087746  0.011258  0.000000      4.000000
  0.097496  0.011258  0.000000      4.000000
  0.107246  0.011258  0.000000      4.000000
  0.116995  0.011258  0.000000      2.000000
  0.000000  0.022516  0.000000      2.000000
  0.009750  0.022516  0.000000      4.000000
  0.019499  0.022516  0.000000      4.000000
  0.029249  0.022516  0.000000      4.000000
  0.038998  0.022516  0.000000      4.000000
  0.048748  0.022516  0.000000      4.000000
  0.058498  0.022516  0.000000      4.000000
  0.068247  0.022516  0.000000      4.000000
  0.077997  0.022516  0.000000      4.000000
  0.087746  0.022516  0.000000      4.000000
  0.097496  0.022516  0.000000      4.000000
  0.107246  0.022516  0.000000      4.000000
  0.116995  0.022516  0.000000      2.000000
  0.000000  0.033773  0.000000      2.000000
  0.009750  0.033773  0.000000      4.000000
  0.019499  0.033773  0.000000      4.000000
  0.029249  0.033773  0.000000      4.000000
  0.038998  0.033773  0.000000      4.000000
  0.048748  0.033773  0.000000      4.000000
  0.058498  0.033773  0.000000      4.000000
  0.068247  0.033773  0.000000      4.000000
  0.077997  0.033773  0.000000      4.000000
  0.087746  0.033773  0.000000      4.000000
  0.097496  0.033773  0.000000      4.000000
  0.107246  0.033773  0.000000      4.000000
  0.116995  0.033773  0.000000      2.000000
  0.000000  0.045031  0.000000      2.000000
  0.009750  0.045031  0.000000      4.000000
  0.019499  0.045031  0.000000      4.000000
  0.029249  0.045031  0.000000      4.000000
  0.038998  0.045031  0.000000      4.000000
  0.048748  0.045031  0.000000      4.000000
  0.058498  0.045031  0.000000      4.000000
  0.068247  0.045031  0.000000      4.000000
[...]
  0.107246  0.191383  0.000000      4.000000
  0.116995  0.191383  0.000000      2.000000
  0.000000  0.202641  0.000000      1.000000
  0.009750  0.202641  0.000000      2.000000
  0.019499  0.202641  0.000000      2.000000
  0.029249  0.202641  0.000000      2.000000
  0.038998  0.202641  0.000000      2.000000
  0.048748  0.202641  0.000000      2.000000
  0.058498  0.202641  0.000000      2.000000
  0.068247  0.202641  0.000000      2.000000
  0.077997  0.202641  0.000000      2.000000
  0.087746  0.202641  0.000000      2.000000
  0.097496  0.202641  0.000000      2.000000
  0.107246  0.202641  0.000000      2.000000
  0.116995  0.202641  0.000000      1.000000

 I would recommend the setting:
   dimension x,y,z NGX =    62 NGY =   36 NGZ =  292
 SYSTEM =  gr
 POSCAR =  MD-kMC export data

 Startparameter for this run:
[...]
 k-point ** :   0.4167 0.2778 0.0000  plane waves:   42806
 k-point ** :   0.4583 0.2778 0.0000  plane waves:   42824
 k-point ** :   0.5000 0.2778 0.0000  plane waves:   42838
 k-point ** :   0.0000 0.3056 0.0000  plane waves:   42886
 k-point ** :   0.0417 0.3056 0.0000  plane waves:   42896
 k-point ** :   0.0833 0.3056 0.0000  plane waves:   42881
 k-point ** :   0.1250 0.3056 0.0000  plane waves:   42861
 k-point ** :   0.1667 0.3056 0.0000  plane waves:   42890
 k-point ** :   0.2083 0.3056 0.0000  plane waves:   42860
 k-point ** :   0.2500 0.3056 0.0000  plane waves:   42845
 k-point ** :   0.2917 0.3056 0.0000  plane waves:   42839
 k-point ** :   0.3333 0.3056 0.0000  plane waves:   42836
 k-point ** :   0.3750 0.3056 0.0000  plane waves:   42830
 k-point ** :   0.4167 0.3056 0.0000  plane waves:   42820
 k-point ** :   0.4583 0.3056 0.0000  plane waves:   42814
 k-point ** :   0.5000 0.3056 0.0000  plane waves:   42856
 k-point ** :   0.0000 0.3333 0.0000  plane waves:   42916
 k-point ** :   0.0417 0.3333 0.0000  plane waves:   42901
 k-point ** :   0.0833 0.3333 0.0000  plane waves:   42875
[...]
 k-point ** :   0.4583 0.4722 0.0000  plane waves:   42811
 k-point ** :   0.5000 0.4722 0.0000  plane waves:   42834
 k-point ** :   0.0000 0.5000 0.0000  plane waves:   42878
 k-point ** :   0.0417 0.5000 0.0000  plane waves:   42948
 k-point ** :   0.0833 0.5000 0.0000  plane waves:   42924
 k-point ** :   0.1250 0.5000 0.0000  plane waves:   42930
 k-point ** :   0.1667 0.5000 0.0000  plane waves:   42910
 k-point ** :   0.2083 0.5000 0.0000  plane waves:   42950
 k-point ** :   0.2500 0.5000 0.0000  plane waves:   42932
 k-point ** :   0.2917 0.5000 0.0000  plane waves:   42892
 k-point ** :   0.3333 0.5000 0.0000  plane waves:   42842
 k-point ** :   0.3750 0.5000 0.0000  plane waves:   42818
 k-point ** :   0.4167 0.5000 0.0000  plane waves:   42796
 k-point ** :   0.4583 0.5000 0.0000  plane waves:   42822
 k-point ** :   0.5000 0.5000 0.0000  plane waves:   42800

 maximum and minimum number of plane-waves per node :     21502    21238

 maximum number of plane-waves:     42950
 maximum index in each direction:
   IXMAX=   15   IYMAX=    8   IZMAX=   72
   IXMIN=  -16   IYMIN=   -9   IZMIN=  -72

 NGX is ok and might be reduce to  64
 NGY is ok and might be reduce to  36
 NGZ is ok and might be reduce to 290

 parallel 3D FFT for wavefunctions:
    minimum data exchange during FFTs selected (reduces bandwidth)
 parallel 3D FFT for charge:
    minimum data exchange during FFTs selected (reduces bandwidth)

 Broyden mixing: mesh for mixing (old mesh)
   NGX = 31   NGY = 17   NGZ =145
  (NGX  =128   NGY  = 72   NGZ  =588)
  gives a total of  76415 points

 initial charge density was supplied:
 charge density of overlapping atoms calculated
 number of electron      16.0000000 magnetization
 keeping initial charge density in first step

 Maximum index for augmentation-charges         4659 (set IRDMAX)

 First call to EWALD:  gamma=   0.298
 Maximum number of real-space cells 4x 6x 1
 Maximum number of reciprocal cells 2x 1x 8

 FEWALD executed in parallel

----------------------------------------- Iteration    1(   1)  ---------------------------------------

 eigenvalue-minimisations  :  5928
 total energy-change (2. order) : 0.1906174E+03  (-0.1061702E+04)
 number of electron      16.0000000 magnetization
 augmentation part       16.0000000 magnetization

 Free energy of the ion-electron system (eV)
  alpha Z        PSCENC =         6.18334092
  Ewald energy   TEWEN  =      2584.88005359
  -Hartree energ DENC   =     -3010.31978682
  -exchange      EXHF   =         0.00000000
  -V(xc)+E(xc)   XCENC  =        55.09366265
  PAW double counting   =       151.32577238     -155.92769107
  entropy T*S    EENTRO =        -0.00162224
  eigenvalues    EBANDS =       -29.23983907
  atomic energy  EATOM  =       588.62352690
  free energy    TOTEN  =       190.61741725 eV

  energy without entropy =      190.61903948  energy(sigma->0) =      190.61822836

[...]

 eigenvalue-minimisations  : 10392
 total energy-change (2. order) :-0.1995803E+03  (-0.1773266E+03)
 number of electron      16.0000000 magnetization
 augmentation part       16.0000000 magnetization

[...]

 Broyden mixing:
  rms(total) = 0.73440E+00    rms(broyden)= 0.73440E+00
  rms(prec ) = 0.79836E+00
  weight for this iteration     100.00

[...]

 eigenvalues of (default mixing * dielectric matrix)
  average eigenvalue GAMMA=   2.3171
  2.3171

[...]

 average (electrostatic) potential at core
  the test charge radii are     0.6991
  (the norm of the test charge is              1.0000)
       1 -58.1908       2 -58.1908       3 -58.1908       4 -58.1908

 E-fermi :  -2.7545     XC(G=0):  -2.1439     alpha+bet : -1.9046

 k-point     1 :       0.0000    0.0000    0.0000
  band No.  band energies     occupation
      1     -22.2519      2.00000
      2     -17.0243      2.00000
      3     -15.9625      2.00000
      4     -10.3576      2.00000
      5      -9.1659      2.00000
      6      -5.8035      2.00000
      7      -5.7698      2.00000
      8      -5.1185      2.00000
      9      -1.0632      0.00000
     10       0.5240      0.00000
     11       1.3249      0.00000
     12       1.7053      0.00000

[...]

 soft charge-density along one line, spin component           1
         0         1         2         3         4         5         6         7         8         9
 total charge-density along one line

------------------------ aborting loop because EDIFF is reached ----------------------------------------

  FORCE on cell =-STRESS in cart. coord.  units (eV):
  Direction    XX          YY          ZZ          XY          YZ          ZX
  Alpha Z     6.18334     6.18334     6.18334
  Ewald    3121.82412  3122.80878 -3659.75311     0.00000     0.00000     0.00000
  Hartree  3056.09689  3056.23254 -3033.49930    -0.00000    -0.00000    -0.00000
  E(xc)     -58.33760   -58.33385   -60.67463     0.00000    -0.00000    -0.00000
  Local   -6350.47191 -6351.40408  6487.10318     0.00000     0.00000    -0.00000
  n-local   -13.94692   -13.93889   -12.76441     0.05707    -0.00000    -0.00000
  augment    -1.54040    -1.54192    -1.41396    -0.00000    -0.00000     0.00000
  Kinetic   240.15044   239.99320   274.81756    -4.60175     0.00000     0.00000
  Fock        0.00000     0.00000     0.00000     0.00000     0.00000     0.00000
  Total      -0.04203    -0.00087    -0.00133     0.00000     0.00000     0.00000
  in kB      -0.31941    -0.00665    -0.01009     0.00000     0.00000     0.00000

 VOLUME and BASIS-vectors are now :
  energy-cutoff  :     2000.00
  volume of cell :      210.84
      direct lattice vectors                 reciprocal lattice vectors
     4.273682275  0.000000000  0.000000000     0.233990254  0.000000000  0.000000000
     0.000000000  2.467422636  0.000000000     0.000000000  0.405281197  0.000000000
     0.000000000  0.000000000 19.994148281     0.000000000  0.000000000  0.050014634

[...]

 FORCES acting on ions
    electron-ion (+dipol)            ewald-force                    non-local-force                 convergence-correction
   0.161E+00 0.405E-16 0.286E-09   -.198E+00 0.321E-14 -.381E-31   -.208E-01 -.139E-16 0.000E+00   -.938E-07 -.369E-15 0.193E-12
   -.161E+00 0.113E-13 -.453E-08   0.198E+00 -.392E-14 0.162E-17   0.208E-01 0.104E-16 0.000E+00   0.938E-07 -.187E-14 0.193E-12
   0.161E+00 0.588E-12 0.300E-09   -.198E+00 0.403E-14 0.380E-31   -.208E-01 0.000E+00 0.000E+00   -.938E-07 -.364E-15 0.193E-12
   -.161E+00 0.858E-16 -.454E-08   0.198E+00 -.310E-14 -.162E-17   0.208E-01 0.347E-17 0.000E+00   0.938E-07 -.190E-14 0.193E-12
   -.452E-06 0.600E-12 -.849E-08   -.611E-15 0.220E-15 0.000E+00   0.347E-17 0.000E+00 0.000E+00   -.576E-13 -.451E-14 0.772E-12

 POSITION                                       TOTAL-FORCE (eV/Angst)
      0.00056      0.00000      0.00000        -0.057810     -0.000000      0.000000
      0.71172      1.23371      0.00000         0.057810     -0.000000     -0.000000
      2.13740      1.23371      0.00000        -0.057810      0.000000      0.000000
      2.84856      0.00000      0.00000         0.057810     -0.000000     -0.000000
    total drift:                               -0.000000      0.000000     -0.000000

  FREE ENERGIE OF THE ION-ELECTRON SYSTEM (eV)
  free  energy   TOTEN  =       -36.92542172 eV

  energy  without entropy=      -36.92529401  energy(sigma->0) =      -36.92535787

 Quasi-Newton relaxation of ions (Broydens 2nd method)
  g(Force)  = 0.645E-03   g(Stress)= 0.000E+00

 Reset! Starting new Quasi-Newton update for ions

[...]

WARNING in EDDRMM: call to ZHEGV failed, returncode =   6  3  1
WARNING in EDDRMM: call to ZHEGV failed, returncode =   6  3  1

[...]

 d Force =-0.9793735E-03[-0.260E-02, 0.645E-03]  d Energy =-0.9721230E-03-0.725E-05
 d Force =-0.3342393E-02[-0.890E-02, 0.221E-02]  d Ewald  =-0.3324988E-02-0.174E-04

[...]

 retain information from N=  1 steps
 eigenvalues of (default step * inverse Hessian matrix)
  average eigenvalue of G=   0.1985
 eigenvalue spectrum of G is  0.1985

[...]

 d Force = 0.1041034E-02[-0.471E-05, 0.209E-02]  d Energy = 0.1036721E-02 0.431E-05
 d Force = 0.3555999E-02[-0.188E-04, 0.713E-02]  d Ewald  = 0.3547034E-02 0.896E-05

[...]

WARNING in EDDRMM: call to ZHEGV failed, returncode =   6  3  1

[...]

 d Force = 0.5238742E-08[-0.118E-09, 0.106E-07]  d Energy = 0.5578272E-08-0.340E-09
 d Force = 0.2426112E-07[ 0.629E-08, 0.422E-07]  d Ewald  = 0.2426123E-07 0.000E+00

[...]

 eigenvalue-minimisations  :  4748
 total energy-change (2. order) : 0.2120260E-09  ( 0.5759607E-09)
 number of electron      16.0000000 magnetization
 augmentation part        0.3817547 magnetization

[...]

 eigenvalue-minimisations  :  2193
 total energy-change (2. order) :-0.3603873E-09  ( 0.7282652E-13)
 number of electron      16.0000000 magnetization
 augmentation part        0.3817547 magnetization

[...]

 d Force = 0.2953196E-12[-0.708E-12, 0.130E-11]  d Energy = 0.1988383E-09-0.199E-09
 d Force =-0.7140465E-10[-0.736E-10,-0.692E-10]  d Ewald  =-0.7139533E-10 0.000E+00

[...]

 eigenvalue-minimisations  :  1051
 total energy-change (2. order) : 0.3295781E-09  (-0.7113651E-14)
 number of electron      16.0000000 magnetization
 augmentation part        0.3817547 magnetization

[...]

 d Force =-0.1175491E-13[-0.273E-12, 0.250E-12]  d Energy =-0.6173195E-10 0.617E-10
 d Force = 0.2569280E-10[ 0.254E-10, 0.260E-10]  d Ewald  = 0.2546585E-10 0.000E+00

[...]

 FEWALD executed in parallel

[...]

 eigenvalue-minimisations  :   537
 total energy-change (2. order) :-0.7414656E-09  (-0.2430155E-14)
 number of electron      16.0000000 magnetization
 augmentation part        0.3817547 magnetization

[...]

 eigenvalue-minimisations  :   367
 total energy-change (2. order) : 0.2614797E-10  ( 0.0000000E+00)
 number of electron      16.0000000 magnetization
 augmentation part        0.3817547 magnetization

[...]

 Broyden mixing:
  rms(total) = 0.15609E-10    rms(broyden)= 0.15118E-10
  rms(prec ) = 0.29394E-10
  weight for this iteration     100.00

 eigenvalues of (default mixing * dielectric matrix)
  average eigenvalue GAMMA=   1.7017
  2.7332  2.5444  0.7869  0.7424

[...]

----------------------------------------- Iteration    7(   6)  ---------------------------------------

 eigenvalue-minimisations  :   702
 total energy-change (2. order) :-0.3819878E-10  ( 0.0000000E+00)
 number of electron      16.0000000 magnetization
 augmentation part        0.3817547 magnetization

 Free energy of the ion-electron system (eV)
  alpha Z        PSCENC =         6.18334092
  Ewald energy   TEWEN  =      2584.87983152
  -Hartree energ DENC   =     -3078.82996125
  -exchange      EXHF   =         0.00000000
  -V(xc)+E(xc)   XCENC  =        57.51721546
  PAW double counting   =       276.96159087     -282.10991741
  entropy T*S    EENTRO =        -0.00013060
  eigenvalues    EBANDS =      -190.15098274
  atomic energy  EATOM  =       588.62352690
  free energy    TOTEN  =       -36.92548633 eV

  energy without entropy =      -36.92535573  energy(sigma->0) =      -36.92542103

 average (electrostatic) potential at core
  the test charge radii are     0.6991
  (the norm of the test charge is              1.0000)
       1 -58.1908       2 -58.1908       3 -58.1908       4 -58.1908

 E-fermi :  -2.7545     XC(G=0):  -2.1426     alpha+bet : -1.9046

[...]

 k-point   247 :       0.5000    0.5000    0.0000
  band No.  band energies     occupation
      1     -17.0200      2.00000
      2     -17.0200      2.00000
      3     -15.9719      2.00000
      4     -15.9719      2.00000
      5      -9.1582      2.00000
      6      -9.1582      2.00000
      7      -5.1106      2.00000
      8      -5.1106      2.00000
      9      -1.0761      0.00000
     10      -1.0761      0.00000
     11       4.6044      0.00000
     12       4.6044      0.00000

 soft charge-density along one line, spin component           1
         0         1         2         3         4         5         6         7         8         9
 total charge-density along one line

------------------------ aborting loop because EDIFF is reached ----------------------------------------

  FORCE on cell =-STRESS in cart. coord.  units (eV):
  Direction    XX          YY          ZZ          XY          YZ          ZX
  Alpha Z     6.18334     6.18334     6.18334
  Ewald    3122.31371  3122.31897 -3659.75311     0.00000     0.00000     0.00000
  Hartree  3056.16421  3056.16504 -3033.49929    -0.00000    -0.00000    -0.00000
  E(xc)     -58.33574   -58.33570   -60.67462    -0.00000    -0.00000    -0.00000
  Local   -6350.93519 -6350.94061  6487.10324     0.00000     0.00000     0.00000
  n-local   -13.94297   -13.94285   -12.76440     0.05642    -0.00000     0.00000
  augment    -1.54117    -1.54114    -1.41396    -0.00000    -0.00000    -0.00000
  Kinetic   240.07317   240.07030   274.81748    -4.59931     0.00000    -0.00000
  Fock        0.00000     0.00000     0.00000     0.00000     0.00000     0.00000
  Total      -0.02062    -0.02264    -0.00132     0.00000     0.00000     0.00000
  in kB      -0.15673    -0.17206    -0.01001     0.00000     0.00000     0.00000

 VOLUME and BASIS-vectors are now :
  energy-cutoff  :     2000.00
  volume of cell :      210.84
      direct lattice vectors                 reciprocal lattice vectors
     4.273682275  0.000000000  0.000000000     0.233990254  0.000000000  0.000000000
     0.000000000  2.467422636  0.000000000     0.000000000  0.405281197  0.000000000
     0.000000000  0.000000000 19.994148281     0.000000000  0.000000000  0.050014634

  length of vectors
     4.273682275  2.467422636 19.994148281     0.233990254  0.405281197  0.050014634

 FORCES acting on ions
    electron-ion (+dipol)            ewald-force                    non-local-force                 convergence-correction
   0.370E-03 0.163E-15 0.207E-11   -.329E-03 -.207E-14 0.229E-31   -.403E-04 -.139E-16 0.000E+00   -.149E-10 -.255E-14 -.432E-11
   -.370E-03 0.209E-12 -.517E-08   0.329E-03 0.204E-14 -.132E-18   0.403E-04 0.694E-17 0.000E+00   0.148E-10 0.128E-16 -.430E-11
   0.370E-03 0.688E-12 0.903E-12   -.329E-03 -.193E-14 -.229E-31   -.403E-04 -.139E-16 -.323E-26   -.148E-10 -.317E-14 -.435E-11
   -.370E-03 0.209E-15 -.514E-08   0.329E-03 0.218E-14 0.132E-18   0.403E-04 0.694E-17 0.000E+00   0.148E-10 0.680E-15 -.436E-11
   -.475E-06 0.897E-12 -.103E-07   -.611E-15 0.220E-15 0.000E+00   0.271E-19 -.139E-16 -.323E-26   0.158E-14 -.502E-14 -.173E-10

 POSITION                                       TOTAL-FORCE (eV/Angst)
      0.00000     -0.00000      0.00000         0.000001     -0.000000     -0.000000
      0.71228      1.23371     -0.00000        -0.000001      0.000000      0.000000
      2.13684      1.23371      0.00000         0.000001      0.000000     -0.000000
      2.84912     -0.00000     -0.00000        -0.000001     -0.000000      0.000000
    total drift:                               -0.000000      0.000000     -0.000000

  FREE ENERGIE OF THE ION-ELECTRON SYSTEM (eV)
  free  energy   TOTEN  =       -36.92548633 eV

  energy  without entropy=      -36.92535573  energy(sigma->0) =      -36.92542103

 d Force = 0.8396974E-13[ 0.251E-13, 0.143E-12]  d Energy = 0.2478373E-10-0.247E-10
 d Force =-0.1335590E-10[-0.134E-10,-0.133E-10]  d Ewald  =-0.1364242E-10 0.455E-12

 Quasi-Newton relaxation of ions (Broydens 2nd method)
  g(Force)  = 0.729E-13   g(Stress)= 0.000E+00

 retain information from N=  1 steps
 eigenvalues of (default step * inverse Hessian matrix)
  average eigenvalue of G=   0.0734
 eigenvalue spectrum of G is  0.0734

 reached required accuracy - stopping structural energy minimisation