 vasp.5.3.5 31Mar14 (build Mar 02 2015 18:14:16) complex

 executed on             LinuxIFC date 2018.08.07  16:37:12

 INCAR:
 POTCAR:   PAW_PBE C 08Apr2002
 POTCAR:   PAW_PBE C 08Apr2002
   VRHFIN =C: s2p2

   TITEL  = PAW_PBE C 08Apr2002
   POMASS =   12.011; ZVAL   =    4.000    mass and valenz
   ENMAX  =  400.000; ENMIN  =  300.000 eV
   QCUT   =   -5.516; QGAM   =   11.032    optimization parameters

   Description
     l     E      TYP  RCUT    TYP  RCUT
     0   .000     23  1.200
     0   .000     23  1.200
     1   .000     23  1.500
     1  2.500     23  1.500
     2   .000      7  1.500

 PAW_PBE C 08Apr2002                    :

 POSCAR: MD-kMC export data
  positions in direct lattice
  velocities in cartesian coordinates
 exchange correlation table for  LEXCH =        8
   RHO(1)=    0.500       N(1)  =     2000
   RHO(2)=  100.500       N(2)  =     4000

 ion  position               nearest neighbor table
   1  1.000  0.000  0.000-   2 1.43   2 1.43   4 1.44
   2  0.167  0.500  0.000-   1 1.43   1 1.43   3 1.44
   3  0.500  0.500  0.000-   4 1.43   4 1.43   2 1.44
   4  0.667  0.000  0.000-   3 1.43   3 1.43   1 1.44

  LATTYP: Found a simple orthorhombic cell.
 ALAT       =     2.4627385907
 B/A-ratio  =     1.7529510302
 C/A-ratio  =     8.0523742892

  Lattice vectors:

 A1 = (   0.0000000000,  -2.4627385907,   0.0000000000)
 A2 = (  -4.3170601498,   0.0000000000,   0.0000000000)
 A3 = (   0.0000000000,   0.0000000000, -19.8308929091)

Analysis of symmetry for initial positions (statically):
 Subroutine PRICEL returns following result:

  LATTYP: Found a base centered orthorhombic cell.
 ALAT       =     2.4627385907
 B/A-ratio  =     1.7529510302
 C/A-ratio  =     8.0523742892

[...]

   2 primitive cells build up your supercell.

 Routine SETGRP: Setting up the symmetry group for a
 simple orthorhombic supercell.

 Subroutine GETGRP returns: Found  8 space group operations
 (whereof  4 operations were pure point group operations)
 out of a pool of  8 trial point group operations.

The static configuration has the point symmetry C_2v.
 The point group associated with its full space group is D_2h.

Analysis of symmetry for dynamics (positions and initial velocities):
 Subroutine PRICEL returns following result:

  LATTYP: Found a base centered orthorhombic cell.
 ALAT       =     2.4627385907
 B/A-ratio  =     1.7529510302
 C/A-ratio  =     8.0523742892

  Lattice vectors:

 A1 = (   2.1585300749,  -1.2313692954,   0.0000000000)
 A2 = (  -2.1585300749,  -1.2313692954,   0.0000000000)
 A3 = (   0.0000000000,   0.0000000000, -19.8308929091)

   2 primitive cells build up your supercell.

 Routine SETGRP: Setting up the symmetry group for a
 simple orthorhombic supercell.

 Subroutine GETGRP returns: Found  8 space group operations
 (whereof  4 operations were pure point group operations)
 out of a pool of  8 trial point group operations.

The dynamic configuration has the point symmetry C_2v.
 The point group associated with its full space group is D_2h.

 KPOINTS: Automatic mesh

Automatic generation of k-mesh.
Space group operators:
 irot       det(A)        alpha          n_x          n_y          n_z        tau_x        tau_y        tau_z
    1     1.000000     0.000000     1.000000     0.000000     0.000000     0.000000     0.000000     0.000000
    2    -1.000000   180.000000     0.000000     0.000000     1.000000     0.000000     0.000000     0.000000
    3     1.000000   180.000000     1.000000     0.000000     0.000000     0.000000     0.000000     0.000000
    4    -1.000000   179.999999     0.000000     1.000000     0.000000     0.000000     0.000000     0.000000
    5    -1.000000     0.000000     1.000000     0.000000     0.000000     0.166667    -0.500000     0.000000
    6     1.000000   180.000000     0.000000     0.000000     1.000000     0.166667    -0.500000     0.000000
    7    -1.000000   180.000000     1.000000     0.000000     0.000000     0.166667    -0.500000     0.000000
    8     1.000000   179.999999     0.000000     1.000000     0.000000     0.166667    -0.500000     0.000000

 Subroutine IBZKPT returns following result:

 Found    247 irreducible k-points:

 Following reciprocal coordinates:
            Coordinates               Weight
  0.000000  0.000000  0.000000      1.000000
  0.041667  0.000000  0.000000      2.000000
  0.083333  0.000000  0.000000      2.000000
  0.125000  0.000000  0.000000      2.000000
  0.166667  0.000000  0.000000      2.000000
  0.208333  0.000000  0.000000      2.000000
  0.250000  0.000000  0.000000      2.000000
  0.291667  0.000000  0.000000      2.000000
  0.333333  0.000000  0.000000      2.000000
  0.375000  0.000000  0.000000      2.000000
  0.416667  0.000000  0.000000      2.000000
  0.458333  0.000000  0.000000      2.000000
  0.500000  0.000000  0.000000      1.000000
  0.000000  0.027778  0.000000      2.000000
  0.041667  0.027778  0.000000      4.000000
  0.083333  0.027778  0.000000      4.000000
  0.125000  0.027778  0.000000      4.000000
  0.166667  0.027778  0.000000      4.000000
  0.208333  0.027778  0.000000      4.000000
  0.250000  0.027778  0.000000      4.000000
  0.291667  0.027778  0.000000      4.000000
  0.333333  0.027778  0.000000      4.000000
  0.375000  0.027778  0.000000      4.000000
  0.416667  0.027778  0.000000      4.000000
  0.458333  0.027778  0.000000      4.000000
  0.500000  0.027778  0.000000      2.000000
  0.000000  0.055556  0.000000      2.000000
  0.041667  0.055556  0.000000      4.000000
  0.083333  0.055556  0.000000      4.000000
  0.125000  0.055556  0.000000      4.000000
  0.166667  0.055556  0.000000      4.000000
  0.208333  0.055556  0.000000      4.000000
  0.250000  0.055556  0.000000      4.000000
  0.291667  0.055556  0.000000      4.000000
  0.333333  0.055556  0.000000      4.000000
  0.375000  0.055556  0.000000      4.000000
  0.416667  0.055556  0.000000      4.000000
  0.458333  0.055556  0.000000      4.000000
  0.500000  0.055556  0.000000      2.000000
  0.000000  0.083333  0.000000      2.000000
  0.041667  0.083333  0.000000      4.000000
  0.083333  0.083333  0.000000      4.000000
  0.125000  0.083333  0.000000      4.000000
  0.166667  0.083333  0.000000      4.000000
  0.208333  0.083333  0.000000      4.000000
  0.250000  0.083333  0.000000      4.000000
  0.291667  0.083333  0.000000      4.000000
  0.333333  0.083333  0.000000      4.000000
  0.375000  0.083333  0.000000      4.000000
  0.416667  0.083333  0.000000      4.000000
  0.458333  0.083333  0.000000      4.000000
  0.500000  0.083333  0.000000      2.000000
  0.000000  0.111111  0.000000      2.000000
  0.041667  0.111111  0.000000      4.000000
  0.083333  0.111111  0.000000      4.000000
  0.125000  0.111111  0.000000      4.000000
  0.166667  0.111111  0.000000      4.000000
  0.208333  0.111111  0.000000      4.000000
  0.250000  0.111111  0.000000      4.000000
  0.291667  0.111111  0.000000      4.000000
[...]
  0.458333  0.472222  0.000000      4.000000
  0.500000  0.472222  0.000000      2.000000
  0.000000  0.500000  0.000000      1.000000
  0.041667  0.500000  0.000000      2.000000
  0.083333  0.500000  0.000000      2.000000
  0.125000  0.500000  0.000000      2.000000
  0.166667  0.500000  0.000000      2.000000
  0.208333  0.500000  0.000000      2.000000
  0.250000  0.500000  0.000000      2.000000
  0.291667  0.500000  0.000000      2.000000
  0.333333  0.500000  0.000000      2.000000
  0.375000  0.500000  0.000000      2.000000
  0.416667  0.500000  0.000000      2.000000
  0.458333  0.500000  0.000000      2.000000
  0.500000  0.500000  0.000000      1.000000

 Following cartesian coordinates:
            Coordinates               Weight
  0.000000  0.000000  0.000000      1.000000
  0.009652  0.000000  0.000000      2.000000
  0.019303  0.000000  0.000000      2.000000
  0.028955  0.000000  0.000000      2.000000
  0.038607  0.000000  0.000000      2.000000
  0.048258  0.000000  0.000000      2.000000
  0.057910  0.000000  0.000000      2.000000
  0.067561  0.000000  0.000000      2.000000
  0.077213  0.000000  0.000000      2.000000
  0.086865  0.000000  0.000000      2.000000
  0.096516  0.000000  0.000000      2.000000
  0.106168  0.000000  0.000000      2.000000
  0.115820  0.000000  0.000000      1.000000
  0.000000  0.011279  0.000000      2.000000
  0.009652  0.011279  0.000000      4.000000
  0.019303  0.011279  0.000000      4.000000
  0.028955  0.011279  0.000000      4.000000
  0.038607  0.011279  0.000000      4.000000
  0.048258  0.011279  0.000000      4.000000
  0.057910  0.011279  0.000000      4.000000
  0.067561  0.011279  0.000000      4.000000
  0.077213  0.011279  0.000000      4.000000
  0.086865  0.011279  0.000000      4.000000
  0.096516  0.011279  0.000000      4.000000
  0.106168  0.011279  0.000000      4.000000
  0.115820  0.011279  0.000000      2.000000
  0.000000  0.022558  0.000000      2.000000
  0.009652  0.022558  0.000000      4.000000
  0.019303  0.022558  0.000000      4.000000
  0.028955  0.022558  0.000000      4.000000
  0.038607  0.022558  0.000000      4.000000
  0.048258  0.022558  0.000000      4.000000
  0.057910  0.022558  0.000000      4.000000
  0.067561  0.022558  0.000000      4.000000
  0.077213  0.022558  0.000000      4.000000
  0.086865  0.022558  0.000000      4.000000
  0.096516  0.022558  0.000000      4.000000
  0.106168  0.022558  0.000000      4.000000
  0.115820  0.022558  0.000000      2.000000
  0.000000  0.033838  0.000000      2.000000
  0.009652  0.033838  0.000000      4.000000
  0.019303  0.033838  0.000000      4.000000
  0.028955  0.033838  0.000000      4.000000
  0.038607  0.033838  0.000000      4.000000
  0.048258  0.033838  0.000000      4.000000
  0.057910  0.033838  0.000000      4.000000
  0.067561  0.033838  0.000000      4.000000
  0.077213  0.033838  0.000000      4.000000
  0.086865  0.033838  0.000000      4.000000
  0.096516  0.033838  0.000000      4.000000
  0.106168  0.033838  0.000000      4.000000
  0.115820  0.033838  0.000000      2.000000
  0.000000  0.045117  0.000000      2.000000
  0.009652  0.045117  0.000000      4.000000
  0.019303  0.045117  0.000000      4.000000
  0.028955  0.045117  0.000000      4.000000
  0.038607  0.045117  0.000000      4.000000
  0.048258  0.045117  0.000000      4.000000
  0.057910  0.045117  0.000000      4.000000
  0.067561  0.045117  0.000000      4.000000
[...]
  0.106168  0.191747  0.000000      4.000000
  0.115820  0.191747  0.000000      2.000000
  0.000000  0.203026  0.000000      1.000000
  0.009652  0.203026  0.000000      2.000000
  0.019303  0.203026  0.000000      2.000000
  0.028955  0.203026  0.000000      2.000000
  0.038607  0.203026  0.000000      2.000000
  0.048258  0.203026  0.000000      2.000000
  0.057910  0.203026  0.000000      2.000000
  0.067561  0.203026  0.000000      2.000000
  0.077213  0.203026  0.000000      2.000000
  0.086865  0.203026  0.000000      2.000000
  0.096516  0.203026  0.000000      2.000000
  0.106168  0.203026  0.000000      2.000000
  0.115820  0.203026  0.000000      1.000000

 I would recommend the setting:
   dimension x,y,z NGX =    63 NGY =   36 NGZ =  289
[...]
 k-point ** :   0.1250 0.2778 0.0000  plane waves:   42853
 k-point ** :   0.1667 0.2778 0.0000  plane waves:   42843
 k-point ** :   0.2083 0.2778 0.0000  plane waves:   42813
 k-point ** :   0.2500 0.2778 0.0000  plane waves:   42835
 k-point ** :   0.2917 0.2778 0.0000  plane waves:   42827
 k-point ** :   0.3333 0.2778 0.0000  plane waves:   42841
 k-point ** :   0.3750 0.2778 0.0000  plane waves:   42846
 k-point ** :   0.4167 0.2778 0.0000  plane waves:   42857
 k-point ** :   0.4583 0.2778 0.0000  plane waves:   42840
 k-point ** :   0.5000 0.2778 0.0000  plane waves:   42856
 k-point ** :   0.0000 0.3056 0.0000  plane waves:   42888
 k-point ** :   0.0417 0.3056 0.0000  plane waves:   42858
 k-point ** :   0.0833 0.3056 0.0000  plane waves:   42881
 k-point ** :   0.1250 0.3056 0.0000  plane waves:   42868
 k-point ** :   0.1667 0.3056 0.0000  plane waves:   42837
 k-point ** :   0.2083 0.3056 0.0000  plane waves:   42839
 k-point ** :   0.2500 0.3056 0.0000  plane waves:   42845
 k-point ** :   0.2917 0.3056 0.0000  plane waves:   42846
 k-point ** :   0.3333 0.3056 0.0000  plane waves:   42854
 k-point ** :   0.3750 0.3056 0.0000  plane waves:   42862
 k-point ** :   0.4167 0.3056 0.0000  plane waves:   42856
 k-point ** :   0.4583 0.3056 0.0000  plane waves:   42842
 k-point ** :   0.5000 0.3056 0.0000  plane waves:   42852
 k-point ** :   0.0000 0.3333 0.0000  plane waves:   42884
 k-point ** :   0.0417 0.3333 0.0000  plane waves:   42889
 k-point ** :   0.0833 0.3333 0.0000  plane waves:   42903
[...]
 k-point ** :   0.4583 0.4722 0.0000  plane waves:   42859
 k-point ** :   0.5000 0.4722 0.0000  plane waves:   42878
 k-point ** :   0.0000 0.5000 0.0000  plane waves:   42910
 k-point ** :   0.0417 0.5000 0.0000  plane waves:   42902
 k-point ** :   0.0833 0.5000 0.0000  plane waves:   42864
 k-point ** :   0.1250 0.5000 0.0000  plane waves:   42854
 k-point ** :   0.1667 0.5000 0.0000  plane waves:   42916
 k-point ** :   0.2083 0.5000 0.0000  plane waves:   42892
 k-point ** :   0.2500 0.5000 0.0000  plane waves:   42884
 k-point ** :   0.2917 0.5000 0.0000  plane waves:   42874
 k-point ** :   0.3333 0.5000 0.0000  plane waves:   42898
 k-point ** :   0.3750 0.5000 0.0000  plane waves:   42908
 k-point ** :   0.4167 0.5000 0.0000  plane waves:   42918
 k-point ** :   0.4583 0.5000 0.0000  plane waves:   42896
 k-point ** :   0.5000 0.5000 0.0000  plane waves:   42832

 maximum and minimum number of plane-waves per node :     21483    21248

 maximum number of plane-waves:     42924
 maximum index in each direction:
   IXMAX=   15   IYMAX=    8   IZMAX=   72
   IXMIN=  -16   IYMIN=   -9   IZMIN=  -72

 NGX is ok and might be reduce to  64
 NGY is ok and might be reduce to  36
 NGZ is ok and might be reduce to 290

 parallel 3D FFT for wavefunctions:
    minimum data exchange during FFTs selected (reduces bandwidth)
 parallel 3D FFT for charge:
    minimum data exchange during FFTs selected (reduces bandwidth)

 Broyden mixing: mesh for mixing (old mesh)
   NGX = 31   NGY = 17   NGZ =145
  (NGX  =128   NGY  = 72   NGZ  =588)
  gives a total of  76415 points

 initial charge density was supplied:
 charge density of overlapping atoms calculated
 number of electron      16.0000000 magnetization
 keeping initial charge density in first step

 Maximum index for augmentation-charges         4671 (set IRDMAX)

 First call to EWALD:  gamma=   0.298
 Maximum number of real-space cells 4x 6x 1
 Maximum number of reciprocal cells 2x 1x 8

 FEWALD executed in parallel

----------------------------------------- Iteration    1(   1)  ---------------------------------------

 eigenvalue-minimisations  :  5928
 total energy-change (2. order) : 0.1874464E+03  (-0.1063658E+04)
 number of electron      16.0000000 magnetization
 augmentation part       16.0000000 magnetization

 Free energy of the ion-electron system (eV)
  alpha Z        PSCENC =         6.18334092
  Ewald energy   TEWEN  =      2529.75546994
  -Hartree energ DENC   =     -2956.84377960
  -exchange      EXHF   =         0.00000000
  -V(xc)+E(xc)   XCENC  =        54.98212654
  PAW double counting   =       151.32577238     -155.92769107
  entropy T*S    EENTRO =        -0.00153244
  eigenvalues    EBANDS =       -30.65083754
  atomic energy  EATOM  =       588.62352690
  free energy    TOTEN  =       187.44639605 eV

  energy without entropy =      187.44792849  energy(sigma->0) =      187.44716227

[...]

 eigenvalue-minimisations  : 10460
 total energy-change (2. order) :-0.1970299E+03  (-0.1752141E+03)
 number of electron      16.0000000 magnetization
 augmentation part       16.0000000 magnetization

[...]

 Broyden mixing:
  rms(total) = 0.72459E+00    rms(broyden)= 0.72459E+00
  rms(prec ) = 0.78852E+00
  weight for this iteration     100.00

[...]

 eigenvalues of (default mixing * dielectric matrix)
  average eigenvalue GAMMA=   2.3140
  2.3140

[...]

WARNING in EDDRMM: call to ZHEGV failed, returncode =   6  3  1

[...]

 average (electrostatic) potential at core
  the test charge radii are     0.6991
  (the norm of the test charge is              1.0000)
       1 -58.2406       2 -58.2406       3 -58.2406       4 -58.2406

 E-fermi :  -2.7832     XC(G=0):  -2.1590     alpha+bet : -1.9046

 k-point     1 :       0.0000    0.0000    0.0000
  band No.  band energies     occupation
      1     -22.1829      2.00000
      2     -17.1218      2.00000
      3     -15.9176      2.00000
      4     -10.3043      2.00000
      5      -9.0099      2.00000
      6      -5.8791      2.00000
      7      -5.7610      2.00000
      8      -5.2054      2.00000
      9      -1.1224      0.00000
     10       0.5322      0.00000
     11       1.3318      0.00000
     12       1.7129      0.00000

[...]

 soft charge-density along one line, spin component           1
         0         1         2         3         4         5         6         7         8         9
 total charge-density along one line

------------------------ aborting loop because EDIFF is reached ----------------------------------------

  FORCE on cell =-STRESS in cart. coord.  units (eV):
  Direction    XX          YY          ZZ          XY          YZ          ZX
  Alpha Z     6.18334     6.18334     6.18334
  Ewald    3064.32506  3065.66237 -3600.23219     0.00000     0.00000    -0.00000
  Hartree  3000.76542  3001.22777 -2978.15076     0.00000    -0.00000    -0.00000
  E(xc)     -58.18331   -58.19513   -60.52099    -0.00000    -0.00000    -0.00000
  Local   -6237.99436 -6239.57215  6372.59796     0.00000     0.00000    -0.00000
  n-local   -13.55827   -13.90101   -12.65014     0.06059    -0.00000     0.00000
  augment    -1.51530    -1.51652    -1.39688    -0.00000    -0.00000     0.00000
  Kinetic   237.72809   240.11270   274.16816    -4.53723    -0.00000    -0.00000
  Fock        0.00000     0.00000     0.00000     0.00000     0.00000     0.00000
  Total      -2.24933     0.00135    -0.00151     0.00000     0.00000     0.00000
  in kB     -17.09284     0.01029    -0.01144     0.00000     0.00000     0.00000

 VOLUME and BASIS-vectors are now :
  energy-cutoff  :     2000.00
  volume of cell :      210.84
      direct lattice vectors                 reciprocal lattice vectors
     4.317060150  0.000000000  0.000000000     0.231639117  0.000000000  0.000000000
     0.000000000  2.462738591  0.000000000     0.000000000  0.406052028  0.000000000
     0.000000000  0.000000000 19.830892909     0.000000000  0.000000000  0.050426373

[...]

 FORCES acting on ions
    electron-ion (+dipol)            ewald-force                    non-local-force                 convergence-correction
   0.223E+01 0.409E-15 -.712E-09   -.223E+01 0.705E-14 -.557E-18   0.105E-02 0.139E-16 0.000E+00   0.145E-04 -.280E-14 0.190E-12
   -.223E+01 -.179E-12 -.695E-08   0.223E+01 0.171E-15 0.695E-18   -.105E-02 -.347E-17 0.000E+00   -.145E-04 0.670E-15 0.189E-12
   0.223E+01 -.206E-12 -.746E-09   -.223E+01 0.292E-14 0.557E-18   0.105E-02 0.139E-16 0.258E-25   0.145E-04 -.302E-14 0.190E-12
   -.223E+01 0.108E-14 -.696E-08   0.223E+01 -.396E-14 -.695E-18   -.105E-02 -.347E-17 -.258E-25   -.145E-04 0.919E-15 0.189E-12
   -.114E-05 -.383E-12 -.154E-07   0.577E-14 0.618E-14 0.000E+00   -.217E-18 0.208E-16 0.000E+00   -.247E-11 -.423E-14 0.759E-12

 POSITION                                       TOTAL-FORCE (eV/Angst)
      4.31600      0.00000      0.00000        -0.001649      0.000000      0.000000
      0.72057      1.23137      0.00000         0.001649     -0.000000     -0.000000
      2.15747      1.23137      0.00000        -0.001649     -0.000000      0.000000
      2.87910      0.00000      0.00000         0.001649      0.000000     -0.000000
    total drift:                               -0.000001     -0.000000     -0.000000

  FREE ENERGIE OF THE ION-ELECTRON SYSTEM (eV)
  free  energy   TOTEN  =       -36.91404694 eV

  energy  without entropy=      -36.91401966  energy(sigma->0) =      -36.91403330

 Quasi-Newton relaxation of ions (Broydens 2nd method)
  g(Force)  = 0.525E-06   g(Stress)= 0.000E+00

 Reset! Starting new Quasi-Newton update for ions

[...]

 d Force =-0.7762605E-06[-0.208E-05, 0.525E-06]  d Energy =-0.7857429E-06 0.948E-08
 d Force = 0.7061489E-03[ 0.702E-03, 0.711E-03]  d Ewald  = 0.7061494E-03-0.402E-09

[...]

 retain information from N=  1 steps
 eigenvalues of (default step * inverse Hessian matrix)
  average eigenvalue of G=   0.2017
 eigenvalue spectrum of G is  0.2017

[...]

WARNING in EDDRMM: call to ZHEGV failed, returncode =   6  3  1

[...]

 d Force = 0.8314671E-06[ 0.450E-08, 0.166E-05]  d Energy = 0.8375079E-06-0.604E-08
 d Force =-0.5629812E-03[-0.566E-03,-0.560E-03]  d Ewald  =-0.5629814E-03 0.201E-09

[...]

 eigenvalue-minimisations  :  6692
 total energy-change (2. order) : 0.4816911E-09  ( 0.5428915E-09)
 number of electron      16.0000000 magnetization
 augmentation part        0.3780450 magnetization

[...]

 eigenvalue-minimisations  :  2679
 total energy-change (2. order) :-0.5101128E-09  ( 0.1010838E-12)
 number of electron      16.0000000 magnetization
 augmentation part        0.3780450 magnetization

[...]

 d Force = 0.2251065E-11[-0.773E-11, 0.122E-10]  d Energy = 0.1522267E-09-0.150E-09
 d Force =-0.1538944E-05[-0.154E-05,-0.154E-05]  d Ewald  =-0.1538944E-05 0.455E-12

[...]

 FEWALD executed in parallel

[...]

 eigenvalue-minimisations  :  4952
 total energy-change (2. order) : 0.5899210E-09  ( 0.5661928E-09)
 number of electron      16.0000000 magnetization
 augmentation part        0.3780450 magnetization

[...]

 eigenvalue-minimisations  :  1803
 total energy-change (2. order) :-0.3773266E-09  (-0.3229721E-13)
 number of electron      16.0000000 magnetization
 augmentation part        0.3780450 magnetization

[...]

 eigenvalue-minimisations  :  1558
 total energy-change (2. order) :-0.4014282E-09  ( 0.6515364E-14)
 number of electron      16.0000000 magnetization
 augmentation part        0.3780450 magnetization

[...]

 Broyden mixing:
  rms(total) = 0.13410E-08    rms(broyden)= 0.13410E-08
  rms(prec ) = 0.14570E-08
  weight for this iteration     100.00

 eigenvalues of (default mixing * dielectric matrix)
  average eigenvalue GAMMA=   1.6301
  2.5777  2.5777  0.6824  0.6824

[...]

----------------------------------------- Iteration    5(   6)  ---------------------------------------

 eigenvalue-minimisations  :  1333
 total energy-change (2. order) : 0.7344170E-10  (-0.4483656E-13)
 number of electron      16.0000000 magnetization
 augmentation part        0.3780450 magnetization

 Free energy of the ion-electron system (eV)
  alpha Z        PSCENC =         6.18334092
  Ewald energy   TEWEN  =      2529.75532771
  -Hartree energ DENC   =     -3023.84245971
  -exchange      EXHF   =         0.00000000
  -V(xc)+E(xc)   XCENC  =        57.36579549
  PAW double counting   =       273.64542659     -278.77868074
  entropy T*S    EENTRO =        -0.00002757
  eigenvalues    EBANDS =      -189.86629659
  atomic energy  EATOM  =       588.62352690
  free energy    TOTEN  =       -36.91404699 eV

  energy without entropy =      -36.91401942  energy(sigma->0) =      -36.91403320

 average (electrostatic) potential at core
  the test charge radii are     0.6991
  (the norm of the test charge is              1.0000)
       1 -58.2407       2 -58.2407       3 -58.2407       4 -58.2407

 E-fermi :  -2.7832     XC(G=0):  -2.1565     alpha+bet : -1.9046

[...]

 k-point   247 :       0.5000    0.5000    0.0000
  band No.  band energies     occupation
      1     -16.9481      2.00000
      2     -16.9481      2.00000
      3     -15.9252      2.00000
      4     -15.9252      2.00000
      5      -9.2231      2.00000
      6      -9.2231      2.00000
      7      -5.0700      2.00000
      8      -5.0700      2.00000
      9      -1.1053      0.00000
     10      -1.1053      0.00000
     11       4.3101      0.00000
     12       4.3101      0.00000

 soft charge-density along one line, spin component           1
         0         1         2         3         4         5         6         7         8         9
 total charge-density along one line

------------------------ aborting loop because EDIFF is reached ----------------------------------------

  FORCE on cell =-STRESS in cart. coord.  units (eV):
  Direction    XX          YY          ZZ          XY          YZ          ZX
  Alpha Z     6.18334     6.18334     6.18334
  Ewald    3064.33888  3065.64840 -3600.23219     0.00000     0.00000    -0.00000
  Hartree  3000.76744  3001.22593 -2978.15091    -0.00000    -0.00000    -0.00000
  E(xc)     -58.18325   -58.19517   -60.52098    -0.00000    -0.00000    -0.00000
  Local   -6238.00763 -6239.55904  6372.59822     0.00000    -0.00000    -0.00000
  n-local   -13.55817   -13.90113   -12.65016     0.06057    -0.00000    -0.00000
  augment    -1.51532    -1.51650    -1.39688     0.00000    -0.00000    -0.00000
  Kinetic   237.72595   240.11481   274.16823    -4.53716     0.00000     0.00000
  Fock        0.00000     0.00000     0.00000     0.00000     0.00000     0.00000
  Total      -2.24875     0.00063    -0.00134     0.00000     0.00000     0.00000
  in kB     -17.08843     0.00478    -0.01016     0.00000     0.00000     0.00000

 VOLUME and BASIS-vectors are now :
  energy-cutoff  :     2000.00
  volume of cell :      210.84
      direct lattice vectors                 reciprocal lattice vectors
     4.317060150  0.000000000  0.000000000     0.231639117  0.000000000  0.000000000
     0.000000000  2.462738591  0.000000000     0.000000000  0.406052028  0.000000000
     0.000000000  0.000000000 19.830892909     0.000000000  0.000000000  0.050426373

  length of vectors
     4.317060150  2.462738591 19.830892909     0.231639117  0.406052028  0.050426373

 FORCES acting on ions
    electron-ion (+dipol)            ewald-force                    non-local-force                 convergence-correction
   0.223E+01 0.381E-16 -.790E-09   -.223E+01 -.251E-14 -.989E-18   0.163E-02 0.347E-17 0.646E-26   0.203E-07 -.246E-14 0.190E-11
   -.223E+01 -.173E-12 -.697E-08   0.223E+01 0.726E-14 0.498E-18   -.163E-02 -.347E-17 -.323E-26   -.203E-07 0.746E-15 0.187E-11
   0.223E+01 -.156E-12 -.751E-09   -.223E+01 -.417E-14 -.118E-17   0.163E-02 0.347E-17 0.646E-26   0.203E-07 -.183E-14 0.185E-11
   -.223E+01 0.181E-15 -.702E-08   0.223E+01 0.560E-14 0.167E-17   -.163E-02 -.347E-17 -.323E-26   -.203E-07 0.138E-15 0.188E-11
   -.114E-05 -.329E-12 -.155E-07   0.577E-14 0.618E-14 0.000E+00   0.000E+00 0.000E+00 0.646E-26   0.493E-14 -.341E-14 0.751E-11

 POSITION                                       TOTAL-FORCE (eV/Angst)
      4.31598      0.00000      0.00000        -0.000000      0.000000      0.000000
      0.72059      1.23137     -0.00000         0.000000     -0.000000     -0.000000
      2.15745      1.23137      0.00000        -0.000000      0.000000      0.000000
      2.87912      0.00000     -0.00000         0.000000      0.000000     -0.000000
    total drift:                               -0.000001     -0.000000     -0.000000

  FREE ENERGIE OF THE ION-ELECTRON SYSTEM (eV)
  free  energy   TOTEN  =       -36.91404699 eV

  energy  without entropy=      -36.91401942  energy(sigma->0) =      -36.91403320

 d Force = 0.1532841E-11[ 0.709E-13, 0.299E-11]  d Energy =-0.1549552E-09 0.156E-09
 d Force = 0.5959900E-06[ 0.596E-06, 0.596E-06]  d Ewald  = 0.5959905E-06-0.455E-12

 Quasi-Newton relaxation of ions (Broydens 2nd method)
  g(Force)  = 0.135E-13   g(Stress)= 0.000E+00

 retain information from N=  1 steps
 eigenvalues of (default step * inverse Hessian matrix)
  average eigenvalue of G=   0.1269
 eigenvalue spectrum of G is  0.1269

 reached required accuracy - stopping structural energy minimisation