 vasp.5.3.5 31Mar14 (build Mar 02 2015 18:14:16) complex

 executed on             LinuxIFC date 2018.08.09  19:49:55

 INCAR:
 POTCAR:   PAW_PBE C 08Apr2002
 POTCAR:   PAW_PBE C 08Apr2002
   VRHFIN =C: s2p2

   TITEL  = PAW_PBE C 08Apr2002
   POMASS =   12.011; ZVAL   =    4.000    mass and valenz
   ENMAX  =  400.000; ENMIN  =  300.000 eV
   QCUT   =   -5.516; QGAM   =   11.032    optimization parameters

   Description
     l     E      TYP  RCUT    TYP  RCUT
     0   .000     23  1.200
     0   .000     23  1.200
     1   .000     23  1.500
     1  2.500     23  1.500
     2   .000      7  1.500

 PAW_PBE C 08Apr2002                    :

 POSCAR: MD-kMC export data
  positions in direct lattice
  velocities in cartesian coordinates
 exchange correlation table for  LEXCH =        8
   RHO(1)=    0.500       N(1)  =     2000
   RHO(2)=  100.500       N(2)  =     4000

 ion  position               nearest neighbor table
   1  0.000  0.000  0.000-   4 1.42   2 1.43   2 1.43
   2  0.166  0.500  0.000-   3 1.42   1 1.43   1 1.43
   3  0.500  0.500  0.000-   2 1.42   4 1.43   4 1.43
   4  0.666  0.000  0.000-   1 1.42   3 1.43   3 1.43

  LATTYP: Found a simple orthorhombic cell.
 ALAT       =     2.4925903468
 B/A-ratio  =     1.7112443986
 C/A-ratio  =     7.9558011349

  Lattice vectors:

 A1 = (   0.0000000000,  -2.4925903468,   0.0000000000)
 A2 = (  -4.2654312691,   0.0000000000,   0.0000000000)
 A3 = (   0.0000000000,   0.0000000000, -19.8305531102)

Analysis of symmetry for initial positions (statically):
 Subroutine PRICEL returns following result:

  LATTYP: Found a base centered orthorhombic cell.
 ALAT       =     2.4925903468
 B/A-ratio  =     1.7112443986
 C/A-ratio  =     7.9558011349

[...]

   2 primitive cells build up your supercell.

 Routine SETGRP: Setting up the symmetry group for a
 simple orthorhombic supercell.

 Subroutine GETGRP returns: Found  8 space group operations
 (whereof  4 operations were pure point group operations)
 out of a pool of  8 trial point group operations.

The static configuration has the point symmetry C_2v.
 The point group associated with its full space group is D_2h.

Analysis of symmetry for dynamics (positions and initial velocities):
 Subroutine PRICEL returns following result:

  LATTYP: Found a base centered orthorhombic cell.
 ALAT       =     2.4925903468
 B/A-ratio  =     1.7112443986
 C/A-ratio  =     7.9558011349

  Lattice vectors:

 A1 = (   2.1327156346,  -1.2462951734,   0.0000000000)
 A2 = (  -2.1327156346,  -1.2462951734,   0.0000000000)
 A3 = (   0.0000000000,   0.0000000000, -19.8305531102)

   2 primitive cells build up your supercell.

 Routine SETGRP: Setting up the symmetry group for a
 simple orthorhombic supercell.

 Subroutine GETGRP returns: Found  8 space group operations
 (whereof  4 operations were pure point group operations)
 out of a pool of  8 trial point group operations.

The dynamic configuration has the point symmetry C_2v.
 The point group associated with its full space group is D_2h.

 KPOINTS: Automatic mesh

Automatic generation of k-mesh.
Space group operators:
 irot       det(A)        alpha          n_x          n_y          n_z        tau_x        tau_y        tau_z
    1     1.000000     0.000000     1.000000     0.000000     0.000000     0.000000     0.000000     0.000000
    2    -1.000000   180.000000     0.000000     0.000000     1.000000     0.000000     0.000000     0.000000
    3     1.000000   180.000000     1.000000     0.000000     0.000000     0.000000     0.000000     0.000000
    4    -1.000000   180.000000     0.000000     1.000000     0.000000     0.000000     0.000000     0.000000
    5    -1.000000     0.000000     1.000000     0.000000     0.000000     0.166667    -0.500000     0.000000
    6     1.000000   180.000000     0.000000     0.000000     1.000000     0.166667    -0.500000     0.000000
    7    -1.000000   180.000000     1.000000     0.000000     0.000000     0.166667    -0.500000     0.000000
    8     1.000000   180.000000     0.000000     1.000000     0.000000     0.166667    -0.500000     0.000000

 Subroutine IBZKPT returns following result:

 Found    247 irreducible k-points:

 Following reciprocal coordinates:
            Coordinates               Weight
  0.000000  0.000000  0.000000      1.000000
  0.041667  0.000000  0.000000      2.000000
  0.083333  0.000000  0.000000      2.000000
  0.125000  0.000000  0.000000      2.000000
  0.166667  0.000000  0.000000      2.000000
  0.208333  0.000000  0.000000      2.000000
  0.250000  0.000000  0.000000      2.000000
  0.291667  0.000000  0.000000      2.000000
  0.333333  0.000000  0.000000      2.000000
  0.375000  0.000000  0.000000      2.000000
  0.416667  0.000000  0.000000      2.000000
  0.458333  0.000000  0.000000      2.000000
  0.500000  0.000000  0.000000      1.000000
  0.000000  0.027778  0.000000      2.000000
  0.041667  0.027778  0.000000      4.000000
  0.083333  0.027778  0.000000      4.000000
  0.125000  0.027778  0.000000      4.000000
  0.166667  0.027778  0.000000      4.000000
  0.208333  0.027778  0.000000      4.000000
  0.250000  0.027778  0.000000      4.000000
  0.291667  0.027778  0.000000      4.000000
  0.333333  0.027778  0.000000      4.000000
  0.375000  0.027778  0.000000      4.000000
  0.416667  0.027778  0.000000      4.000000
  0.458333  0.027778  0.000000      4.000000
  0.500000  0.027778  0.000000      2.000000
  0.000000  0.055556  0.000000      2.000000
  0.041667  0.055556  0.000000      4.000000
  0.083333  0.055556  0.000000      4.000000
  0.125000  0.055556  0.000000      4.000000
  0.166667  0.055556  0.000000      4.000000
  0.208333  0.055556  0.000000      4.000000
  0.250000  0.055556  0.000000      4.000000
  0.291667  0.055556  0.000000      4.000000
  0.333333  0.055556  0.000000      4.000000
  0.375000  0.055556  0.000000      4.000000
  0.416667  0.055556  0.000000      4.000000
  0.458333  0.055556  0.000000      4.000000
  0.500000  0.055556  0.000000      2.000000
  0.000000  0.083333  0.000000      2.000000
  0.041667  0.083333  0.000000      4.000000
  0.083333  0.083333  0.000000      4.000000
  0.125000  0.083333  0.000000      4.000000
  0.166667  0.083333  0.000000      4.000000
  0.208333  0.083333  0.000000      4.000000
  0.250000  0.083333  0.000000      4.000000
  0.291667  0.083333  0.000000      4.000000
  0.333333  0.083333  0.000000      4.000000
  0.375000  0.083333  0.000000      4.000000
  0.416667  0.083333  0.000000      4.000000
  0.458333  0.083333  0.000000      4.000000
  0.500000  0.083333  0.000000      2.000000
  0.000000  0.111111  0.000000      2.000000
  0.041667  0.111111  0.000000      4.000000
  0.083333  0.111111  0.000000      4.000000
  0.125000  0.111111  0.000000      4.000000
  0.166667  0.111111  0.000000      4.000000
  0.208333  0.111111  0.000000      4.000000
  0.250000  0.111111  0.000000      4.000000
  0.291667  0.111111  0.000000      4.000000
[...]
  0.458333  0.472222  0.000000      4.000000
  0.500000  0.472222  0.000000      2.000000
  0.000000  0.500000  0.000000      1.000000
  0.041667  0.500000  0.000000      2.000000
  0.083333  0.500000  0.000000      2.000000
  0.125000  0.500000  0.000000      2.000000
  0.166667  0.500000  0.000000      2.000000
  0.208333  0.500000  0.000000      2.000000
  0.250000  0.500000  0.000000      2.000000
  0.291667  0.500000  0.000000      2.000000
  0.333333  0.500000  0.000000      2.000000
  0.375000  0.500000  0.000000      2.000000
  0.416667  0.500000  0.000000      2.000000
  0.458333  0.500000  0.000000      2.000000
  0.500000  0.500000  0.000000      1.000000

 Following cartesian coordinates:
            Coordinates               Weight
  0.000000  0.000000  0.000000      1.000000
  0.009768  0.000000  0.000000      2.000000
  0.019537  0.000000  0.000000      2.000000
  0.029305  0.000000  0.000000      2.000000
  0.039074  0.000000  0.000000      2.000000
  0.048842  0.000000  0.000000      2.000000
  0.058611  0.000000  0.000000      2.000000
  0.068379  0.000000  0.000000      2.000000
  0.078148  0.000000  0.000000      2.000000
  0.087916  0.000000  0.000000      2.000000
  0.097685  0.000000  0.000000      2.000000
  0.107453  0.000000  0.000000      2.000000
  0.117221  0.000000  0.000000      1.000000
  0.000000  0.011144  0.000000      2.000000
  0.009768  0.011144  0.000000      4.000000
  0.019537  0.011144  0.000000      4.000000
  0.029305  0.011144  0.000000      4.000000
  0.039074  0.011144  0.000000      4.000000
  0.048842  0.011144  0.000000      4.000000
  0.058611  0.011144  0.000000      4.000000
  0.068379  0.011144  0.000000      4.000000
  0.078148  0.011144  0.000000      4.000000
  0.087916  0.011144  0.000000      4.000000
  0.097685  0.011144  0.000000      4.000000
  0.107453  0.011144  0.000000      4.000000
  0.117221  0.011144  0.000000      2.000000
  0.000000  0.022288  0.000000      2.000000
  0.009768  0.022288  0.000000      4.000000
  0.019537  0.022288  0.000000      4.000000
  0.029305  0.022288  0.000000      4.000000
  0.039074  0.022288  0.000000      4.000000
  0.048842  0.022288  0.000000      4.000000
  0.058611  0.022288  0.000000      4.000000
  0.068379  0.022288  0.000000      4.000000
  0.078148  0.022288  0.000000      4.000000
  0.087916  0.022288  0.000000      4.000000
  0.097685  0.022288  0.000000      4.000000
  0.107453  0.022288  0.000000      4.000000
  0.117221  0.022288  0.000000      2.000000
  0.000000  0.033432  0.000000      2.000000
  0.009768  0.033432  0.000000      4.000000
  0.019537  0.033432  0.000000      4.000000
  0.029305  0.033432  0.000000      4.000000
  0.039074  0.033432  0.000000      4.000000
  0.048842  0.033432  0.000000      4.000000
  0.058611  0.033432  0.000000      4.000000
  0.068379  0.033432  0.000000      4.000000
  0.078148  0.033432  0.000000      4.000000
  0.087916  0.033432  0.000000      4.000000
  0.097685  0.033432  0.000000      4.000000
  0.107453  0.033432  0.000000      4.000000
  0.117221  0.033432  0.000000      2.000000
  0.000000  0.044577  0.000000      2.000000
  0.009768  0.044577  0.000000      4.000000
  0.019537  0.044577  0.000000      4.000000
  0.029305  0.044577  0.000000      4.000000
  0.039074  0.044577  0.000000      4.000000
  0.048842  0.044577  0.000000      4.000000
  0.058611  0.044577  0.000000      4.000000
  0.068379  0.044577  0.000000      4.000000
[...]
  0.107453  0.189450  0.000000      4.000000
  0.117221  0.189450  0.000000      2.000000
  0.000000  0.200595  0.000000      1.000000
  0.009768  0.200595  0.000000      2.000000
  0.019537  0.200595  0.000000      2.000000
  0.029305  0.200595  0.000000      2.000000
  0.039074  0.200595  0.000000      2.000000
  0.048842  0.200595  0.000000      2.000000
  0.058611  0.200595  0.000000      2.000000
  0.068379  0.200595  0.000000      2.000000
  0.078148  0.200595  0.000000      2.000000
  0.087916  0.200595  0.000000      2.000000
  0.097685  0.200595  0.000000      2.000000
  0.107453  0.200595  0.000000      2.000000
  0.117221  0.200595  0.000000      1.000000

 I would recommend the setting:
   dimension x,y,z NGX =    62 NGY =   36 NGZ =  289
[...]
 k-point ** :   0.3333 0.3056 0.0000  plane waves:   42787
 k-point ** :   0.3750 0.3056 0.0000  plane waves:   42796
 k-point ** :   0.4167 0.3056 0.0000  plane waves:   42801
 k-point ** :   0.4583 0.3056 0.0000  plane waves:   42790
 k-point ** :   0.5000 0.3056 0.0000  plane waves:   42796
 k-point ** :   0.0000 0.3333 0.0000  plane waves:   42934
 k-point ** :   0.0417 0.3333 0.0000  plane waves:   42901
 k-point ** :   0.0833 0.3333 0.0000  plane waves:   42903
[...]
 k-point ** :   0.4583 0.4722 0.0000  plane waves:   42824
 k-point ** :   0.5000 0.4722 0.0000  plane waves:   42828
 k-point ** :   0.0000 0.5000 0.0000  plane waves:   42842
 k-point ** :   0.0417 0.5000 0.0000  plane waves:   42878
 k-point ** :   0.0833 0.5000 0.0000  plane waves:   42920
 k-point ** :   0.1250 0.5000 0.0000  plane waves:   42920
 k-point ** :   0.1667 0.5000 0.0000  plane waves:   42906
 k-point ** :   0.2083 0.5000 0.0000  plane waves:   42910
 k-point ** :   0.2500 0.5000 0.0000  plane waves:   42908
 k-point ** :   0.2917 0.5000 0.0000  plane waves:   42920
 k-point ** :   0.3333 0.5000 0.0000  plane waves:   42860
 k-point ** :   0.3750 0.5000 0.0000  plane waves:   42852
 k-point ** :   0.4167 0.5000 0.0000  plane waves:   42838
 k-point ** :   0.4583 0.5000 0.0000  plane waves:   42818
 k-point ** :   0.5000 0.5000 0.0000  plane waves:   42800

 maximum and minimum number of plane-waves per node :     21504    21276

 maximum number of plane-waves:     42938
 maximum index in each direction:
   IXMAX=   15   IYMAX=    9   IZMAX=   72
   IXMIN=  -16   IYMIN=   -9   IZMIN=  -72

 NGX is ok and might be reduce to  64
 WARNING: aliasing errors must be expected set NGY to  38 to avoid them
 NGZ is ok and might be reduce to 290
 aliasing errors are usually negligible using standard VASP settings
 and one can safely disregard these warnings

 parallel 3D FFT for wavefunctions:
    minimum data exchange during FFTs selected (reduces bandwidth)
 parallel 3D FFT for charge:
    minimum data exchange during FFTs selected (reduces bandwidth)

 Broyden mixing: mesh for mixing (old mesh)
   NGX = 31   NGY = 19   NGZ =145
  (NGX  =128   NGY  = 72   NGZ  =588)
  gives a total of  85405 points

 initial charge density was supplied:
 charge density of overlapping atoms calculated
 number of electron      16.0000000 magnetization
 keeping initial charge density in first step

 Maximum index for augmentation-charges         4665 (set IRDMAX)

 First call to EWALD:  gamma=   0.298
 Maximum number of real-space cells 4x 6x 1
 Maximum number of reciprocal cells 2x 1x 8

 FEWALD executed in parallel

----------------------------------------- Iteration    1(   1)  ---------------------------------------

 eigenvalue-minimisations  :  5928
 total energy-change (2. order) : 0.1879547E+03  (-0.1067593E+04)
 number of electron      16.0000000 magnetization
 augmentation part       16.0000000 magnetization

 Free energy of the ion-electron system (eV)
  alpha Z        PSCENC =         6.18334092
  Ewald energy   TEWEN  =      2529.64085206
  -Hartree energ DENC   =     -2956.73279758
  -exchange      EXHF   =         0.00000000
  -V(xc)+E(xc)   XCENC  =        54.98188317
  PAW double counting   =       151.32577238     -155.92769107
  entropy T*S    EENTRO =        -0.00193524
  eigenvalues    EBANDS =       -30.13820731
  atomic energy  EATOM  =       588.62352690
  free energy    TOTEN  =       187.95474424 eV

  energy without entropy =      187.95667948  energy(sigma->0) =      187.95571186

[...]

 eigenvalue-minimisations  : 10516
 total energy-change (2. order) :-0.1978505E+03  (-0.1762326E+03)
 number of electron      16.0000000 magnetization
 augmentation part       16.0000000 magnetization

[...]

 Broyden mixing:
  rms(total) = 0.72561E+00    rms(broyden)= 0.72561E+00
  rms(prec ) = 0.78958E+00
  weight for this iteration     100.00

[...]

 eigenvalues of (default mixing * dielectric matrix)
  average eigenvalue GAMMA=   2.3156
  2.3156

[...]

WARNING in EDDRMM: call to ZHEGV failed, returncode =   6  3  1

[...]

 average (electrostatic) potential at core
  the test charge radii are     0.6991
  (the norm of the test charge is              1.0000)
       1 -58.2408       2 -58.2408       3 -58.2408       4 -58.2408

 E-fermi :  -2.7833     XC(G=0):  -2.1565     alpha+bet : -1.9046

 k-point     1 :       0.0000    0.0000    0.0000
  band No.  band energies     occupation
      1     -22.1828      2.00000
      2     -16.8891      2.00000
      3     -15.9276      2.00000
      4     -10.3042      2.00000
      5      -9.2954      2.00000
      6      -5.8766      2.00000
      7      -5.7637      2.00000
      8      -5.0245      2.00000
      9      -1.1004      0.00000
     10       0.5323      0.00000
     11       1.3322      0.00000
     12       1.7202      0.00000

[...]

 soft charge-density along one line, spin component           1
         0         1         2         3         4         5         6         7         8         9
 total charge-density along one line

------------------------ aborting loop because EDIFF is reached ----------------------------------------

  FORCE on cell =-STRESS in cart. coord.  units (eV):
  Direction    XX          YY          ZZ          XY          YZ          ZX
  Alpha Z     6.18334     6.18334     6.18334
  Ewald    3065.53078  3064.21865 -3600.10882    -0.00000     0.00000     0.00000
  Hartree  3001.09990  3000.66463 -2978.03623    -0.00000    -0.00000    -0.00000
  E(xc)     -58.19500   -58.18279   -60.52065    -0.00000    -0.00000    -0.00000
  Local   -6239.30604 -6237.79527  6372.36090    -0.00000    -0.00000    -0.00000
  n-local   -13.90116   -13.55711   -12.64988     0.06982    -0.00000     0.00000
  augment    -1.51661    -1.51517    -1.39684     0.00000    -0.00000    -0.00000
  Kinetic   240.10674   237.72917   274.16684    -4.61949     0.00000    -0.00000
  Fock        0.00000     0.00000     0.00000     0.00000     0.00000     0.00000
  Total       0.00195    -2.25454    -0.00134     0.00000     0.00000     0.00000
  in kB       0.01484   -17.13248    -0.01019     0.00000     0.00000     0.00000

 VOLUME and BASIS-vectors are now :
  energy-cutoff  :     2000.00
  volume of cell :      210.84
      direct lattice vectors                 reciprocal lattice vectors
     4.265431269  0.000000000  0.000000000     0.234442882  0.000000000  0.000000000
     0.000000000  2.492590347  0.000000000     0.000000000  0.401189069  0.000000000
     0.000000000  0.000000000 19.830553110     0.000000000  0.000000000  0.050427237

[...]

 FORCES acting on ions
    electron-ion (+dipol)            ewald-force                    non-local-force                 convergence-correction
   -.223E+01 0.892E-16 0.520E-09   0.223E+01 0.858E-16 -.448E-18   -.259E-03 -.104E-16 0.414E-24   -.316E-07 -.549E-15 0.194E-12
   0.223E+01 0.185E-12 -.398E-08   -.223E+01 -.404E-14 -.161E-33   0.259E-03 -.104E-16 -.414E-24   0.316E-07 -.274E-16 0.195E-12
   -.223E+01 -.155E-12 0.520E-09   0.223E+01 0.102E-14 0.448E-18   -.259E-03 -.104E-16 0.543E-24   -.316E-07 -.431E-15 0.194E-12
   0.223E+01 0.745E-15 -.399E-08   -.223E+01 -.311E-14 0.169E-33   0.259E-03 -.104E-16 -.620E-24   0.316E-07 -.139E-15 0.195E-12
   -.241E-06 0.309E-13 -.693E-08   -.178E-14 -.605E-14 -.241E-34   0.000E+00 -.416E-16 -.775E-25   0.211E-13 -.115E-14 0.778E-12

 POSITION                                       TOTAL-FORCE (eV/Angst)
      0.00112      0.00000      0.00000         0.002431      0.000000      0.000000
      0.70978      1.24630      0.00000        -0.002431     -0.000000      0.000000
      2.13384      1.24630      0.00000         0.002431     -0.000000      0.000000
      2.84250      0.00000      0.00000        -0.002431      0.000000      0.000000
    total drift:                               -0.000000      0.000000     -0.000000

  FREE ENERGIE OF THE ION-ELECTRON SYSTEM (eV)
  free  energy   TOTEN  =       -36.91394020 eV

  energy  without entropy=      -36.91391383  energy(sigma->0) =      -36.91392701

 Quasi-Newton relaxation of ions (Broydens 2nd method)
  g(Force)  = 0.114E-05   g(Stress)= 0.000E+00

 Reset! Starting new Quasi-Newton update for ions

[...]

WARNING in EDDRMM: call to ZHEGV failed, returncode =   6  3  1
WARNING in EDDRMM: call to ZHEGV failed, returncode =   6  3  1

[...]

 d Force =-0.1754856E-05[-0.465E-05, 0.114E-05]  d Energy =-0.1768977E-05 0.141E-07
 d Force = 0.1038790E-02[ 0.103E-02, 0.105E-02]  d Ewald  = 0.1038789E-02 0.128E-08

[...]

 retain information from N=  1 steps
 eigenvalues of (default step * inverse Hessian matrix)
  average eigenvalue of G=   0.1970
 eigenvalue spectrum of G is  0.1970

[...]

 d Force = 0.1869223E-05[ 0.408E-08, 0.373E-05]  d Energy = 0.1878741E-05-0.952E-08
 d Force =-0.8326593E-03[-0.839E-03,-0.826E-03]  d Ewald  =-0.8326586E-03-0.663E-09

[...]

 eigenvalue-minimisations  :  5044
 total energy-change (2. order) : 0.5735501E-09  ( 0.5610789E-09)
 number of electron      16.0000000 magnetization
 augmentation part        0.3780364 magnetization

[...]

 eigenvalue-minimisations  :  3212
 total energy-change (2. order) :-0.4299636E-09  ( 0.2998260E-12)
 number of electron      16.0000000 magnetization
 augmentation part        0.3780364 magnetization

[...]

 d Force =-0.2230509E-12[-0.492E-11, 0.447E-11]  d Energy = 0.1001581E-09-0.100E-09
 d Force =-0.9182802E-06[-0.918E-06,-0.918E-06]  d Ewald  =-0.9182800E-06-0.455E-12

[...]

 d Force = 0.1434207E-11[ 0.294E-12, 0.257E-11]  d Energy = 0.1718945E-09-0.170E-09
 d Force = 0.4809656E-06[ 0.481E-06, 0.481E-06]  d Ewald  = 0.4809649E-06 0.455E-12

[...]

 d Force = 0.3479902E-13[ 0.318E-13, 0.378E-13]  d Energy =-0.1809894E-09 0.181E-09
 d Force = 0.6192939E-07[ 0.619E-07, 0.619E-07]  d Ewald  = 0.6193022E-07-0.909E-12

[...]

 eigenvalue-minimisations  :  1007
 total energy-change (2. order) :-0.3381047E-09  (-0.1164501E-13)
 number of electron      16.0000000 magnetization
 augmentation part        0.3780364 magnetization

[...]

 eigenvalue-minimisations  :   979
 total energy-change (2. order) : 0.1803073E-09  (-0.1842148E-14)
 number of electron      16.0000000 magnetization
 augmentation part        0.3780364 magnetization

[...]

 d Force =-0.6436392E-13[-0.296E-12, 0.167E-12]  d Energy = 0.2773959E-10-0.278E-10
 d Force = 0.3259835E-06[ 0.326E-06, 0.326E-06]  d Ewald  = 0.3259838E-06-0.455E-12

[...]

 d Force = 0.2304540E-13[-0.143E-12, 0.189E-12]  d Energy =-0.1980425E-09 0.198E-09
 d Force =-0.2082789E-06[-0.208E-06,-0.208E-06]  d Ewald  =-0.2082788E-06 0.000E+00

[...]

 d Force = 0.6321590E-14[-0.490E-13, 0.616E-13]  d Energy = 0.1111857E-09-0.111E-09
 d Force = 0.8968952E-07[ 0.897E-07, 0.897E-07]  d Ewald  = 0.8968891E-07 0.455E-12

[...]

 FEWALD executed in parallel

[...]

 eigenvalue-minimisations  :   238
 total energy-change (2. order) : 0.8890311E-10  ( 0.0000000E+00)
 number of electron      16.0000000 magnetization
 augmentation part        0.3780364 magnetization

 Broyden mixing:
  rms(total) = 0.53969E-10    rms(broyden)= 0.53930E-10
  rms(prec ) = 0.61804E-10
  weight for this iteration     100.00

 eigenvalues of (default mixing * dielectric matrix)
  average eigenvalue GAMMA=   2.1138
  1.0821  2.5679  2.6916

[...]

----------------------------------------- Iteration   10(   5)  ---------------------------------------

 eigenvalue-minimisations  :   199
 total energy-change (2. order) :-0.6502887E-10  ( 0.0000000E+00)
 number of electron      16.0000000 magnetization
 augmentation part        0.3780364 magnetization

 Free energy of the ion-electron system (eV)
  alpha Z        PSCENC =         6.18334092
  Ewald energy   TEWEN  =      2529.64064614
  -Hartree energ DENC   =     -3023.72812437
  -exchange      EXHF   =         0.00000000
  -V(xc)+E(xc)   XCENC  =        57.36546138
  PAW double counting   =       273.63809750     -278.77131857
  entropy T*S    EENTRO =        -0.00002678
  eigenvalues    EBANDS =      -189.86554343
  atomic energy  EATOM  =       588.62352690
  free energy    TOTEN  =       -36.91394031 eV

  energy without entropy =      -36.91391353  energy(sigma->0) =      -36.91392692

 average (electrostatic) potential at core
  the test charge radii are     0.6991
  (the norm of the test charge is              1.0000)
       1 -58.2408       2 -58.2408       3 -58.2408       4 -58.2408

 E-fermi :  -2.7833     XC(G=0):  -2.1565     alpha+bet : -1.9046

[...]

 k-point   247 :       0.5000    0.5000    0.0000
  band No.  band energies     occupation
      1     -17.0643      2.00000
      2     -17.0643      2.00000
      3     -15.9204      2.00000
      4     -15.9204      2.00000
      5      -9.0801      2.00000
      6      -9.0801      2.00000
      7      -5.1602      2.00000
      8      -5.1602      2.00000
      9      -1.1169      0.00000
     10      -1.1169      0.00000
     11       4.6030      0.00000
     12       4.6030      0.00000

 soft charge-density along one line, spin component           1
         0         1         2         3         4         5         6         7         8         9
 total charge-density along one line

------------------------ aborting loop because EDIFF is reached ----------------------------------------

  FORCE on cell =-STRESS in cart. coord.  units (eV):
  Direction    XX          YY          ZZ          XY          YZ          ZX
  Alpha Z     6.18334     6.18334     6.18334
  Ewald    3065.51067  3064.23855 -3600.10882    -0.00000     0.00000    -0.00000
  Hartree  3001.09710  3000.66727 -2978.03624    -0.00000    -0.00000    -0.00000
  E(xc)     -58.19506   -58.18270   -60.52064     0.00000    -0.00000    -0.00000
  Local   -6239.28703 -6237.81402  6372.36096     0.00000    -0.00000    -0.00000
  n-local   -13.90133   -13.55693   -12.64988     0.06984     0.00000    -0.00000
  augment    -1.51658    -1.51520    -1.39684    -0.00000    -0.00000    -0.00000
  Kinetic   240.10972   237.72606   274.16678    -4.61960    -0.00000     0.00000
  Fock        0.00000     0.00000     0.00000     0.00000     0.00000     0.00000
  Total       0.00083    -2.25363    -0.00134     0.00000     0.00000     0.00000
  in kB       0.00631   -17.12553    -0.01019     0.00000     0.00000     0.00000

 VOLUME and BASIS-vectors are now :
  energy-cutoff  :     2000.00
  volume of cell :      210.84
      direct lattice vectors                 reciprocal lattice vectors
     4.265431269  0.000000000  0.000000000     0.234442882  0.000000000  0.000000000
     0.000000000  2.492590347  0.000000000     0.000000000  0.401189069  0.000000000
     0.000000000  0.000000000 19.830553110     0.000000000  0.000000000  0.050427237

  length of vectors
     4.265431269  2.492590347 19.830553110     0.234442882  0.401189069  0.050427237

 FORCES acting on ions
    electron-ion (+dipol)            ewald-force                    non-local-force                 convergence-correction
   -.223E+01 0.303E-16 0.529E-09   0.223E+01 -.714E-14 -.318E-18   -.112E-02 0.694E-17 -.162E-26   0.213E-10 -.618E-15 0.434E-11
   0.223E+01 0.378E-14 -.397E-08   -.223E+01 0.423E-14 0.428E-18   0.112E-02 -.347E-17 -.808E-27   -.213E-10 -.913E-15 0.433E-11
   -.223E+01 0.694E-12 0.505E-09   0.223E+01 -.725E-14 0.644E-18   -.112E-02 0.694E-17 -.162E-26   0.213E-10 -.475E-15 0.438E-11
   0.223E+01 0.116E-15 -.401E-08   -.223E+01 0.411E-14 -.753E-18   0.112E-02 -.104E-16 0.000E+00   -.213E-10 -.110E-14 0.439E-11
   -.239E-06 0.698E-12 -.694E-08   -.178E-14 -.605E-14 0.000E+00   -.651E-18 0.000E+00 -.404E-26   0.317E-14 -.310E-14 0.174E-10

 POSITION                                       TOTAL-FORCE (eV/Angst)
      0.00114      0.00000     -0.00000         0.000000      0.000000     -0.000000
      0.70976      1.24630      0.00000        -0.000000     -0.000000      0.000000
      2.13386      1.24630     -0.00000         0.000000     -0.000000     -0.000000
      2.84248      0.00000      0.00000        -0.000000      0.000000      0.000000
    total drift:                               -0.000000      0.000000     -0.000000

  FREE ENERGIE OF THE ION-ELECTRON SYSTEM (eV)
  free  energy   TOTEN  =       -36.91394031 eV

  energy  without entropy=      -36.91391353  energy(sigma->0) =      -36.91392692

 d Force = 0.7252729E-14[-0.717E-14, 0.217E-13]  d Energy =-0.1357421E-09 0.136E-09
 d Force =-0.3971596E-07[-0.397E-07,-0.397E-07]  d Ewald  =-0.3971581E-07 0.000E+00

 Quasi-Newton relaxation of ions (Broydens 2nd method)
  g(Force)  = 0.312E-13   g(Stress)= 0.000E+00

 retain information from N=  1 steps
 eigenvalues of (default step * inverse Hessian matrix)
  average eigenvalue of G=   0.0571
 eigenvalue spectrum of G is  0.0571

 reached required accuracy - stopping structural energy minimisation