 vasp.5.3.5 31Mar14 (build Mar 02 2015 18:14:16) complex

 executed on             LinuxIFC date 2018.08.09  20:03:22

 INCAR:
 POTCAR:   PAW_PBE C 08Apr2002
 POTCAR:   PAW_PBE C 08Apr2002
   VRHFIN =C: s2p2

   TITEL  = PAW_PBE C 08Apr2002
   POMASS =   12.011; ZVAL   =    4.000    mass and valenz
   ENMAX  =  400.000; ENMIN  =  300.000 eV
   QCUT   =   -5.516; QGAM   =   11.032    optimization parameters

   Description
     l     E      TYP  RCUT    TYP  RCUT
     0   .000     23  1.200
     0   .000     23  1.200
     1   .000     23  1.500
     1  2.500     23  1.500
     2   .000      7  1.500

 PAW_PBE C 08Apr2002                    :

 POSCAR: MD-kMC export data
  positions in direct lattice
  velocities in cartesian coordinates
 exchange correlation table for  LEXCH =        8
   RHO(1)=    0.500       N(1)  =     2000
   RHO(2)=  100.500       N(2)  =     4000

 ion  position               nearest neighbor table
   1  0.000  0.000  0.000-   4 1.42   2 1.44   2 1.44
   2  0.166  0.500  0.000-   3 1.42   1 1.44   1 1.44
   3  0.500  0.500  0.000-   2 1.42   4 1.44   4 1.44
   4  0.666  0.000  0.000-   1 1.42   3 1.44   3 1.44

  LATTYP: Found a simple orthorhombic cell.
 ALAT       =     2.5046807177
 B/A-ratio  =     1.7015894696
 C/A-ratio  =     7.8856369474

  Lattice vectors:

 A1 = (   0.0000000000,  -2.5046807177,   0.0000000000)
 A2 = (  -4.2619383341,   0.0000000000,   0.0000000000)
 A3 = (   0.0000000000,   0.0000000000, -19.7510028093)

Analysis of symmetry for initial positions (statically):
 Subroutine PRICEL returns following result:

  LATTYP: Found a base centered orthorhombic cell.
 ALAT       =     2.5046807177
 B/A-ratio  =     1.7015894696
 C/A-ratio  =     7.8856369474

[...]

   2 primitive cells build up your supercell.

 Routine SETGRP: Setting up the symmetry group for a
 simple orthorhombic supercell.

 Subroutine GETGRP returns: Found  8 space group operations
 (whereof  4 operations were pure point group operations)
 out of a pool of  8 trial point group operations.

The static configuration has the point symmetry C_2v.
 The point group associated with its full space group is D_2h.

Analysis of symmetry for dynamics (positions and initial velocities):
 Subroutine PRICEL returns following result:

  LATTYP: Found a base centered orthorhombic cell.
 ALAT       =     2.5046807177
 B/A-ratio  =     1.7015894696
 C/A-ratio  =     7.8856369474

  Lattice vectors:

 A1 = (   2.1309691670,  -1.2523403589,   0.0000000000)
 A2 = (  -2.1309691670,  -1.2523403589,   0.0000000000)
 A3 = (   0.0000000000,   0.0000000000, -19.7510028093)

   2 primitive cells build up your supercell.

 Routine SETGRP: Setting up the symmetry group for a
 simple orthorhombic supercell.

 Subroutine GETGRP returns: Found  8 space group operations
 (whereof  4 operations were pure point group operations)
 out of a pool of  8 trial point group operations.

The dynamic configuration has the point symmetry C_2v.
 The point group associated with its full space group is D_2h.

 KPOINTS: Automatic mesh

Automatic generation of k-mesh.
Space group operators:
 irot       det(A)        alpha          n_x          n_y          n_z        tau_x        tau_y        tau_z
    1     1.000000     0.000000     1.000000     0.000000     0.000000     0.000000     0.000000     0.000000
    2    -1.000000   180.000000     0.000000     0.000000     1.000000     0.000000     0.000000     0.000000
    3     1.000000   180.000000     1.000000     0.000000     0.000000     0.000000     0.000000     0.000000
    4    -1.000000   180.000000     0.000000     1.000000     0.000000     0.000000     0.000000     0.000000
    5    -1.000000     0.000000     1.000000     0.000000     0.000000     0.166667    -0.500000     0.000000
    6     1.000000   180.000000     0.000000     0.000000     1.000000     0.166667    -0.500000     0.000000
    7    -1.000000   180.000000     1.000000     0.000000     0.000000     0.166667    -0.500000     0.000000
    8     1.000000   180.000000     0.000000     1.000000     0.000000     0.166667    -0.500000     0.000000

 Subroutine IBZKPT returns following result:

 Found    247 irreducible k-points:

 Following reciprocal coordinates:
            Coordinates               Weight
  0.000000  0.000000  0.000000      1.000000
  0.041667  0.000000  0.000000      2.000000
  0.083333  0.000000  0.000000      2.000000
  0.125000  0.000000  0.000000      2.000000
  0.166667  0.000000  0.000000      2.000000
  0.208333  0.000000  0.000000      2.000000
  0.250000  0.000000  0.000000      2.000000
  0.291667  0.000000  0.000000      2.000000
  0.333333  0.000000  0.000000      2.000000
  0.375000  0.000000  0.000000      2.000000
  0.416667  0.000000  0.000000      2.000000
  0.458333  0.000000  0.000000      2.000000
  0.500000  0.000000  0.000000      1.000000
  0.000000  0.027778  0.000000      2.000000
  0.041667  0.027778  0.000000      4.000000
  0.083333  0.027778  0.000000      4.000000
  0.125000  0.027778  0.000000      4.000000
  0.166667  0.027778  0.000000      4.000000
  0.208333  0.027778  0.000000      4.000000
  0.250000  0.027778  0.000000      4.000000
  0.291667  0.027778  0.000000      4.000000
  0.333333  0.027778  0.000000      4.000000
  0.375000  0.027778  0.000000      4.000000
  0.416667  0.027778  0.000000      4.000000
  0.458333  0.027778  0.000000      4.000000
  0.500000  0.027778  0.000000      2.000000
  0.000000  0.055556  0.000000      2.000000
  0.041667  0.055556  0.000000      4.000000
  0.083333  0.055556  0.000000      4.000000
  0.125000  0.055556  0.000000      4.000000
  0.166667  0.055556  0.000000      4.000000
  0.208333  0.055556  0.000000      4.000000
  0.250000  0.055556  0.000000      4.000000
  0.291667  0.055556  0.000000      4.000000
  0.333333  0.055556  0.000000      4.000000
  0.375000  0.055556  0.000000      4.000000
  0.416667  0.055556  0.000000      4.000000
  0.458333  0.055556  0.000000      4.000000
  0.500000  0.055556  0.000000      2.000000
  0.000000  0.083333  0.000000      2.000000
  0.041667  0.083333  0.000000      4.000000
  0.083333  0.083333  0.000000      4.000000
  0.125000  0.083333  0.000000      4.000000
  0.166667  0.083333  0.000000      4.000000
  0.208333  0.083333  0.000000      4.000000
  0.250000  0.083333  0.000000      4.000000
  0.291667  0.083333  0.000000      4.000000
  0.333333  0.083333  0.000000      4.000000
  0.375000  0.083333  0.000000      4.000000
  0.416667  0.083333  0.000000      4.000000
  0.458333  0.083333  0.000000      4.000000
  0.500000  0.083333  0.000000      2.000000
  0.000000  0.111111  0.000000      2.000000
  0.041667  0.111111  0.000000      4.000000
  0.083333  0.111111  0.000000      4.000000
  0.125000  0.111111  0.000000      4.000000
  0.166667  0.111111  0.000000      4.000000
  0.208333  0.111111  0.000000      4.000000
  0.250000  0.111111  0.000000      4.000000
  0.291667  0.111111  0.000000      4.000000
[...]
  0.458333  0.472222  0.000000      4.000000
  0.500000  0.472222  0.000000      2.000000
  0.000000  0.500000  0.000000      1.000000
  0.041667  0.500000  0.000000      2.000000
  0.083333  0.500000  0.000000      2.000000
  0.125000  0.500000  0.000000      2.000000
  0.166667  0.500000  0.000000      2.000000
  0.208333  0.500000  0.000000      2.000000
  0.250000  0.500000  0.000000      2.000000
  0.291667  0.500000  0.000000      2.000000
  0.333333  0.500000  0.000000      2.000000
  0.375000  0.500000  0.000000      2.000000
  0.416667  0.500000  0.000000      2.000000
  0.458333  0.500000  0.000000      2.000000
  0.500000  0.500000  0.000000      1.000000

 Following cartesian coordinates:
            Coordinates               Weight
  0.000000  0.000000  0.000000      1.000000
  0.009776  0.000000  0.000000      2.000000
  0.019553  0.000000  0.000000      2.000000
  0.029329  0.000000  0.000000      2.000000
  0.039106  0.000000  0.000000      2.000000
  0.048882  0.000000  0.000000      2.000000
  0.058659  0.000000  0.000000      2.000000
  0.068435  0.000000  0.000000      2.000000
  0.078212  0.000000  0.000000      2.000000
  0.087988  0.000000  0.000000      2.000000
  0.097765  0.000000  0.000000      2.000000
  0.107541  0.000000  0.000000      2.000000
  0.117318  0.000000  0.000000      1.000000
  0.000000  0.011090  0.000000      2.000000
  0.009776  0.011090  0.000000      4.000000
  0.019553  0.011090  0.000000      4.000000
  0.029329  0.011090  0.000000      4.000000
  0.039106  0.011090  0.000000      4.000000
  0.048882  0.011090  0.000000      4.000000
  0.058659  0.011090  0.000000      4.000000
  0.068435  0.011090  0.000000      4.000000
  0.078212  0.011090  0.000000      4.000000
  0.087988  0.011090  0.000000      4.000000
  0.097765  0.011090  0.000000      4.000000
  0.107541  0.011090  0.000000      4.000000
  0.117318  0.011090  0.000000      2.000000
  0.000000  0.022181  0.000000      2.000000
  0.009776  0.022181  0.000000      4.000000
  0.019553  0.022181  0.000000      4.000000
  0.029329  0.022181  0.000000      4.000000
  0.039106  0.022181  0.000000      4.000000
  0.048882  0.022181  0.000000      4.000000
  0.058659  0.022181  0.000000      4.000000
  0.068435  0.022181  0.000000      4.000000
  0.078212  0.022181  0.000000      4.000000
  0.087988  0.022181  0.000000      4.000000
  0.097765  0.022181  0.000000      4.000000
  0.107541  0.022181  0.000000      4.000000
  0.117318  0.022181  0.000000      2.000000
  0.000000  0.033271  0.000000      2.000000
  0.009776  0.033271  0.000000      4.000000
  0.019553  0.033271  0.000000      4.000000
  0.029329  0.033271  0.000000      4.000000
  0.039106  0.033271  0.000000      4.000000
  0.048882  0.033271  0.000000      4.000000
  0.058659  0.033271  0.000000      4.000000
  0.068435  0.033271  0.000000      4.000000
  0.078212  0.033271  0.000000      4.000000
  0.087988  0.033271  0.000000      4.000000
  0.097765  0.033271  0.000000      4.000000
  0.107541  0.033271  0.000000      4.000000
  0.117318  0.033271  0.000000      2.000000
  0.000000  0.044361  0.000000      2.000000
  0.009776  0.044361  0.000000      4.000000
  0.019553  0.044361  0.000000      4.000000
  0.029329  0.044361  0.000000      4.000000
  0.039106  0.044361  0.000000      4.000000
  0.048882  0.044361  0.000000      4.000000
  0.058659  0.044361  0.000000      4.000000
  0.068435  0.044361  0.000000      4.000000
[...]
  0.107541  0.188536  0.000000      4.000000
  0.117318  0.188536  0.000000      2.000000
  0.000000  0.199626  0.000000      1.000000
  0.009776  0.199626  0.000000      2.000000
  0.019553  0.199626  0.000000      2.000000
  0.029329  0.199626  0.000000      2.000000
  0.039106  0.199626  0.000000      2.000000
  0.048882  0.199626  0.000000      2.000000
  0.058659  0.199626  0.000000      2.000000
  0.068435  0.199626  0.000000      2.000000
  0.078212  0.199626  0.000000      2.000000
  0.087988  0.199626  0.000000      2.000000
  0.097765  0.199626  0.000000      2.000000
  0.107541  0.199626  0.000000      2.000000
  0.117318  0.199626  0.000000      1.000000

 I would recommend the setting:
   dimension x,y,z NGX =    62 NGY =   37 NGZ =  288
[...]
 k-point ** :   0.4167 0.2222 0.0000  plane waves:   42745
 k-point ** :   0.4583 0.2222 0.0000  plane waves:   42761
 k-point ** :   0.5000 0.2222 0.0000  plane waves:   42780
 k-point ** :   0.0000 0.2500 0.0000  plane waves:   42876
 k-point ** :   0.0417 0.2500 0.0000  plane waves:   42890
 k-point ** :   0.0833 0.2500 0.0000  plane waves:   42862
 k-point ** :   0.1250 0.2500 0.0000  plane waves:   42864
 k-point ** :   0.1667 0.2500 0.0000  plane waves:   42846
 k-point ** :   0.2083 0.2500 0.0000  plane waves:   42838
 k-point ** :   0.2500 0.2500 0.0000  plane waves:   42804
 k-point ** :   0.2917 0.2500 0.0000  plane waves:   42801
 k-point ** :   0.3333 0.2500 0.0000  plane waves:   42799
 k-point ** :   0.3750 0.2500 0.0000  plane waves:   42791
 k-point ** :   0.4167 0.2500 0.0000  plane waves:   42766
 k-point ** :   0.4583 0.2500 0.0000  plane waves:   42756
 k-point ** :   0.5000 0.2500 0.0000  plane waves:   42734
 k-point ** :   0.0000 0.2778 0.0000  plane waves:   42920
 k-point ** :   0.0417 0.2778 0.0000  plane waves:   42886
 k-point ** :   0.0833 0.2778 0.0000  plane waves:   42909
 k-point ** :   0.1250 0.2778 0.0000  plane waves:   42886
 k-point ** :   0.1667 0.2778 0.0000  plane waves:   42865
 k-point ** :   0.2083 0.2778 0.0000  plane waves:   42848
 k-point ** :   0.2500 0.2778 0.0000  plane waves:   42846
 k-point ** :   0.2917 0.2778 0.0000  plane waves:   42809
 k-point ** :   0.3333 0.2778 0.0000  plane waves:   42794
 k-point ** :   0.3750 0.2778 0.0000  plane waves:   42772
 k-point ** :   0.4167 0.2778 0.0000  plane waves:   42777
 k-point ** :   0.4583 0.2778 0.0000  plane waves:   42750
 k-point ** :   0.5000 0.2778 0.0000  plane waves:   42738
 k-point ** :   0.0000 0.3056 0.0000  plane waves:   42892
 k-point ** :   0.0417 0.3056 0.0000  plane waves:   42887
 k-point ** :   0.0833 0.3056 0.0000  plane waves:   42907
 k-point ** :   0.1250 0.3056 0.0000  plane waves:   42891
 k-point ** :   0.1667 0.3056 0.0000  plane waves:   42875
 k-point ** :   0.2083 0.3056 0.0000  plane waves:   42849
 k-point ** :   0.2500 0.3056 0.0000  plane waves:   42834
 k-point ** :   0.2917 0.3056 0.0000  plane waves:   42815
 k-point ** :   0.3333 0.3056 0.0000  plane waves:   42786
 k-point ** :   0.3750 0.3056 0.0000  plane waves:   42780
 k-point ** :   0.4167 0.3056 0.0000  plane waves:   42785
 k-point ** :   0.4583 0.3056 0.0000  plane waves:   42758
 k-point ** :   0.5000 0.3056 0.0000  plane waves:   42746
 k-point ** :   0.0000 0.3333 0.0000  plane waves:   42900
 k-point ** :   0.0417 0.3333 0.0000  plane waves:   42883
 k-point ** :   0.0833 0.3333 0.0000  plane waves:   42899
[...]
 k-point ** :   0.4583 0.4722 0.0000  plane waves:   42837
 k-point ** :   0.5000 0.4722 0.0000  plane waves:   42814
 k-point ** :   0.0000 0.5000 0.0000  plane waves:   42854
 k-point ** :   0.0417 0.5000 0.0000  plane waves:   42838
 k-point ** :   0.0833 0.5000 0.0000  plane waves:   42874
 k-point ** :   0.1250 0.5000 0.0000  plane waves:   42874
 k-point ** :   0.1667 0.5000 0.0000  plane waves:   42908
 k-point ** :   0.2083 0.5000 0.0000  plane waves:   42884
 k-point ** :   0.2500 0.5000 0.0000  plane waves:   42884
 k-point ** :   0.2917 0.5000 0.0000  plane waves:   42888
 k-point ** :   0.3333 0.5000 0.0000  plane waves:   42904
 k-point ** :   0.3750 0.5000 0.0000  plane waves:   42866
 k-point ** :   0.4167 0.5000 0.0000  plane waves:   42860
 k-point ** :   0.4583 0.5000 0.0000  plane waves:   42872
 k-point ** :   0.5000 0.5000 0.0000  plane waves:   42784

 maximum and minimum number of plane-waves per node :     21497    21314

 maximum number of plane-waves:     42920
 maximum index in each direction:
   IXMAX=   15   IYMAX=    9   IZMAX=   72
   IXMIN=  -16   IYMIN=   -9   IZMIN=  -72

 NGX is ok and might be reduce to  64
 NGY is ok and might be reduce to  38
 WARNING: aliasing errors must be expected set NGZ to 290 to avoid them
 aliasing errors are usually negligible using standard VASP settings
 and one can safely disregard these warnings

 parallel 3D FFT for wavefunctions:
    minimum data exchange during FFTs selected (reduces bandwidth)
 parallel 3D FFT for charge:
    minimum data exchange during FFTs selected (reduces bandwidth)

 Broyden mixing: mesh for mixing (old mesh)
   NGX = 31   NGY = 19   NGZ =145
  (NGX  =128   NGY  = 80   NGZ  =576)
  gives a total of  85405 points

 initial charge density was supplied:
 charge density of overlapping atoms calculated
 number of electron      16.0000000 magnetization
 keeping initial charge density in first step

 Maximum index for augmentation-charges         5073 (set IRDMAX)

 First call to EWALD:  gamma=   0.298
 Maximum number of real-space cells 4x 6x 1
 Maximum number of reciprocal cells 2x 1x 8

 FEWALD executed in parallel

----------------------------------------- Iteration    1(   1)  ---------------------------------------

 eigenvalue-minimisations  :  5928
 total energy-change (2. order) : 0.1882418E+03  (-0.1054965E+04)
 number of electron      16.0000000 magnetization
 augmentation part       16.0000000 magnetization

 Free energy of the ion-electron system (eV)
  alpha Z        PSCENC =         6.18334092
  Ewald energy   TEWEN  =      2502.96274952
  -Hartree energ DENC   =     -2930.85422381
  -exchange      EXHF   =         0.00000000
  -V(xc)+E(xc)   XCENC  =        54.92736209
  PAW double counting   =       151.32577238     -155.92769107
  entropy T*S    EENTRO =        -0.00163627
  eigenvalues    EBANDS =       -28.99742407
  atomic energy  EATOM  =       588.62352690
  free energy    TOTEN  =       188.24177660 eV

  energy without entropy =      188.24341287  energy(sigma->0) =      188.24259474

[...]

 eigenvalue-minimisations  : 10260
 total energy-change (2. order) :-0.1970424E+03  (-0.1751421E+03)
 number of electron      16.0000000 magnetization
 augmentation part       16.0000000 magnetization

[...]

 Broyden mixing:
  rms(total) = 0.71864E+00    rms(broyden)= 0.71864E+00
  rms(prec ) = 0.78227E+00
  weight for this iteration     100.00

[...]

 eigenvalues of (default mixing * dielectric matrix)
  average eigenvalue GAMMA=   2.3171
  2.3171

[...]

 average (electrostatic) potential at core
  the test charge radii are     0.6991
  (the norm of the test charge is              1.0000)
       1 -58.2652       2 -58.2652       3 -58.2652       4 -58.2652

 E-fermi :  -2.7970     XC(G=0):  -2.1663     alpha+bet : -1.9046

 k-point     1 :       0.0000    0.0000    0.0000
  band No.  band energies     occupation
      1     -22.1491      2.00000
      2     -16.8276      2.00000
      3     -15.9060      2.00000
      4     -10.2782      2.00000
      5      -9.3572      2.00000
      6      -5.9173      2.00000
      7      -5.7546      2.00000
      8      -4.9848      2.00000
      9      -1.1131      0.00000
     10       0.5362      0.00000
     11       1.3349      0.00000
     12       3.8812      0.00000

[...]

 soft charge-density along one line, spin component           1
         0         1         2         3         4         5         6         7         8         9
 total charge-density along one line

------------------------ aborting loop because EDIFF is reached ----------------------------------------

  FORCE on cell =-STRESS in cart. coord.  units (eV):
  Direction    XX          YY          ZZ          XY          YZ          ZX
  Alpha Z     6.18334     6.18334     6.18334
  Ewald    3038.06939  3036.17620 -3571.28308    -0.00000     0.00000     0.00000
  Hartree  2974.49243  2973.86904 -2951.24511     0.00000    -0.00000    -0.00000
  E(xc)     -58.12633   -58.10806   -60.44551    -0.00000     0.00000    -0.00000
  Local   -6185.34122 -6183.17286  6316.92108    -0.00000     0.00000    -0.00000
  n-local   -13.87573   -13.37404   -12.59388     0.07612    -0.00000    -0.00000
  augment    -1.50473    -1.50264    -1.38849     0.00000     0.00000    -0.00000
  Kinetic   240.10376   236.61847   273.85030    -4.62746     0.00000     0.00000
  Fock        0.00000     0.00000     0.00000     0.00000     0.00000     0.00000
  Total       0.00091    -3.31055    -0.00136     0.00000     0.00000     0.00000
  in kB       0.00689   -25.15719    -0.01031     0.00000     0.00000     0.00000

 VOLUME and BASIS-vectors are now :
  energy-cutoff  :     2000.00
  volume of cell :      210.84
      direct lattice vectors                 reciprocal lattice vectors
     4.261938334  0.000000000  0.000000000     0.234635023  0.000000000  0.000000000
     0.000000000  2.504680718  0.000000000     0.000000000  0.399252485  0.000000000
     0.000000000  0.000000000 19.751002809     0.000000000  0.000000000  0.050630341

[...]

 FORCES acting on ions
    electron-ion (+dipol)            ewald-force                    non-local-force                 convergence-correction
   -.326E+01 -.430E-15 0.664E-09   0.326E+01 -.393E-14 0.194E-17   0.820E-03 -.104E-16 0.414E-24   0.106E-05 -.179E-14 -.823E-13
   0.326E+01 0.194E-12 -.327E-08   -.326E+01 0.262E-14 -.524E-33   -.820E-03 0.104E-16 -.414E-24   -.106E-05 0.183E-15 -.832E-13
   -.326E+01 -.148E-12 0.664E-09   0.326E+01 0.834E-15 -.194E-17   0.820E-03 0.347E-17 0.620E-24   0.106E-05 -.963E-15 -.823E-13
   0.326E+01 0.398E-16 -.324E-08   -.326E+01 0.738E-14 0.578E-33   -.820E-03 0.347E-17 -.620E-24   -.106E-05 -.620E-15 -.831E-13
   -.212E-06 0.452E-13 -.518E-08   0.000E+00 0.691E-14 0.193E-33   0.000E+00 0.694E-17 0.000E+00   0.485E-12 -.319E-14 -.331E-12

 POSITION                                       TOTAL-FORCE (eV/Angst)
      0.00168      0.00000      0.00000         0.001190     -0.000000      0.000000
      0.70864      1.25234      0.00000        -0.001190      0.000000      0.000000
      2.13265      1.25234      0.00000         0.001190     -0.000000      0.000000
      2.83961      0.00000      0.00000        -0.001190     -0.000000      0.000000
    total drift:                               -0.000000      0.000000     -0.000000

  FREE ENERGIE OF THE ION-ELECTRON SYSTEM (eV)
  free  energy   TOTEN  =       -36.90047494 eV

  energy  without entropy=      -36.90047063  energy(sigma->0) =      -36.90047278

 Quasi-Newton relaxation of ions (Broydens 2nd method)
  g(Force)  = 0.273E-06   g(Stress)= 0.000E+00

 Reset! Starting new Quasi-Newton update for ions

[...]

 d Force =-0.4200555E-06[-0.111E-05, 0.273E-06]  d Energy =-0.4277323E-06 0.768E-08
 d Force = 0.7461741E-03[ 0.744E-03, 0.748E-03]  d Ewald  = 0.7461739E-03 0.144E-09

[...]

 retain information from N=  1 steps
 eigenvalues of (default step * inverse Hessian matrix)
  average eigenvalue of G=   0.1971
 eigenvalue spectrum of G is  0.1971

 FEWALD executed in parallel

[...]

WARNING in EDDRMM: call to ZHEGV failed, returncode =   6  3  1

[...]

 eigenvalue-minimisations  :  3658
 total energy-change (2. order) :-0.2484057E-09  (-0.1802188E-11)
 number of electron      16.0000000 magnetization
 augmentation part        0.3762259 magnetization

[...]

 Broyden mixing:
  rms(total) = 0.68292E-07    rms(broyden)= 0.68292E-07
  rms(prec ) = 0.76457E-07
  weight for this iteration     100.00

 eigenvalues of (default mixing * dielectric matrix)
  average eigenvalue GAMMA=   1.6264
  2.8282  2.6462  1.7780  1.1234  0.9738  1.0178  1.0178

[...]

----------------------------------------- Iteration    3(   9)  ---------------------------------------

 eigenvalue-minimisations  :  2793
 total energy-change (2. order) : 0.6457412E-10  (-0.4659644E-12)
 number of electron      16.0000000 magnetization
 augmentation part        0.3762259 magnetization

 Free energy of the ion-electron system (eV)
  alpha Z        PSCENC =         6.18334092
  Ewald energy   TEWEN  =      2502.96260208
  -Hartree energ DENC   =     -2997.11622056
  -exchange      EXHF   =         0.00000000
  -V(xc)+E(xc)   XCENC  =        57.29141116
  PAW double counting   =       272.03250696     -277.15846609
  entropy T*S    EENTRO =        -0.00000436
  eigenvalues    EBANDS =      -189.71917198
  atomic energy  EATOM  =       588.62352690
  free energy    TOTEN  =       -36.90047496 eV

  energy without entropy =      -36.90047061  energy(sigma->0) =      -36.90047279

 average (electrostatic) potential at core
  the test charge radii are     0.6991
  (the norm of the test charge is              1.0000)
       1 -58.2652       2 -58.2652       3 -58.2652       4 -58.2652

 E-fermi :  -2.7970     XC(G=0):  -2.1637     alpha+bet : -1.9046

[...]

 k-point   247 :       0.5000    0.5000    0.0000
  band No.  band energies     occupation
      1     -17.0839      2.00000
      2     -17.0839      2.00000
      3     -15.8949      2.00000
      4     -15.8949      2.00000
      5      -9.0428      2.00000
      6      -9.0428      2.00000
      7      -5.1828      2.00000
      8      -5.1828      2.00000
      9      -1.1362      0.00000
     10      -1.1362      0.00000
     11       4.5994      0.00000
     12       4.5994      0.00000

 soft charge-density along one line, spin component           1
         0         1         2         3         4         5         6         7         8         9
 total charge-density along one line

------------------------ aborting loop because EDIFF is reached ----------------------------------------

  FORCE on cell =-STRESS in cart. coord.  units (eV):
  Direction    XX          YY          ZZ          XY          YZ          ZX
  Alpha Z     6.18334     6.18334     6.18334
  Ewald    3038.05956  3036.18589 -3571.28308    -0.00000     0.00000    -0.00000
  Hartree  2974.49105  2973.87031 -2951.24512     0.00000     0.00000    -0.00000
  E(xc)     -58.12637   -58.10802   -60.44551     0.00000     0.00000    -0.00000
  Local   -6185.33193 -6183.18197  6316.92113    -0.00000     0.00000     0.00000
  n-local   -13.87581   -13.37395   -12.59388     0.07614    -0.00000     0.00000
  augment    -1.50471    -1.50265    -1.38849    -0.00000    -0.00000     0.00000
  Kinetic   240.10519   236.61695   273.85026    -4.62752     0.00000    -0.00000
  Fock        0.00000     0.00000     0.00000     0.00000     0.00000     0.00000
  Total       0.00033    -3.31012    -0.00135     0.00000     0.00000     0.00000
  in kB       0.00249   -25.15390    -0.01027     0.00000     0.00000     0.00000

 VOLUME and BASIS-vectors are now :
  energy-cutoff  :     2000.00
  volume of cell :      210.84
      direct lattice vectors                 reciprocal lattice vectors
     4.261938334  0.000000000  0.000000000     0.234635023  0.000000000  0.000000000
     0.000000000  2.504680718  0.000000000     0.000000000  0.399252485  0.000000000
     0.000000000  0.000000000 19.751002809     0.000000000  0.000000000  0.050630341

  length of vectors
     4.261938334  2.504680718 19.751002809     0.234635023  0.399252485  0.050630341

 FORCES acting on ions
    electron-ion (+dipol)            ewald-force                    non-local-force                 convergence-correction
   -.326E+01 -.235E-15 0.667E-09   0.326E+01 -.472E-14 -.260E-18   0.401E-03 -.104E-16 0.000E+00   0.155E-07 -.978E-15 0.222E-11
   0.326E+01 -.179E-13 -.326E-08   -.326E+01 0.757E-14 0.260E-18   -.401E-03 0.347E-17 0.000E+00   -.155E-07 -.727E-15 0.222E-11
   -.326E+01 -.155E-12 0.658E-09   0.326E+01 -.412E-14 -.621E-18   0.401E-03 0.104E-16 0.258E-25   0.155E-07 -.849E-16 0.222E-11
   0.326E+01 -.184E-15 -.330E-08   -.326E+01 0.817E-14 0.621E-18   -.401E-03 -.104E-16 -.258E-25   -.155E-07 -.164E-14 0.222E-11
   -.212E-06 -.173E-12 -.523E-08   0.000E+00 0.691E-14 0.000E+00   -.108E-18 -.694E-17 0.000E+00   -.793E-13 -.343E-14 0.888E-11

 POSITION                                       TOTAL-FORCE (eV/Angst)
      0.00169      0.00000      0.00000         0.000000     -0.000000      0.000000
      0.70863      1.25234     -0.00000        -0.000000      0.000000      0.000000
      2.13266      1.25234      0.00000         0.000000      0.000000      0.000000
      2.83960     -0.00000     -0.00000        -0.000000     -0.000000      0.000000
    total drift:                               -0.000000     -0.000000     -0.000000

  FREE ENERGIE OF THE ION-ELECTRON SYSTEM (eV)
  free  energy   TOTEN  =       -36.90047496 eV

  energy  without entropy=      -36.90047061  energy(sigma->0) =      -36.90047279

 d Force = 0.4469816E-06[-0.247E-10, 0.894E-06]  d Energy = 0.4533437E-06-0.636E-08
 d Force =-0.5987358E-03[-0.600E-03,-0.597E-03]  d Ewald  =-0.5987357E-03-0.773E-10

 Quasi-Newton relaxation of ions (Broydens 2nd method)
  g(Force)  = 0.347E-14   g(Stress)= 0.000E+00

 retain information from N=  1 steps
 eigenvalues of (default step * inverse Hessian matrix)
  average eigenvalue of G=   0.1971
 eigenvalue spectrum of G is  0.1971

 reached required accuracy - stopping structural energy minimisation