 vasp.5.3.5 31Mar14 (build Mar 02 2015 18:14:16) complex

 executed on             LinuxIFC date 2018.08.09  21:00:42

 INCAR:
 POTCAR:   PAW_PBE C 08Apr2002
 POTCAR:   PAW_PBE C 08Apr2002
   VRHFIN =C: s2p2

   TITEL  = PAW_PBE C 08Apr2002
   POMASS =   12.011; ZVAL   =    4.000    mass and valenz
   ENMAX  =  400.000; ENMIN  =  300.000 eV
   QCUT   =   -5.516; QGAM   =   11.032    optimization parameters

   Description
     l     E      TYP  RCUT    TYP  RCUT
     0   .000     23  1.200
     0   .000     23  1.200
     1   .000     23  1.500
     1  2.500     23  1.500
     2   .000      7  1.500

 PAW_PBE C 08Apr2002                    :

 POSCAR: MD-kMC export data
  positions in direct lattice
  velocities in cartesian coordinates
 exchange correlation table for  LEXCH =        8
   RHO(1)=    0.500       N(1)  =     2000
   RHO(2)=  100.500       N(2)  =     4000

 ion  position               nearest neighbor table
   1  0.001  0.000  0.000-   4 1.42   2 1.44   2 1.44
   2  0.166  0.500  0.000-   3 1.42   1 1.44   1 1.44
   3  0.501  0.500  0.000-   2 1.42   4 1.44   4 1.44
   4  0.666  0.000  0.000-   1 1.42   3 1.44   3 1.44

  LATTYP: Found a simple orthorhombic cell.
 ALAT       =     2.5172645732
 B/A-ratio  =     1.6916739295
 C/A-ratio  =     7.8134967705

  Lattice vectors:

 A1 = (   0.0000000000,  -2.5172645732,   0.0000000000)
 A2 = (  -4.2583908520,   0.0000000000,   0.0000000000)
 A3 = (   0.0000000000,   0.0000000000, -19.6686386130)

Analysis of symmetry for initial positions (statically):
 Subroutine PRICEL returns following result:

  LATTYP: Found a base centered orthorhombic cell.
 ALAT       =     2.5172645732
 B/A-ratio  =     1.6916739295
 C/A-ratio  =     7.8134967705

[...]

   2 primitive cells build up your supercell.

 Routine SETGRP: Setting up the symmetry group for a
 simple orthorhombic supercell.

 Subroutine GETGRP returns: Found  8 space group operations
 (whereof  4 operations were pure point group operations)
 out of a pool of  8 trial point group operations.

The static configuration has the point symmetry C_2v.
 The point group associated with its full space group is D_2h.

Analysis of symmetry for dynamics (positions and initial velocities):
 Subroutine PRICEL returns following result:

  LATTYP: Found a base centered orthorhombic cell.
 ALAT       =     2.5172645732
 B/A-ratio  =     1.6916739295
 C/A-ratio  =     7.8134967705

  Lattice vectors:

 A1 = (   2.1291954260,  -1.2586322866,   0.0000000000)
 A2 = (  -2.1291954260,  -1.2586322866,   0.0000000000)
 A3 = (   0.0000000000,   0.0000000000, -19.6686386130)

   2 primitive cells build up your supercell.

 Routine SETGRP: Setting up the symmetry group for a
 simple orthorhombic supercell.

 Subroutine GETGRP returns: Found  8 space group operations
 (whereof  4 operations were pure point group operations)
 out of a pool of  8 trial point group operations.

The dynamic configuration has the point symmetry C_2v.
 The point group associated with its full space group is D_2h.

 KPOINTS: Automatic mesh

Automatic generation of k-mesh.
Space group operators:
 irot       det(A)        alpha          n_x          n_y          n_z        tau_x        tau_y        tau_z
    1     1.000000     0.000000     1.000000     0.000000     0.000000     0.000000     0.000000     0.000000
    2    -1.000000   180.000000     0.000000     0.000000     1.000000     0.000000     0.000000     0.000000
    3     1.000000   179.999999     1.000000     0.000000     0.000000     0.000000     0.000000     0.000000
    4    -1.000000   180.000000     0.000000     1.000000     0.000000     0.000000     0.000000     0.000000
    5    -1.000000     0.000000     1.000000     0.000000     0.000000     0.166667    -0.500000     0.000000
    6     1.000000   180.000000     0.000000     0.000000     1.000000     0.166667    -0.500000     0.000000
    7    -1.000000   179.999999     1.000000     0.000000     0.000000     0.166667    -0.500000     0.000000
    8     1.000000   180.000000     0.000000     1.000000     0.000000     0.166667    -0.500000     0.000000

 Subroutine IBZKPT returns following result:

 Found    247 irreducible k-points:

 Following reciprocal coordinates:
            Coordinates               Weight
  0.000000  0.000000  0.000000      1.000000
  0.041667  0.000000  0.000000      2.000000
  0.083333  0.000000  0.000000      2.000000
  0.125000  0.000000  0.000000      2.000000
  0.166667  0.000000  0.000000      2.000000
  0.208333  0.000000  0.000000      2.000000
  0.250000  0.000000  0.000000      2.000000
  0.291667  0.000000  0.000000      2.000000
  0.333333  0.000000  0.000000      2.000000
  0.375000  0.000000  0.000000      2.000000
  0.416667  0.000000  0.000000      2.000000
  0.458333  0.000000  0.000000      2.000000
  0.500000  0.000000  0.000000      1.000000
  0.000000  0.027778  0.000000      2.000000
  0.041667  0.027778  0.000000      4.000000
  0.083333  0.027778  0.000000      4.000000
  0.125000  0.027778  0.000000      4.000000
  0.166667  0.027778  0.000000      4.000000
  0.208333  0.027778  0.000000      4.000000
  0.250000  0.027778  0.000000      4.000000
  0.291667  0.027778  0.000000      4.000000
  0.333333  0.027778  0.000000      4.000000
  0.375000  0.027778  0.000000      4.000000
  0.416667  0.027778  0.000000      4.000000
  0.458333  0.027778  0.000000      4.000000
  0.500000  0.027778  0.000000      2.000000
  0.000000  0.055556  0.000000      2.000000
  0.041667  0.055556  0.000000      4.000000
  0.083333  0.055556  0.000000      4.000000
  0.125000  0.055556  0.000000      4.000000
  0.166667  0.055556  0.000000      4.000000
  0.208333  0.055556  0.000000      4.000000
  0.250000  0.055556  0.000000      4.000000
  0.291667  0.055556  0.000000      4.000000
  0.333333  0.055556  0.000000      4.000000
  0.375000  0.055556  0.000000      4.000000
  0.416667  0.055556  0.000000      4.000000
  0.458333  0.055556  0.000000      4.000000
  0.500000  0.055556  0.000000      2.000000
  0.000000  0.083333  0.000000      2.000000
  0.041667  0.083333  0.000000      4.000000
  0.083333  0.083333  0.000000      4.000000
  0.125000  0.083333  0.000000      4.000000
  0.166667  0.083333  0.000000      4.000000
  0.208333  0.083333  0.000000      4.000000
  0.250000  0.083333  0.000000      4.000000
  0.291667  0.083333  0.000000      4.000000
  0.333333  0.083333  0.000000      4.000000
  0.375000  0.083333  0.000000      4.000000
  0.416667  0.083333  0.000000      4.000000
  0.458333  0.083333  0.000000      4.000000
  0.500000  0.083333  0.000000      2.000000
  0.000000  0.111111  0.000000      2.000000
  0.041667  0.111111  0.000000      4.000000
  0.083333  0.111111  0.000000      4.000000
  0.125000  0.111111  0.000000      4.000000
  0.166667  0.111111  0.000000      4.000000
  0.208333  0.111111  0.000000      4.000000
  0.250000  0.111111  0.000000      4.000000
  0.291667  0.111111  0.000000      4.000000
[...]
  0.458333  0.472222  0.000000      4.000000
  0.500000  0.472222  0.000000      2.000000
  0.000000  0.500000  0.000000      1.000000
  0.041667  0.500000  0.000000      2.000000
  0.083333  0.500000  0.000000      2.000000
  0.125000  0.500000  0.000000      2.000000
  0.166667  0.500000  0.000000      2.000000
  0.208333  0.500000  0.000000      2.000000
  0.250000  0.500000  0.000000      2.000000
  0.291667  0.500000  0.000000      2.000000
  0.333333  0.500000  0.000000      2.000000
  0.375000  0.500000  0.000000      2.000000
  0.416667  0.500000  0.000000      2.000000
  0.458333  0.500000  0.000000      2.000000
  0.500000  0.500000  0.000000      1.000000

 Following cartesian coordinates:
            Coordinates               Weight
  0.000000  0.000000  0.000000      1.000000
  0.009785  0.000000  0.000000      2.000000
  0.019569  0.000000  0.000000      2.000000
  0.029354  0.000000  0.000000      2.000000
  0.039138  0.000000  0.000000      2.000000
  0.048923  0.000000  0.000000      2.000000
  0.058708  0.000000  0.000000      2.000000
  0.068492  0.000000  0.000000      2.000000
  0.078277  0.000000  0.000000      2.000000
  0.088061  0.000000  0.000000      2.000000
  0.097846  0.000000  0.000000      2.000000
  0.107631  0.000000  0.000000      2.000000
  0.117415  0.000000  0.000000      1.000000
  0.000000  0.011035  0.000000      2.000000
  0.009785  0.011035  0.000000      4.000000
  0.019569  0.011035  0.000000      4.000000
  0.029354  0.011035  0.000000      4.000000
  0.039138  0.011035  0.000000      4.000000
  0.048923  0.011035  0.000000      4.000000
  0.058708  0.011035  0.000000      4.000000
  0.068492  0.011035  0.000000      4.000000
  0.078277  0.011035  0.000000      4.000000
  0.088061  0.011035  0.000000      4.000000
  0.097846  0.011035  0.000000      4.000000
  0.107631  0.011035  0.000000      4.000000
  0.117415  0.011035  0.000000      2.000000
  0.000000  0.022070  0.000000      2.000000
  0.009785  0.022070  0.000000      4.000000
  0.019569  0.022070  0.000000      4.000000
  0.029354  0.022070  0.000000      4.000000
  0.039138  0.022070  0.000000      4.000000
  0.048923  0.022070  0.000000      4.000000
  0.058708  0.022070  0.000000      4.000000
  0.068492  0.022070  0.000000      4.000000
  0.078277  0.022070  0.000000      4.000000
  0.088061  0.022070  0.000000      4.000000
  0.097846  0.022070  0.000000      4.000000
  0.107631  0.022070  0.000000      4.000000
  0.117415  0.022070  0.000000      2.000000
  0.000000  0.033105  0.000000      2.000000
  0.009785  0.033105  0.000000      4.000000
  0.019569  0.033105  0.000000      4.000000
  0.029354  0.033105  0.000000      4.000000
  0.039138  0.033105  0.000000      4.000000
  0.048923  0.033105  0.000000      4.000000
  0.058708  0.033105  0.000000      4.000000
  0.068492  0.033105  0.000000      4.000000
  0.078277  0.033105  0.000000      4.000000
  0.088061  0.033105  0.000000      4.000000
  0.097846  0.033105  0.000000      4.000000
  0.107631  0.033105  0.000000      4.000000
  0.117415  0.033105  0.000000      2.000000
  0.000000  0.044140  0.000000      2.000000
  0.009785  0.044140  0.000000      4.000000
  0.019569  0.044140  0.000000      4.000000
  0.029354  0.044140  0.000000      4.000000
  0.039138  0.044140  0.000000      4.000000
  0.048923  0.044140  0.000000      4.000000
  0.058708  0.044140  0.000000      4.000000
  0.068492  0.044140  0.000000      4.000000
[...]
  0.107631  0.187593  0.000000      4.000000
  0.117415  0.187593  0.000000      2.000000
  0.000000  0.198628  0.000000      1.000000
  0.009785  0.198628  0.000000      2.000000
  0.019569  0.198628  0.000000      2.000000
  0.029354  0.198628  0.000000      2.000000
  0.039138  0.198628  0.000000      2.000000
  0.048923  0.198628  0.000000      2.000000
  0.058708  0.198628  0.000000      2.000000
  0.068492  0.198628  0.000000      2.000000
  0.078277  0.198628  0.000000      2.000000
  0.088061  0.198628  0.000000      2.000000
  0.097846  0.198628  0.000000      2.000000
  0.107631  0.198628  0.000000      2.000000
  0.117415  0.198628  0.000000      1.000000

 I would recommend the setting:
   dimension x,y,z NGX =    62 NGY =   37 NGZ =  287
[...]
 k-point ** :   0.0417 0.2778 0.0000  plane waves:   42864
 k-point ** :   0.0833 0.2778 0.0000  plane waves:   42843
 k-point ** :   0.1250 0.2778 0.0000  plane waves:   42839
 k-point ** :   0.1667 0.2778 0.0000  plane waves:   42841
 k-point ** :   0.2083 0.2778 0.0000  plane waves:   42839
 k-point ** :   0.2500 0.2778 0.0000  plane waves:   42815
 k-point ** :   0.2917 0.2778 0.0000  plane waves:   42826
 k-point ** :   0.3333 0.2778 0.0000  plane waves:   42811
 k-point ** :   0.3750 0.2778 0.0000  plane waves:   42791
 k-point ** :   0.4167 0.2778 0.0000  plane waves:   42803
 k-point ** :   0.4583 0.2778 0.0000  plane waves:   42782
 k-point ** :   0.5000 0.2778 0.0000  plane waves:   42770
 k-point ** :   0.0000 0.3056 0.0000  plane waves:   42882
 k-point ** :   0.0417 0.3056 0.0000  plane waves:   42894
 k-point ** :   0.0833 0.3056 0.0000  plane waves:   42878
 k-point ** :   0.1250 0.3056 0.0000  plane waves:   42878
 k-point ** :   0.1667 0.3056 0.0000  plane waves:   42869
 k-point ** :   0.2083 0.3056 0.0000  plane waves:   42862
 k-point ** :   0.2500 0.3056 0.0000  plane waves:   42823
 k-point ** :   0.2917 0.3056 0.0000  plane waves:   42806
 k-point ** :   0.3333 0.3056 0.0000  plane waves:   42821
 k-point ** :   0.3750 0.3056 0.0000  plane waves:   42805
 k-point ** :   0.4167 0.3056 0.0000  plane waves:   42774
 k-point ** :   0.4583 0.3056 0.0000  plane waves:   42774
 k-point ** :   0.5000 0.3056 0.0000  plane waves:   42760
 k-point ** :   0.0000 0.3333 0.0000  plane waves:   42904
 k-point ** :   0.0417 0.3333 0.0000  plane waves:   42909
 k-point ** :   0.0833 0.3333 0.0000  plane waves:   42905
[...]
 k-point ** :   0.4583 0.4722 0.0000  plane waves:   42810
 k-point ** :   0.5000 0.4722 0.0000  plane waves:   42804
 k-point ** :   0.0000 0.5000 0.0000  plane waves:   42854
 k-point ** :   0.0417 0.5000 0.0000  plane waves:   42848
 k-point ** :   0.0833 0.5000 0.0000  plane waves:   42888
 k-point ** :   0.1250 0.5000 0.0000  plane waves:   42880
 k-point ** :   0.1667 0.5000 0.0000  plane waves:   42858
 k-point ** :   0.2083 0.5000 0.0000  plane waves:   42870
 k-point ** :   0.2500 0.5000 0.0000  plane waves:   42886
 k-point ** :   0.2917 0.5000 0.0000  plane waves:   42914
 k-point ** :   0.3333 0.5000 0.0000  plane waves:   42868
 k-point ** :   0.3750 0.5000 0.0000  plane waves:   42870
 k-point ** :   0.4167 0.5000 0.0000  plane waves:   42818
 k-point ** :   0.4583 0.5000 0.0000  plane waves:   42788
 k-point ** :   0.5000 0.5000 0.0000  plane waves:   42776

 maximum and minimum number of plane-waves per node :     21484    21332

 maximum number of plane-waves:     42938
 maximum index in each direction:
   IXMAX=   15   IYMAX=    9   IZMAX=   71
   IXMIN=  -16   IYMIN=   -9   IZMIN=  -71

 NGX is ok and might be reduce to  64
 NGY is ok and might be reduce to  38
 NGZ is ok and might be reduce to 286

 parallel 3D FFT for wavefunctions:
    minimum data exchange during FFTs selected (reduces bandwidth)
 parallel 3D FFT for charge:
    minimum data exchange during FFTs selected (reduces bandwidth)

 Broyden mixing: mesh for mixing (old mesh)
   NGX = 31   NGY = 19   NGZ =143
  (NGX  =128   NGY  = 80   NGZ  =576)
  gives a total of  84227 points

 initial charge density was supplied:
 charge density of overlapping atoms calculated
 number of electron      16.0000000 magnetization
 keeping initial charge density in first step

 Maximum index for augmentation-charges         5073 (set IRDMAX)

 First call to EWALD:  gamma=   0.298
 Maximum number of real-space cells 4x 6x 1
 Maximum number of reciprocal cells 2x 1x 8

 FEWALD executed in parallel

----------------------------------------- Iteration    1(   1)  ---------------------------------------

 eigenvalue-minimisations  :  5928
 total energy-change (2. order) : 0.1875816E+03  (-0.1061139E+04)
 number of electron      16.0000000 magnetization
 augmentation part       16.0000000 magnetization

 Free energy of the ion-electron system (eV)
  alpha Z        PSCENC =         6.18334092
  Ewald energy   TEWEN  =      2475.46772133
  -Hartree energ DENC   =     -2904.18376400
  -exchange      EXHF   =         0.00000000
  -V(xc)+E(xc)   XCENC  =        54.87081277
  PAW double counting   =       151.32577238     -155.92769107
  entropy T*S    EENTRO =        -0.00171410
  eigenvalues    EBANDS =       -28.77638294
  atomic energy  EATOM  =       588.62352690
  free energy    TOTEN  =       187.58162220 eV

  energy without entropy =      187.58333630  energy(sigma->0) =      187.58247925

[...]

 eigenvalue-minimisations  : 10456
 total energy-change (2. order) :-0.1968363E+03  (-0.1751137E+03)
 number of electron      16.0000000 magnetization
 augmentation part       16.0000000 magnetization

[...]

 Broyden mixing:
  rms(total) = 0.71372E+00    rms(broyden)= 0.71372E+00
  rms(prec ) = 0.77739E+00
  weight for this iteration     100.00

[...]

 eigenvalues of (default mixing * dielectric matrix)
  average eigenvalue GAMMA=   2.3155
  2.3155

[...]

 average (electrostatic) potential at core
  the test charge radii are     0.6991
  (the norm of the test charge is              1.0000)
       1 -58.2906       2 -58.2906       3 -58.2906       4 -58.2906

 E-fermi :  -2.8110     XC(G=0):  -2.1704     alpha+bet : -1.9046

 k-point     1 :       0.0000    0.0000    0.0000
  band No.  band energies     occupation
      1     -22.1141      2.00000
      2     -16.7638      2.00000
      3     -15.8845      2.00000
      4     -10.2512      2.00000
      5      -9.4186      2.00000
      6      -5.9564      2.00000
      7      -5.7477      2.00000
      8      -4.9432      2.00000
      9      -1.1282      0.00000
     10       0.5407      0.00000
     11       1.3394      0.00000
     12       1.7309      0.00000

[...]

 soft charge-density along one line, spin component           1
         0         1         2         3         4         5         6         7         8         9
 total charge-density along one line

------------------------ aborting loop because EDIFF is reached ----------------------------------------

  FORCE on cell =-STRESS in cart. coord.  units (eV):
  Direction    XX          YY          ZZ          XY          YZ          ZX
  Alpha Z     6.18334     6.18334     6.18334
  Ewald    3009.80434  3007.22293 -3541.55978     0.00000     0.00000    -0.00000
  Hartree  2947.07125  2946.24741 -2923.62941     0.00000    -0.00000    -0.00000
  E(xc)     -58.05495   -58.03067   -60.36759     0.00000     0.00000    -0.00000
  Local   -6129.75057 -6126.82742  6259.76482     0.00000     0.00000    -0.00000
  n-local   -13.84752   -13.18580   -12.53564     0.08248     0.00000    -0.00000
  augment    -1.49255    -1.48976    -1.37984     0.00000     0.00000    -0.00000
  Kinetic   240.08839   235.48697   273.52275    -4.63466    -0.00000     0.00000
  Fock        0.00000     0.00000     0.00000     0.00000     0.00000     0.00000
  Total       0.00175    -4.39301    -0.00134     0.00000     0.00000     0.00000
  in kB       0.01328   -33.38291    -0.01018     0.00000     0.00000     0.00000

 VOLUME and BASIS-vectors are now :
  energy-cutoff  :     2000.00
  volume of cell :      210.84
      direct lattice vectors                 reciprocal lattice vectors
     4.258390852  0.000000000  0.000000000     0.234830488  0.000000000  0.000000000
     0.000000000  2.517264573  0.000000000     0.000000000  0.397256614  0.000000000
     0.000000000  0.000000000 19.668638613     0.000000000  0.000000000  0.050842360

[...]

 FORCES acting on ions
    electron-ion (+dipol)            ewald-force                    non-local-force                 convergence-correction
   -.433E+01 -.116E-15 0.757E-09   0.432E+01 -.725E-14 0.607E-18   0.439E-02 -.139E-16 -.491E-24   -.282E-07 0.574E-15 -.832E-13
   0.433E+01 -.182E-12 -.272E-08   -.432E+01 0.352E-14 -.123E-18   -.439E-02 0.104E-16 0.517E-24   0.282E-07 -.209E-14 -.813E-13
   -.433E+01 0.593E-12 0.762E-09   0.432E+01 -.583E-14 0.694E-18   0.439E-02 -.139E-16 -.414E-24   -.282E-07 0.148E-14 -.832E-13
   0.433E+01 -.581E-15 -.269E-08   -.432E+01 0.495E-14 -.118E-17   -.439E-02 0.173E-16 0.414E-24   0.282E-07 -.304E-14 -.813E-13
   -.243E-06 0.410E-12 -.389E-08   -.888E-15 -.461E-14 0.193E-33   0.000E+00 0.000E+00 0.258E-25   0.191E-13 -.308E-14 -.329E-12

 POSITION                                       TOTAL-FORCE (eV/Angst)
      0.00221      0.00000      0.00000         0.002215     -0.000000      0.000000
      0.70752      1.25863      0.00000        -0.002215      0.000000      0.000000
      2.13141      1.25863      0.00000         0.002215     -0.000000      0.000000
      2.83672      0.00000      0.00000        -0.002215      0.000000      0.000000
    total drift:                               -0.000000      0.000000     -0.000000

  FREE ENERGIE OF THE ION-ELECTRON SYSTEM (eV)
  free  energy   TOTEN  =       -36.88116843 eV

  energy  without entropy=      -36.88116812  energy(sigma->0) =      -36.88116827

 Quasi-Newton relaxation of ions (Broydens 2nd method)
  g(Force)  = 0.947E-06   g(Stress)= 0.000E+00

 Reset! Starting new Quasi-Newton update for ions

[...]

 d Force =-0.1435322E-05[-0.382E-05, 0.947E-06]  d Energy =-0.1457238E-05 0.219E-07
 d Force = 0.1840305E-02[ 0.183E-02, 0.185E-02]  d Ewald  = 0.1840304E-02 0.952E-09

[...]

 retain information from N=  1 steps
 eigenvalues of (default step * inverse Hessian matrix)
  average eigenvalue of G=   0.1987
 eigenvalue spectrum of G is  0.1987

[...]

 d Force = 0.1530290E-05[ 0.180E-08, 0.306E-05]  d Energy = 0.1547433E-05-0.171E-07
 d Force =-0.1473331E-02[-0.148E-02,-0.147E-02]  d Ewald  =-0.1473331E-02-0.493E-09

[...]

 eigenvalue-minimisations  :  5032
 total energy-change (2. order) : 0.9811174E-09  ( 0.6018870E-09)
 number of electron      16.0000000 magnetization
 augmentation part        0.3743497 magnetization

[...]

 eigenvalue-minimisations  :  2259
 total energy-change (2. order) :-0.8162715E-09  ( 0.7921647E-14)
 number of electron      16.0000000 magnetization
 augmentation part        0.3743497 magnetization

[...]

 eigenvalue-minimisations  :  1542
 total energy-change (2. order) : 0.3473133E-09  (-0.1588236E-13)
 number of electron      16.0000000 magnetization
 augmentation part        0.3743497 magnetization

[...]

 d Force = 0.3213351E-13[-0.994E-12, 0.106E-11]  d Energy =-0.2804654E-09 0.281E-09
 d Force =-0.8698313E-06[-0.870E-06,-0.870E-06]  d Ewald  =-0.8698321E-06 0.909E-12

[...]

 FEWALD executed in parallel

[...]

 eigenvalue-minimisations  :  1206
 total energy-change (2. order) :-0.3399236E-09  ( 0.2477853E-13)
 number of electron      16.0000000 magnetization
 augmentation part        0.3743497 magnetization

[...]

 eigenvalue-minimisations  :  1006
 total energy-change (2. order) :-0.1170974E-09  (-0.3362742E-13)
 number of electron      16.0000000 magnetization
 augmentation part        0.3743497 magnetization

 Broyden mixing:
  rms(total) = 0.48025E-09    rms(broyden)= 0.48025E-09
  rms(prec ) = 0.68527E-09
  weight for this iteration     100.00

 eigenvalues of (default mixing * dielectric matrix)
  average eigenvalue GAMMA=   2.0023
  3.0896  3.0896  2.3484  0.8753  0.6085

[...]

----------------------------------------- Iteration    5(   7)  ---------------------------------------

 eigenvalue-minimisations  :  1161
 total energy-change (2. order) : 0.3001333E-10  ( 0.1838858E-13)
 number of electron      16.0000000 magnetization
 augmentation part        0.3743497 magnetization

 Free energy of the ion-electron system (eV)
  alpha Z        PSCENC =         6.18334092
  Ewald energy   TEWEN  =      2475.46735480
  -Hartree energ DENC   =     -2969.68892974
  -exchange      EXHF   =         0.00000000
  -V(xc)+E(xc)   XCENC  =        57.21458527
  PAW double counting   =       270.37846022     -275.49696135
  entropy T*S    EENTRO =        -0.00000032
  eigenvalues    EBANDS =      -189.56254523
  atomic energy  EATOM  =       588.62352690
  free energy    TOTEN  =       -36.88116852 eV

  energy without entropy =      -36.88116820  energy(sigma->0) =      -36.88116836

 average (electrostatic) potential at core
  the test charge radii are     0.6991
  (the norm of the test charge is              1.0000)
       1 -58.2906       2 -58.2906       3 -58.2906       4 -58.2906

 E-fermi :  -2.8110     XC(G=0):  -2.1704     alpha+bet : -1.9046

[...]

 k-point   247 :       0.5000    0.5000    0.0000
  band No.  band energies     occupation
      1     -17.1036      2.00000
      2     -17.1036      2.00000
      3     -15.8679      2.00000
      4     -15.8679      2.00000
      5      -9.0042      2.00000
      6      -9.0042      2.00000
      7      -5.2059      2.00000
      8      -5.2059      2.00000
      9      -1.1556      0.00000
     10      -1.1556      0.00000
     11       4.5953      0.00000
     12       4.5953      0.00000

 soft charge-density along one line, spin component           1
         0         1         2         3         4         5         6         7         8         9
 total charge-density along one line

------------------------ aborting loop because EDIFF is reached ----------------------------------------

  FORCE on cell =-STRESS in cart. coord.  units (eV):
  Direction    XX          YY          ZZ          XY          YZ          ZX
  Alpha Z     6.18334     6.18334     6.18334
  Ewald    3009.78598  3007.24092 -3541.55978     0.00000     0.00000    -0.00000
  Hartree  2947.06864  2946.24973 -2923.62944     0.00000    -0.00000    -0.00000
  E(xc)     -58.05500   -58.03059   -60.36757     0.00000     0.00000    -0.00000
  Local   -6129.73319 -6126.84435  6259.76493    -0.00000     0.00000     0.00000
  n-local   -13.84767   -13.18564   -12.53563     0.08251     0.00000     0.00000
  augment    -1.49252    -1.48978    -1.37984    -0.00000    -0.00000     0.00000
  Kinetic   240.09103   235.48410   273.52263    -4.63476     0.00000    -0.00000
  Fock        0.00000     0.00000     0.00000     0.00000     0.00000     0.00000
  Total       0.00062    -4.39226    -0.00134     0.00000     0.00000     0.00000
  in kB       0.00473   -33.37720    -0.01019     0.00000     0.00000     0.00000

 VOLUME and BASIS-vectors are now :
  energy-cutoff  :     2000.00
  volume of cell :      210.84
      direct lattice vectors                 reciprocal lattice vectors
     4.258390852  0.000000000  0.000000000     0.234830488  0.000000000  0.000000000
     0.000000000  2.517264573  0.000000000     0.000000000  0.397256614  0.000000000
     0.000000000  0.000000000 19.668638613     0.000000000  0.000000000  0.050842360

  length of vectors
     4.258390852  2.517264573 19.668638613     0.234830488  0.397256614  0.050842360

 FORCES acting on ions
    electron-ion (+dipol)            ewald-force                    non-local-force                 convergence-correction
   -.432E+01 -.474E-15 0.759E-09   0.432E+01 -.284E-14 0.557E-18   0.361E-02 -.139E-16 0.646E-26   -.385E-08 -.947E-15 0.134E-11
   0.432E+01 0.213E-12 -.268E-08   -.432E+01 0.137E-14 0.419E-18   -.361E-02 -.694E-17 0.129E-25   0.385E-08 -.527E-15 0.134E-11
   -.432E+01 -.106E-11 0.739E-09   0.432E+01 -.367E-14 -.232E-18   0.361E-02 -.208E-16 0.129E-25   -.385E-08 0.265E-14 0.134E-11
   0.432E+01 -.112E-14 -.275E-08   -.432E+01 0.532E-15 -.745E-18   -.361E-02 -.694E-17 0.646E-26   0.385E-08 -.382E-14 0.134E-11
   -.243E-06 -.848E-12 -.393E-08   -.888E-15 -.461E-14 0.963E-34   0.000E+00 -.486E-16 0.388E-25   0.306E-16 -.265E-14 0.536E-11

 POSITION                                       TOTAL-FORCE (eV/Angst)
      0.00223      0.00000     -0.00000         0.000000     -0.000000      0.000000
      0.70750      1.25863      0.00000        -0.000000      0.000000      0.000000
      2.13143      1.25863     -0.00000         0.000000      0.000000      0.000000
      2.83670      0.00000      0.00000        -0.000000     -0.000000      0.000000
    total drift:                               -0.000000     -0.000000     -0.000000

  FREE ENERGIE OF THE ION-ELECTRON SYSTEM (eV)
  free  energy   TOTEN  =       -36.88116852 eV

  energy  without entropy=      -36.88116820  energy(sigma->0) =      -36.88116836

 d Force = 0.2456995E-12[ 0.100E-13, 0.481E-12]  d Energy = 0.3922196E-09-0.392E-09
 d Force = 0.4212956E-06[ 0.421E-06, 0.421E-06]  d Ewald  = 0.4212961E-06-0.455E-12

 Quasi-Newton relaxation of ions (Broydens 2nd method)
  g(Force)  = 0.203E-14   g(Stress)= 0.000E+00

 retain information from N=  1 steps
 eigenvalues of (default step * inverse Hessian matrix)
  average eigenvalue of G=   0.1047
 eigenvalue spectrum of G is  0.1047

 reached required accuracy - stopping structural energy minimisation