 vasp.5.3.5 31Mar14 (build Mar 02 2015 18:14:16) complex

 executed on             LinuxIFC date 2018.08.09  15:10:36

 INCAR:
 POTCAR:   PAW_PBE C 08Apr2002
 POTCAR:   PAW_PBE C 08Apr2002
   VRHFIN =C: s2p2

   TITEL  = PAW_PBE C 08Apr2002
   POMASS =   12.011; ZVAL   =    4.000    mass and valenz
   ENMAX  =  400.000; ENMIN  =  300.000 eV
   QCUT   =   -5.516; QGAM   =   11.032    optimization parameters

   Description
     l     E      TYP  RCUT    TYP  RCUT
     0   .000     23  1.200
     0   .000     23  1.200
     1   .000     23  1.500
     1  2.500     23  1.500
     2   .000      7  1.500

 PAW_PBE C 08Apr2002                    :

 POSCAR: MD-kMC export data
  positions in direct lattice
  velocities in cartesian coordinates
 exchange correlation table for  LEXCH =        8
   RHO(1)=    0.500       N(1)  =     2000
   RHO(2)=  100.500       N(2)  =     4000

 ion  position               nearest neighbor table
   1  1.000  0.000  0.000-   2 1.43   2 1.43   4 1.45
   2  0.167  0.500  0.000-   1 1.43   1 1.43   3 1.45
   3  0.500  0.500  0.000-   4 1.43   4 1.43   2 1.45
   4  0.667  0.000  0.000-   3 1.43   3 1.43   1 1.45

  LATTYP: Found a simple orthorhombic cell.
 ALAT       =     2.4588803271
 B/A-ratio  =     1.7730822133
 C/A-ratio  =     7.9984831591

  Lattice vectors:

 A1 = (   0.0000000000,  -2.4588803271,   0.0000000000)
 A2 = (  -4.3597969725,   0.0000000000,   0.0000000000)
 A3 = (   0.0000000000,   0.0000000000, -19.6673128868)

Analysis of symmetry for initial positions (statically):
 Subroutine PRICEL returns following result:

  LATTYP: Found a base centered orthorhombic cell.
 ALAT       =     2.4588803271
 B/A-ratio  =     1.7730822133
 C/A-ratio  =     7.9984831591

[...]

   2 primitive cells build up your supercell.

 Routine SETGRP: Setting up the symmetry group for a
 simple orthorhombic supercell.

 Subroutine GETGRP returns: Found  8 space group operations
 (whereof  4 operations were pure point group operations)
 out of a pool of  8 trial point group operations.

The static configuration has the point symmetry C_2v.
 The point group associated with its full space group is D_2h.

Analysis of symmetry for dynamics (positions and initial velocities):
 Subroutine PRICEL returns following result:

  LATTYP: Found a base centered orthorhombic cell.
 ALAT       =     2.4588803271
 B/A-ratio  =     1.7730822133
 C/A-ratio  =     7.9984831591

  Lattice vectors:

 A1 = (   2.1798984863,  -1.2294401636,   0.0000000000)
 A2 = (  -2.1798984863,  -1.2294401636,   0.0000000000)
 A3 = (   0.0000000000,   0.0000000000, -19.6673128868)

   2 primitive cells build up your supercell.

 Routine SETGRP: Setting up the symmetry group for a
 simple orthorhombic supercell.

 Subroutine GETGRP returns: Found  8 space group operations
 (whereof  4 operations were pure point group operations)
 out of a pool of  8 trial point group operations.

The dynamic configuration has the point symmetry C_2v.
 The point group associated with its full space group is D_2h.

 KPOINTS: Automatic mesh

Automatic generation of k-mesh.
Space group operators:
 irot       det(A)        alpha          n_x          n_y          n_z        tau_x        tau_y        tau_z
    1     1.000000     0.000000     1.000000     0.000000     0.000000     0.000000     0.000000     0.000000
    2    -1.000000   180.000000     0.000000     0.000000     1.000000     0.000000     0.000000     0.000000
    3     1.000000   180.000000     1.000000     0.000000     0.000000     0.000000     0.000000     0.000000
    4    -1.000000   180.000000     0.000000     1.000000     0.000000     0.000000     0.000000     0.000000
    5    -1.000000     0.000000     1.000000     0.000000     0.000000     0.166667    -0.500000     0.000000
    6     1.000000   180.000000     0.000000     0.000000     1.000000     0.166667    -0.500000     0.000000
    7    -1.000000   180.000000     1.000000     0.000000     0.000000     0.166667    -0.500000     0.000000
    8     1.000000   180.000000     0.000000     1.000000     0.000000     0.166667    -0.500000     0.000000

 Subroutine IBZKPT returns following result:

 Found    247 irreducible k-points:

 Following reciprocal coordinates:
            Coordinates               Weight
  0.000000  0.000000  0.000000      1.000000
  0.041667  0.000000  0.000000      2.000000
  0.083333  0.000000  0.000000      2.000000
  0.125000  0.000000  0.000000      2.000000
  0.166667  0.000000  0.000000      2.000000
  0.208333  0.000000  0.000000      2.000000
  0.250000  0.000000  0.000000      2.000000
  0.291667  0.000000  0.000000      2.000000
  0.333333  0.000000  0.000000      2.000000
  0.375000  0.000000  0.000000      2.000000
  0.416667  0.000000  0.000000      2.000000
  0.458333  0.000000  0.000000      2.000000
  0.500000  0.000000  0.000000      1.000000
  0.000000  0.027778  0.000000      2.000000
  0.041667  0.027778  0.000000      4.000000
  0.083333  0.027778  0.000000      4.000000
  0.125000  0.027778  0.000000      4.000000
  0.166667  0.027778  0.000000      4.000000
  0.208333  0.027778  0.000000      4.000000
  0.250000  0.027778  0.000000      4.000000
  0.291667  0.027778  0.000000      4.000000
  0.333333  0.027778  0.000000      4.000000
  0.375000  0.027778  0.000000      4.000000
  0.416667  0.027778  0.000000      4.000000
  0.458333  0.027778  0.000000      4.000000
  0.500000  0.027778  0.000000      2.000000
  0.000000  0.055556  0.000000      2.000000
  0.041667  0.055556  0.000000      4.000000
  0.083333  0.055556  0.000000      4.000000
  0.125000  0.055556  0.000000      4.000000
  0.166667  0.055556  0.000000      4.000000
  0.208333  0.055556  0.000000      4.000000
  0.250000  0.055556  0.000000      4.000000
  0.291667  0.055556  0.000000      4.000000
  0.333333  0.055556  0.000000      4.000000
  0.375000  0.055556  0.000000      4.000000
  0.416667  0.055556  0.000000      4.000000
  0.458333  0.055556  0.000000      4.000000
  0.500000  0.055556  0.000000      2.000000
  0.000000  0.083333  0.000000      2.000000
  0.041667  0.083333  0.000000      4.000000
  0.083333  0.083333  0.000000      4.000000
  0.125000  0.083333  0.000000      4.000000
  0.166667  0.083333  0.000000      4.000000
  0.208333  0.083333  0.000000      4.000000
  0.250000  0.083333  0.000000      4.000000
  0.291667  0.083333  0.000000      4.000000
  0.333333  0.083333  0.000000      4.000000
  0.375000  0.083333  0.000000      4.000000
  0.416667  0.083333  0.000000      4.000000
  0.458333  0.083333  0.000000      4.000000
  0.500000  0.083333  0.000000      2.000000
  0.000000  0.111111  0.000000      2.000000
  0.041667  0.111111  0.000000      4.000000
  0.083333  0.111111  0.000000      4.000000
  0.125000  0.111111  0.000000      4.000000
  0.166667  0.111111  0.000000      4.000000
  0.208333  0.111111  0.000000      4.000000
  0.250000  0.111111  0.000000      4.000000
  0.291667  0.111111  0.000000      4.000000
[...]
  0.458333  0.472222  0.000000      4.000000
  0.500000  0.472222  0.000000      2.000000
  0.000000  0.500000  0.000000      1.000000
  0.041667  0.500000  0.000000      2.000000
  0.083333  0.500000  0.000000      2.000000
  0.125000  0.500000  0.000000      2.000000
  0.166667  0.500000  0.000000      2.000000
  0.208333  0.500000  0.000000      2.000000
  0.250000  0.500000  0.000000      2.000000
  0.291667  0.500000  0.000000      2.000000
  0.333333  0.500000  0.000000      2.000000
  0.375000  0.500000  0.000000      2.000000
  0.416667  0.500000  0.000000      2.000000
  0.458333  0.500000  0.000000      2.000000
  0.500000  0.500000  0.000000      1.000000

 Following cartesian coordinates:
            Coordinates               Weight
  0.000000  0.000000  0.000000      1.000000
  0.009557  0.000000  0.000000      2.000000
  0.019114  0.000000  0.000000      2.000000
  0.028671  0.000000  0.000000      2.000000
  0.038228  0.000000  0.000000      2.000000
  0.047785  0.000000  0.000000      2.000000
  0.057342  0.000000  0.000000      2.000000
  0.066899  0.000000  0.000000      2.000000
  0.076456  0.000000  0.000000      2.000000
  0.086013  0.000000  0.000000      2.000000
  0.095570  0.000000  0.000000      2.000000
  0.105127  0.000000  0.000000      2.000000
  0.114684  0.000000  0.000000      1.000000
  0.000000  0.011297  0.000000      2.000000
  0.009557  0.011297  0.000000      4.000000
  0.019114  0.011297  0.000000      4.000000
  0.028671  0.011297  0.000000      4.000000
  0.038228  0.011297  0.000000      4.000000
  0.047785  0.011297  0.000000      4.000000
  0.057342  0.011297  0.000000      4.000000
  0.066899  0.011297  0.000000      4.000000
  0.076456  0.011297  0.000000      4.000000
  0.086013  0.011297  0.000000      4.000000
  0.095570  0.011297  0.000000      4.000000
  0.105127  0.011297  0.000000      4.000000
  0.114684  0.011297  0.000000      2.000000
  0.000000  0.022594  0.000000      2.000000
  0.009557  0.022594  0.000000      4.000000
  0.019114  0.022594  0.000000      4.000000
  0.028671  0.022594  0.000000      4.000000
  0.038228  0.022594  0.000000      4.000000
  0.047785  0.022594  0.000000      4.000000
  0.057342  0.022594  0.000000      4.000000
  0.066899  0.022594  0.000000      4.000000
  0.076456  0.022594  0.000000      4.000000
  0.086013  0.022594  0.000000      4.000000
  0.095570  0.022594  0.000000      4.000000
  0.105127  0.022594  0.000000      4.000000
  0.114684  0.022594  0.000000      2.000000
  0.000000  0.033891  0.000000      2.000000
  0.009557  0.033891  0.000000      4.000000
  0.019114  0.033891  0.000000      4.000000
  0.028671  0.033891  0.000000      4.000000
  0.038228  0.033891  0.000000      4.000000
  0.047785  0.033891  0.000000      4.000000
  0.057342  0.033891  0.000000      4.000000
  0.066899  0.033891  0.000000      4.000000
  0.076456  0.033891  0.000000      4.000000
  0.086013  0.033891  0.000000      4.000000
  0.095570  0.033891  0.000000      4.000000
  0.105127  0.033891  0.000000      4.000000
  0.114684  0.033891  0.000000      2.000000
  0.000000  0.045188  0.000000      2.000000
  0.009557  0.045188  0.000000      4.000000
  0.019114  0.045188  0.000000      4.000000
  0.028671  0.045188  0.000000      4.000000
  0.038228  0.045188  0.000000      4.000000
  0.047785  0.045188  0.000000      4.000000
  0.057342  0.045188  0.000000      4.000000
  0.066899  0.045188  0.000000      4.000000
[...]
  0.105127  0.192048  0.000000      4.000000
  0.114684  0.192048  0.000000      2.000000
  0.000000  0.203345  0.000000      1.000000
  0.009557  0.203345  0.000000      2.000000
  0.019114  0.203345  0.000000      2.000000
  0.028671  0.203345  0.000000      2.000000
  0.038228  0.203345  0.000000      2.000000
  0.047785  0.203345  0.000000      2.000000
  0.057342  0.203345  0.000000      2.000000
  0.066899  0.203345  0.000000      2.000000
  0.076456  0.203345  0.000000      2.000000
  0.086013  0.203345  0.000000      2.000000
  0.095570  0.203345  0.000000      2.000000
  0.105127  0.203345  0.000000      2.000000
  0.114684  0.203345  0.000000      1.000000

 I would recommend the setting:
   dimension x,y,z NGX =    64 NGY =   36 NGZ =  287
[...]
 k-point ** :   0.3333 0.3056 0.0000  plane waves:   42865
 k-point ** :   0.3750 0.3056 0.0000  plane waves:   42874
 k-point ** :   0.4167 0.3056 0.0000  plane waves:   42865
 k-point ** :   0.4583 0.3056 0.0000  plane waves:   42869
 k-point ** :   0.5000 0.3056 0.0000  plane waves:   42862
 k-point ** :   0.0000 0.3333 0.0000  plane waves:   42852
 k-point ** :   0.0417 0.3333 0.0000  plane waves:   42840
 k-point ** :   0.0833 0.3333 0.0000  plane waves:   42846
[...]
 k-point ** :   0.4583 0.4722 0.0000  plane waves:   42947
 k-point ** :   0.5000 0.4722 0.0000  plane waves:   42968
 k-point ** :   0.0000 0.5000 0.0000  plane waves:   42842
 k-point ** :   0.0417 0.5000 0.0000  plane waves:   42842
 k-point ** :   0.0833 0.5000 0.0000  plane waves:   42858
 k-point ** :   0.1250 0.5000 0.0000  plane waves:   42870
 k-point ** :   0.1667 0.5000 0.0000  plane waves:   42864
 k-point ** :   0.2083 0.5000 0.0000  plane waves:   42872
 k-point ** :   0.2500 0.5000 0.0000  plane waves:   42854
 k-point ** :   0.2917 0.5000 0.0000  plane waves:   42894
 k-point ** :   0.3333 0.5000 0.0000  plane waves:   42884
 k-point ** :   0.3750 0.5000 0.0000  plane waves:   42894
 k-point ** :   0.4167 0.5000 0.0000  plane waves:   42930
 k-point ** :   0.4583 0.5000 0.0000  plane waves:   42932
 k-point ** :   0.5000 0.5000 0.0000  plane waves:   42920

 maximum and minimum number of plane-waves per node :     21492    21295

 maximum number of plane-waves:     42968
 maximum index in each direction:
   IXMAX=   15   IYMAX=    8   IZMAX=   71
   IXMIN=  -16   IYMIN=   -9   IZMIN=  -71

 NGX is ok and might be reduce to  64
 NGY is ok and might be reduce to  36
 NGZ is ok and might be reduce to 286

 parallel 3D FFT for wavefunctions:
    minimum data exchange during FFTs selected (reduces bandwidth)
 parallel 3D FFT for charge:
    minimum data exchange during FFTs selected (reduces bandwidth)

 Broyden mixing: mesh for mixing (old mesh)
   NGX = 31   NGY = 17   NGZ =143
  (NGX  =128   NGY  = 72   NGZ  =576)
  gives a total of  75361 points

 initial charge density was supplied:
 charge density of overlapping atoms calculated
 number of electron      16.0000000 magnetization
 keeping initial charge density in first step

 Maximum index for augmentation-charges         4565 (set IRDMAX)

 First call to EWALD:  gamma=   0.298
 Maximum number of real-space cells 4x 6x 1
 Maximum number of reciprocal cells 2x 1x 8

 FEWALD executed in parallel

----------------------------------------- Iteration    1(   1)  ---------------------------------------

 eigenvalue-minimisations  :  5928
 total energy-change (2. order) : 0.1883645E+03  (-0.1059431E+04)
 number of electron      16.0000000 magnetization
 augmentation part       16.0000000 magnetization

 Free energy of the ion-electron system (eV)
  alpha Z        PSCENC =         6.18334092
  Ewald energy   TEWEN  =      2475.02931082
  -Hartree energ DENC   =     -2903.75696391
  -exchange      EXHF   =         0.00000000
  -V(xc)+E(xc)   XCENC  =        54.86998240
  PAW double counting   =       151.32577238     -155.92769107
  entropy T*S    EENTRO =        -0.00194972
  eigenvalues    EBANDS =       -27.98079335
  atomic energy  EATOM  =       588.62352690
  free energy    TOTEN  =       188.36453539 eV

  energy without entropy =      188.36648510  energy(sigma->0) =      188.36551025

[...]

 eigenvalue-minimisations  : 10528
 total energy-change (2. order) :-0.1979497E+03  (-0.1762994E+03)
 number of electron      16.0000000 magnetization
 augmentation part       16.0000000 magnetization

[...]

 Broyden mixing:
  rms(total) = 0.71332E+00    rms(broyden)= 0.71332E+00
  rms(prec ) = 0.77694E+00
  weight for this iteration     100.00

[...]

 eigenvalues of (default mixing * dielectric matrix)
  average eigenvalue GAMMA=   2.3130
  2.3130

[...]

WARNING in EDDRMM: call to ZHEGV failed, returncode =   6  3  1

[...]

 average (electrostatic) potential at core
  the test charge radii are     0.6991
  (the norm of the test charge is              1.0000)
       1 -58.2910       2 -58.2910       3 -58.2910       4 -58.2910

 E-fermi :  -2.8112     XC(G=0):  -2.1712     alpha+bet : -1.9046

 k-point     1 :       0.0000    0.0000    0.0000
  band No.  band energies     occupation
      1     -22.1136      2.00000
      2     -17.2150      2.00000
      3     -15.8608      2.00000
      4     -10.2508      2.00000
      5      -8.8695      2.00000
      6      -5.9670      2.00000
      7      -5.7373      2.00000
      8      -5.2941      2.00000
      9      -1.1665      0.00000
     10       0.5407      0.00000
     11       1.3393      0.00000
     12       1.7293      0.00000

[...]

 soft charge-density along one line, spin component           1
         0         1         2         3         4         5         6         7         8         9
 total charge-density along one line

------------------------ aborting loop because EDIFF is reached ----------------------------------------

  FORCE on cell =-STRESS in cart. coord.  units (eV):
  Direction    XX          YY          ZZ          XY          YZ          ZX
  Alpha Z     6.18334     6.18334     6.18334
  Ewald    3006.70432  3009.40713 -3541.08237     0.00000     0.00000    -0.00000
  Hartree  2945.75212  2946.68549 -2923.18594    -0.00000    -0.00000    -0.00000
  E(xc)     -58.03023   -58.05326   -60.36646     0.00000    -0.00000    -0.00000
  Local   -6125.79110 -6128.99496  6258.84677     0.00000    -0.00000    -0.00000
  n-local   -13.18478   -13.84613   -12.53510     0.06532    -0.00000     0.00000
  augment    -1.48995    -1.49197    -1.37974     0.00000     0.00000     0.00000
  Kinetic   235.44681   240.11164   273.51815    -4.47914     0.00000    -0.00000
  Fock        0.00000     0.00000     0.00000     0.00000     0.00000     0.00000
  Total      -4.40948     0.00130    -0.00135     0.00000     0.00000     0.00000
  in kB     -33.50805     0.00987    -0.01024     0.00000     0.00000     0.00000

 VOLUME and BASIS-vectors are now :
  energy-cutoff  :     2000.00
  volume of cell :      210.84
      direct lattice vectors                 reciprocal lattice vectors
     4.359796973  0.000000000  0.000000000     0.229368479  0.000000000  0.000000000
     0.000000000  2.458880327  0.000000000     0.000000000  0.406689170  0.000000000
     0.000000000  0.000000000 19.667312887     0.000000000  0.000000000  0.050845787

[...]

 FORCES acting on ions
    electron-ion (+dipol)            ewald-force                    non-local-force                 convergence-correction
   0.435E+01 0.356E-15 -.185E-08   -.435E+01 -.528E-14 0.606E-18   -.191E-02 0.347E-17 0.000E+00   -.849E-08 0.229E-15 -.827E-13
   -.435E+01 -.185E-12 -.969E-08   0.435E+01 -.652E-14 -.543E-33   0.191E-02 -.104E-16 0.000E+00   0.849E-08 -.196E-14 -.821E-13
   0.435E+01 -.206E-12 -.186E-08   -.435E+01 0.200E-14 -.606E-18   -.191E-02 0.347E-17 0.000E+00   -.849E-08 0.117E-15 -.826E-13
   -.435E+01 0.347E-15 -.968E-08   0.435E+01 0.762E-15 0.578E-33   0.191E-02 -.347E-17 0.155E-24   0.849E-08 -.182E-14 -.820E-13
   -.117E-05 -.390E-12 -.231E-07   -.622E-14 -.903E-14 0.000E+00   0.195E-17 -.694E-17 0.155E-24   -.358E-13 -.343E-14 -.329E-12

 POSITION                                       TOTAL-FORCE (eV/Angst)
      4.35780      0.00000      0.00000        -0.001231     -0.000000      0.000000
      0.72863      1.22944      0.00000         0.001231     -0.000000     -0.000000
      2.17791      1.22944      0.00000        -0.001231      0.000000      0.000000
      2.90852      0.00000      0.00000         0.001231      0.000000     -0.000000
    total drift:                               -0.000001     -0.000000     -0.000000

  FREE ENERGIE OF THE ION-ELECTRON SYSTEM (eV)
  free  energy   TOTEN  =       -36.88122419 eV

  energy  without entropy=      -36.88122383  energy(sigma->0) =      -36.88122401

 Quasi-Newton relaxation of ions (Broydens 2nd method)
  g(Force)  = 0.292E-06   g(Stress)= 0.000E+00

 Reset! Starting new Quasi-Newton update for ions

[...]

 d Force =-0.4071964E-06[-0.111E-05, 0.292E-06]  d Energy =-0.4197888E-06 0.126E-07
 d Force = 0.1030250E-02[ 0.103E-02, 0.103E-02]  d Ewald  = 0.1030251E-02-0.160E-09

[...]

 retain information from N=  1 steps
 eigenvalues of (default step * inverse Hessian matrix)
  average eigenvalue of G=   0.2090
 eigenvalue spectrum of G is  0.2090

[...]

 d Force = 0.4386284E-06[ 0.177E-08, 0.875E-06]  d Energy = 0.4479206E-06-0.929E-08
 d Force =-0.8145604E-03[-0.816E-03,-0.813E-03]  d Ewald  =-0.8145605E-03 0.787E-10

[...]

 eigenvalue-minimisations  :  4836
 total energy-change (2. order) : 0.5594529E-09  ( 0.5354322E-09)
 number of electron      16.0000000 magnetization
 augmentation part        0.3743264 magnetization

[...]

 eigenvalue-minimisations  :  2984
 total energy-change (2. order) :-0.5014726E-09  ( 0.9566216E-13)
 number of electron      16.0000000 magnetization
 augmentation part        0.3743264 magnetization

[...]

 d Force =-0.3452448E-12[-0.427E-11, 0.358E-11]  d Energy =-0.1807621E-09 0.180E-09
 d Force =-0.1651489E-05[-0.165E-05,-0.165E-05]  d Ewald  =-0.1651489E-05-0.455E-12

[...]

 eigenvalue-minimisations  :  1306
 total energy-change (2. order) : 0.2337401E-09  (-0.3197442E-13)
 number of electron      16.0000000 magnetization
 augmentation part        0.3743264 magnetization

[...]

 d Force = 0.1309153E-11[ 0.296E-12, 0.232E-11]  d Energy =-0.6741629E-10 0.687E-10
 d Force = 0.8984102E-06[ 0.898E-06, 0.898E-06]  d Ewald  = 0.8984098E-06 0.455E-12

[...]

 eigenvalue-minimisations  :   583
 total energy-change (2. order) :-0.9663381E-11  (-0.1611879E-14)
 number of electron      16.0000000 magnetization
 augmentation part        0.3743264 magnetization

[...]

 d Force = 0.3860833E-13[ 0.339E-13, 0.433E-13]  d Energy = 0.3142304E-09-0.314E-09
 d Force = 0.1313576E-06[ 0.131E-06, 0.131E-06]  d Ewald  = 0.1313574E-06 0.000E+00

[...]

 d Force = 0.3103160E-14[-0.116E-12, 0.122E-12]  d Energy =-0.2870593E-09 0.287E-09
 d Force = 0.4737578E-06[ 0.474E-06, 0.474E-06]  d Ewald  = 0.4737581E-06-0.455E-12

[...]

 d Force =-0.3313243E-14[-0.632E-13, 0.565E-13]  d Energy =-0.9401901E-10 0.940E-10
 d Force =-0.2307115E-06[-0.231E-06,-0.231E-06]  d Ewald  =-0.2307111E-06-0.455E-12

[...]

 FEWALD executed in parallel

[...]

 Broyden mixing:
  rms(total) = 0.69024E-11    rms(broyden)= 0.48715E-11
  rms(prec ) = 0.79923E-11
  weight for this iteration     100.00
  WARNING: grid for Broyden might be to small

[...]

 Broyden mixing:
  rms(total) = 0.18936E-10    rms(broyden)= 0.18617E-10
  rms(prec ) = 0.35055E-10
  weight for this iteration     100.00

[...]

 eigenvalue-minimisations  :   267
 total energy-change (2. order) :-0.1326725E-09  ( 0.0000000E+00)
 number of electron      16.0000000 magnetization
 augmentation part        0.3743264 magnetization

 Broyden mixing:
  rms(total) = 0.40114E-11    rms(broyden)= 0.22449E-11
  rms(prec ) = 0.26760E-11
  weight for this iteration     100.00
  WARNING: grid for Broyden might be to small

 eigenvalues of (default mixing * dielectric matrix)
  average eigenvalue GAMMA=   2.0428
  3.3113  3.3113  2.6215  2.5294  1.0159  1.0159  0.4944

[...]

----------------------------------------- Iteration    9(   9)  ---------------------------------------

 eigenvalue-minimisations  :   211
 total energy-change (2. order) : 0.3979039E-10  ( 0.0000000E+00)
 number of electron      16.0000000 magnetization
 augmentation part        0.3743264 magnetization

 Free energy of the ion-electron system (eV)
  alpha Z        PSCENC =         6.18334092
  Ewald energy   TEWEN  =      2475.02909539
  -Hartree energ DENC   =     -2969.25148759
  -exchange      EXHF   =         0.00000000
  -V(xc)+E(xc)   XCENC  =        57.21347707
  PAW double counting   =       270.35493820     -275.47333332
  entropy T*S    EENTRO =        -0.00000037
  eigenvalues    EBANDS =      -189.56078142
  atomic energy  EATOM  =       588.62352690
  free energy    TOTEN  =       -36.88122422 eV

  energy without entropy =      -36.88122385  energy(sigma->0) =      -36.88122404

 average (electrostatic) potential at core
  the test charge radii are     0.6991
  (the norm of the test charge is              1.0000)
       1 -58.2910       2 -58.2910       3 -58.2910       4 -58.2910

 E-fermi :  -2.8112     XC(G=0):  -2.1705     alpha+bet : -1.9046

[...]

 k-point   247 :       0.5000    0.5000    0.0000
  band No.  band energies     occupation
      1     -16.8783      2.00000
      2     -16.8783      2.00000
      3     -15.8789      2.00000
      4     -15.8789      2.00000
      5      -9.2789      2.00000
      6      -9.2789      2.00000
      7      -5.0308      2.00000
      8      -5.0308      2.00000
      9      -1.1363      0.00000
     10      -1.1363      0.00000
     11       4.0270      0.00000
     12       4.0270      0.00000

 soft charge-density along one line, spin component           1
         0         1         2         3         4         5         6         7         8         9
 total charge-density along one line

------------------------ aborting loop because EDIFF is reached ----------------------------------------

  FORCE on cell =-STRESS in cart. coord.  units (eV):
  Direction    XX          YY          ZZ          XY          YZ          ZX
  Alpha Z     6.18334     6.18334     6.18334
  Ewald    3006.71494  3009.39629 -3541.08237    -0.00000     0.00000    -0.00000
  Hartree  2945.75356  2946.68388 -2923.18596    -0.00000    -0.00000    -0.00000
  E(xc)     -58.03018   -58.05329   -60.36645     0.00000    -0.00000    -0.00000
  Local   -6125.80126 -6128.98454  6258.84684     0.00000     0.00000     0.00000
  n-local   -13.18468   -13.84622   -12.53510     0.06531     0.00000    -0.00000
  augment    -1.48997    -1.49195    -1.37974     0.00000    -0.00000    -0.00000
  Kinetic   235.44509   240.11324   273.51808    -4.47910    -0.00000     0.00000
  Fock        0.00000     0.00000     0.00000     0.00000     0.00000     0.00000
  Total      -4.40916     0.00076    -0.00135     0.00000     0.00000     0.00000
  in kB     -33.50562     0.00581    -0.01024     0.00000     0.00000     0.00000

 VOLUME and BASIS-vectors are now :
  energy-cutoff  :     2000.00
  volume of cell :      210.84
      direct lattice vectors                 reciprocal lattice vectors
     4.359796973  0.000000000  0.000000000     0.229368479  0.000000000  0.000000000
     0.000000000  2.458880327  0.000000000     0.000000000  0.406689170  0.000000000
     0.000000000  0.000000000 19.667312887     0.000000000  0.000000000  0.050845787

  length of vectors
     4.359796973  2.458880327 19.667312887     0.229368479  0.406689170  0.050845787

 FORCES acting on ions
    electron-ion (+dipol)            ewald-force                    non-local-force                 convergence-correction
   0.434E+01 0.692E-15 -.187E-08   -.434E+01 -.882E-14 0.451E-18   -.147E-02 0.104E-16 -.404E-27   0.125E-11 -.132E-14 0.129E-11
   -.434E+01 0.195E-12 -.970E-08   0.434E+01 0.155E-14 -.128E-17   0.147E-02 -.139E-16 0.000E+00   -.124E-11 0.481E-16 0.129E-11
   0.434E+01 0.598E-12 -.190E-08   -.434E+01 -.607E-14 0.128E-17   -.147E-02 0.347E-17 0.000E+00   0.124E-11 -.112E-14 0.129E-11
   -.434E+01 0.121E-14 -.974E-08   0.434E+01 0.430E-14 -.451E-18   0.147E-02 0.000E+00 0.000E+00   -.125E-11 -.162E-15 0.129E-11
   -.116E-05 0.794E-12 -.232E-07   -.533E-14 -.903E-14 0.193E-33   0.867E-18 0.000E+00 -.404E-27   0.283E-15 -.256E-14 0.517E-11

 POSITION                                       TOTAL-FORCE (eV/Angst)
      4.35779      0.00000      0.00000         0.000001     -0.000000     -0.000000
      0.72864      1.22944     -0.00000        -0.000001      0.000000      0.000000
      2.17789      1.22944      0.00000         0.000001     -0.000000     -0.000000
      2.90854     -0.00000     -0.00000        -0.000001      0.000000      0.000000
    total drift:                               -0.000001      0.000000     -0.000000

  FREE ENERGIE OF THE ION-ELECTRON SYSTEM (eV)
  free  energy   TOTEN  =       -36.88122422 eV

  energy  without entropy=      -36.88122385  energy(sigma->0) =      -36.88122404

 d Force = 0.6680079E-14[-0.200E-13, 0.333E-13]  d Energy = 0.3899459E-10-0.390E-10
 d Force = 0.1217423E-06[ 0.122E-06, 0.122E-06]  d Ewald  = 0.1217422E-06 0.000E+00

 Quasi-Newton relaxation of ions (Broydens 2nd method)
  g(Force)  = 0.979E-13   g(Stress)= 0.000E+00

 retain information from N=  1 steps
 eigenvalues of (default step * inverse Hessian matrix)
  average eigenvalue of G=   0.0764
 eigenvalue spectrum of G is  0.0764

 reached required accuracy - stopping structural energy minimisation