 vasp.5.3.5 31Mar14 (build Mar 02 2015 18:14:16) complex

 executed on             LinuxIFC date 2018.08.10  14:45:16

 INCAR:
 POTCAR:   PAW_PBE C 08Apr2002
 POTCAR:   PAW_PBE C 08Apr2002
   VRHFIN =C: s2p2

   TITEL  = PAW_PBE C 08Apr2002
   POMASS =   12.011; ZVAL   =    4.000    mass and valenz
   ENMAX  =  400.000; ENMIN  =  300.000 eV
   QCUT   =   -5.516; QGAM   =   11.032    optimization parameters

   Description
     l     E      TYP  RCUT    TYP  RCUT
     0   .000     23  1.200
     0   .000     23  1.200
     1   .000     23  1.500
     1  2.500     23  1.500
     2   .000      7  1.500

 PAW_PBE C 08Apr2002                    :

 POSCAR: MD-kMC export data
  positions in direct lattice
  velocities in cartesian coordinates
 exchange correlation table for  LEXCH =        8
   RHO(1)=    0.500       N(1)  =     2000
   RHO(2)=  100.500       N(2)  =     4000

 ion  position               nearest neighbor table
   1  1.000  0.000  0.000-   4 1.42   2 1.43   2 1.43
   2  0.167  0.500  0.000-   3 1.42   1 1.43   1 1.43
   3  0.500  0.500  0.000-   2 1.42   4 1.43   4 1.43
   4  0.667  0.000  0.000-   1 1.42   3 1.43   3 1.43

  LATTYP: Found a simple orthorhombic cell.
 ALAT       =     2.4673223549
 B/A-ratio  =     1.7324598882
 C/A-ratio  =     8.1022906000

  Lattice vectors:

 A1 = (   0.0000000000,  -2.4673223549,   0.0000000000)
 A2 = (  -4.2745370111,   0.0000000000,   0.0000000000)
 A3 = (   0.0000000000,   0.0000000000, -19.9909627236)

Analysis of symmetry for initial positions (statically):
 Subroutine PRICEL returns following result:

  LATTYP: Found a base centered orthorhombic cell.
 ALAT       =     2.4673223549
 B/A-ratio  =     1.7324598882
 C/A-ratio  =     8.1022906000

[...]

   2 primitive cells build up your supercell.

 Routine SETGRP: Setting up the symmetry group for a
 simple orthorhombic supercell.

 Subroutine GETGRP returns: Found  8 space group operations
 (whereof  4 operations were pure point group operations)
 out of a pool of  8 trial point group operations.

The static configuration has the point symmetry C_2v.
 The point group associated with its full space group is D_2h.

Analysis of symmetry for dynamics (positions and initial velocities):
 Subroutine PRICEL returns following result:

  LATTYP: Found a base centered orthorhombic cell.
 ALAT       =     2.4673223549
 B/A-ratio  =     1.7324598882
 C/A-ratio  =     8.1022906000

  Lattice vectors:

 A1 = (   2.1372685056,  -1.2336611775,   0.0000000000)
 A2 = (  -2.1372685056,  -1.2336611775,   0.0000000000)
 A3 = (   0.0000000000,   0.0000000000, -19.9909627236)

   2 primitive cells build up your supercell.

 Routine SETGRP: Setting up the symmetry group for a
 simple orthorhombic supercell.

 Subroutine GETGRP returns: Found  8 space group operations
 (whereof  4 operations were pure point group operations)
 out of a pool of  8 trial point group operations.

The dynamic configuration has the point symmetry C_2v.
 The point group associated with its full space group is D_2h.

 KPOINTS: Automatic mesh

Automatic generation of k-mesh.
Space group operators:
 irot       det(A)        alpha          n_x          n_y          n_z        tau_x        tau_y        tau_z
    1     1.000000     0.000000     1.000000     0.000000     0.000000     0.000000     0.000000     0.000000
    2    -1.000000   180.000000     0.000000     0.000000     1.000000     0.000000     0.000000     0.000000
    3     1.000000   180.000000     1.000000     0.000000     0.000000     0.000000     0.000000     0.000000
    4    -1.000000   180.000000     0.000000     1.000000     0.000000     0.000000     0.000000     0.000000
    5    -1.000000     0.000000     1.000000     0.000000     0.000000     0.166667    -0.500000     0.000000
    6     1.000000   180.000000     0.000000     0.000000     1.000000     0.166667    -0.500000     0.000000
    7    -1.000000   180.000000     1.000000     0.000000     0.000000     0.166667    -0.500000     0.000000
    8     1.000000   180.000000     0.000000     1.000000     0.000000     0.166667    -0.500000     0.000000

 Subroutine IBZKPT returns following result:

 Found    247 irreducible k-points:

 Following reciprocal coordinates:
            Coordinates               Weight
  0.000000  0.000000  0.000000      1.000000
  0.041667  0.000000  0.000000      2.000000
  0.083333  0.000000  0.000000      2.000000
  0.125000  0.000000  0.000000      2.000000
  0.166667  0.000000  0.000000      2.000000
  0.208333  0.000000  0.000000      2.000000
  0.250000  0.000000  0.000000      2.000000
  0.291667  0.000000  0.000000      2.000000
  0.333333  0.000000  0.000000      2.000000
  0.375000  0.000000  0.000000      2.000000
  0.416667  0.000000  0.000000      2.000000
  0.458333  0.000000  0.000000      2.000000
  0.500000  0.000000  0.000000      1.000000
  0.000000  0.027778  0.000000      2.000000
  0.041667  0.027778  0.000000      4.000000
  0.083333  0.027778  0.000000      4.000000
  0.125000  0.027778  0.000000      4.000000
  0.166667  0.027778  0.000000      4.000000
  0.208333  0.027778  0.000000      4.000000
  0.250000  0.027778  0.000000      4.000000
  0.291667  0.027778  0.000000      4.000000
  0.333333  0.027778  0.000000      4.000000
  0.375000  0.027778  0.000000      4.000000
  0.416667  0.027778  0.000000      4.000000
  0.458333  0.027778  0.000000      4.000000
  0.500000  0.027778  0.000000      2.000000
  0.000000  0.055556  0.000000      2.000000
  0.041667  0.055556  0.000000      4.000000
  0.083333  0.055556  0.000000      4.000000
  0.125000  0.055556  0.000000      4.000000
  0.166667  0.055556  0.000000      4.000000
  0.208333  0.055556  0.000000      4.000000
  0.250000  0.055556  0.000000      4.000000
  0.291667  0.055556  0.000000      4.000000
  0.333333  0.055556  0.000000      4.000000
  0.375000  0.055556  0.000000      4.000000
  0.416667  0.055556  0.000000      4.000000
  0.458333  0.055556  0.000000      4.000000
  0.500000  0.055556  0.000000      2.000000
  0.000000  0.083333  0.000000      2.000000
  0.041667  0.083333  0.000000      4.000000
  0.083333  0.083333  0.000000      4.000000
  0.125000  0.083333  0.000000      4.000000
  0.166667  0.083333  0.000000      4.000000
  0.208333  0.083333  0.000000      4.000000
  0.250000  0.083333  0.000000      4.000000
  0.291667  0.083333  0.000000      4.000000
  0.333333  0.083333  0.000000      4.000000
  0.375000  0.083333  0.000000      4.000000
  0.416667  0.083333  0.000000      4.000000
  0.458333  0.083333  0.000000      4.000000
  0.500000  0.083333  0.000000      2.000000
  0.000000  0.111111  0.000000      2.000000
  0.041667  0.111111  0.000000      4.000000
  0.083333  0.111111  0.000000      4.000000
  0.125000  0.111111  0.000000      4.000000
  0.166667  0.111111  0.000000      4.000000
  0.208333  0.111111  0.000000      4.000000
  0.250000  0.111111  0.000000      4.000000
  0.291667  0.111111  0.000000      4.000000
[...]
  0.458333  0.472222  0.000000      4.000000
  0.500000  0.472222  0.000000      2.000000
  0.000000  0.500000  0.000000      1.000000
  0.041667  0.500000  0.000000      2.000000
  0.083333  0.500000  0.000000      2.000000
  0.125000  0.500000  0.000000      2.000000
  0.166667  0.500000  0.000000      2.000000
  0.208333  0.500000  0.000000      2.000000
  0.250000  0.500000  0.000000      2.000000
  0.291667  0.500000  0.000000      2.000000
  0.333333  0.500000  0.000000      2.000000
  0.375000  0.500000  0.000000      2.000000
  0.416667  0.500000  0.000000      2.000000
  0.458333  0.500000  0.000000      2.000000
  0.500000  0.500000  0.000000      1.000000

 Following cartesian coordinates:
            Coordinates               Weight
  0.000000  0.000000  0.000000      1.000000
  0.009748  0.000000  0.000000      2.000000
  0.019495  0.000000  0.000000      2.000000
  0.029243  0.000000  0.000000      2.000000
  0.038991  0.000000  0.000000      2.000000
  0.048738  0.000000  0.000000      2.000000
  0.058486  0.000000  0.000000      2.000000
  0.068234  0.000000  0.000000      2.000000
  0.077981  0.000000  0.000000      2.000000
  0.087729  0.000000  0.000000      2.000000
  0.097476  0.000000  0.000000      2.000000
  0.107224  0.000000  0.000000      2.000000
  0.116972  0.000000  0.000000      1.000000
  0.000000  0.011258  0.000000      2.000000
  0.009748  0.011258  0.000000      4.000000
  0.019495  0.011258  0.000000      4.000000
  0.029243  0.011258  0.000000      4.000000
  0.038991  0.011258  0.000000      4.000000
  0.048738  0.011258  0.000000      4.000000
  0.058486  0.011258  0.000000      4.000000
  0.068234  0.011258  0.000000      4.000000
  0.077981  0.011258  0.000000      4.000000
  0.087729  0.011258  0.000000      4.000000
  0.097476  0.011258  0.000000      4.000000
  0.107224  0.011258  0.000000      4.000000
  0.116972  0.011258  0.000000      2.000000
  0.000000  0.022517  0.000000      2.000000
  0.009748  0.022517  0.000000      4.000000
  0.019495  0.022517  0.000000      4.000000
  0.029243  0.022517  0.000000      4.000000
  0.038991  0.022517  0.000000      4.000000
  0.048738  0.022517  0.000000      4.000000
  0.058486  0.022517  0.000000      4.000000
  0.068234  0.022517  0.000000      4.000000
  0.077981  0.022517  0.000000      4.000000
  0.087729  0.022517  0.000000      4.000000
  0.097476  0.022517  0.000000      4.000000
  0.107224  0.022517  0.000000      4.000000
  0.116972  0.022517  0.000000      2.000000
  0.000000  0.033775  0.000000      2.000000
  0.009748  0.033775  0.000000      4.000000
  0.019495  0.033775  0.000000      4.000000
  0.029243  0.033775  0.000000      4.000000
  0.038991  0.033775  0.000000      4.000000
  0.048738  0.033775  0.000000      4.000000
  0.058486  0.033775  0.000000      4.000000
  0.068234  0.033775  0.000000      4.000000
  0.077981  0.033775  0.000000      4.000000
  0.087729  0.033775  0.000000      4.000000
  0.097476  0.033775  0.000000      4.000000
  0.107224  0.033775  0.000000      4.000000
  0.116972  0.033775  0.000000      2.000000
  0.000000  0.045033  0.000000      2.000000
  0.009748  0.045033  0.000000      4.000000
  0.019495  0.045033  0.000000      4.000000
  0.029243  0.045033  0.000000      4.000000
  0.038991  0.045033  0.000000      4.000000
  0.048738  0.045033  0.000000      4.000000
  0.058486  0.045033  0.000000      4.000000
  0.068234  0.045033  0.000000      4.000000
[...]
  0.107224  0.191391  0.000000      4.000000
  0.116972  0.191391  0.000000      2.000000
  0.000000  0.202649  0.000000      1.000000
  0.009748  0.202649  0.000000      2.000000
  0.019495  0.202649  0.000000      2.000000
  0.029243  0.202649  0.000000      2.000000
  0.038991  0.202649  0.000000      2.000000
  0.048738  0.202649  0.000000      2.000000
  0.058486  0.202649  0.000000      2.000000
  0.068234  0.202649  0.000000      2.000000
  0.077981  0.202649  0.000000      2.000000
  0.087729  0.202649  0.000000      2.000000
  0.097476  0.202649  0.000000      2.000000
  0.107224  0.202649  0.000000      2.000000
  0.116972  0.202649  0.000000      1.000000

 I would recommend the setting:
   dimension x,y,z NGX =    62 NGY =   36 NGZ =  292
[...]
 k-point ** :   0.3333 0.2778 0.0000  plane waves:   42820
 k-point ** :   0.3750 0.2778 0.0000  plane waves:   42817
 k-point ** :   0.4167 0.2778 0.0000  plane waves:   42810
 k-point ** :   0.4583 0.2778 0.0000  plane waves:   42826
 k-point ** :   0.5000 0.2778 0.0000  plane waves:   42826
 k-point ** :   0.0000 0.3056 0.0000  plane waves:   42888
 k-point ** :   0.0417 0.3056 0.0000  plane waves:   42892
 k-point ** :   0.0833 0.3056 0.0000  plane waves:   42879
 k-point ** :   0.1250 0.3056 0.0000  plane waves:   42853
 k-point ** :   0.1667 0.3056 0.0000  plane waves:   42890
 k-point ** :   0.2083 0.3056 0.0000  plane waves:   42856
 k-point ** :   0.2500 0.3056 0.0000  plane waves:   42843
 k-point ** :   0.2917 0.3056 0.0000  plane waves:   42833
 k-point ** :   0.3333 0.3056 0.0000  plane waves:   42840
 k-point ** :   0.3750 0.3056 0.0000  plane waves:   42832
 k-point ** :   0.4167 0.3056 0.0000  plane waves:   42824
 k-point ** :   0.4583 0.3056 0.0000  plane waves:   42822
 k-point ** :   0.5000 0.3056 0.0000  plane waves:   42848
 k-point ** :   0.0000 0.3333 0.0000  plane waves:   42908
 k-point ** :   0.0417 0.3333 0.0000  plane waves:   42899
 k-point ** :   0.0833 0.3333 0.0000  plane waves:   42873
[...]
 k-point ** :   0.4583 0.4722 0.0000  plane waves:   42803
 k-point ** :   0.5000 0.4722 0.0000  plane waves:   42830
 k-point ** :   0.0000 0.5000 0.0000  plane waves:   42862
 k-point ** :   0.0417 0.5000 0.0000  plane waves:   42948
 k-point ** :   0.0833 0.5000 0.0000  plane waves:   42924
 k-point ** :   0.1250 0.5000 0.0000  plane waves:   42930
 k-point ** :   0.1667 0.5000 0.0000  plane waves:   42918
 k-point ** :   0.2083 0.5000 0.0000  plane waves:   42950
 k-point ** :   0.2500 0.5000 0.0000  plane waves:   42940
 k-point ** :   0.2917 0.5000 0.0000  plane waves:   42884
 k-point ** :   0.3333 0.5000 0.0000  plane waves:   42852
 k-point ** :   0.3750 0.5000 0.0000  plane waves:   42818
 k-point ** :   0.4167 0.5000 0.0000  plane waves:   42788
 k-point ** :   0.4583 0.5000 0.0000  plane waves:   42814
 k-point ** :   0.5000 0.5000 0.0000  plane waves:   42800

 maximum and minimum number of plane-waves per node :     21504    21238

 maximum number of plane-waves:     42950
 maximum index in each direction:
   IXMAX=   15   IYMAX=    8   IZMAX=   72
   IXMIN=  -16   IYMIN=   -9   IZMIN=  -72

 NGX is ok and might be reduce to  64
 NGY is ok and might be reduce to  36
 NGZ is ok and might be reduce to 290

 parallel 3D FFT for wavefunctions:
    minimum data exchange during FFTs selected (reduces bandwidth)
 parallel 3D FFT for charge:
    minimum data exchange during FFTs selected (reduces bandwidth)

 Broyden mixing: mesh for mixing (old mesh)
   NGX = 31   NGY = 17   NGZ =145
  (NGX  =128   NGY  = 72   NGZ  =588)
  gives a total of  76415 points

 initial charge density was supplied:
 charge density of overlapping atoms calculated
 number of electron      16.0000000 magnetization
 keeping initial charge density in first step

 Maximum index for augmentation-charges         4659 (set IRDMAX)

 First call to EWALD:  gamma=   0.298
 Maximum number of real-space cells 4x 6x 1
 Maximum number of reciprocal cells 2x 1x 8

 FEWALD executed in parallel

----------------------------------------- Iteration    1(   1)  ---------------------------------------

 eigenvalue-minimisations  :  5928
 total energy-change (2. order) : 0.1898788E+03  (-0.1065583E+04)
 number of electron      16.0000000 magnetization
 augmentation part       16.0000000 magnetization

 Free energy of the ion-electron system (eV)
  alpha Z        PSCENC =         6.18334092
  Ewald energy   TEWEN  =      2583.79947678
  -Hartree energ DENC   =     -3009.27157094
  -exchange      EXHF   =         0.00000000
  -V(xc)+E(xc)   XCENC  =        55.09148823
  PAW double counting   =       151.32577238     -155.92769107
  entropy T*S    EENTRO =        -0.00157984
  eigenvalues    EBANDS =       -29.94393572
  atomic energy  EATOM  =       588.62352690
  free energy    TOTEN  =       189.87882765 eV

  energy without entropy =      189.88040749  energy(sigma->0) =      189.87961757

[...]

 eigenvalue-minimisations  : 10468
 total energy-change (2. order) :-0.1988922E+03  (-0.1754380E+03)
 number of electron      16.0000000 magnetization
 augmentation part       16.0000000 magnetization

[...]

 Broyden mixing:
  rms(total) = 0.73485E+00    rms(broyden)= 0.73485E+00
  rms(prec ) = 0.79889E+00
  weight for this iteration     100.00

[...]

 eigenvalues of (default mixing * dielectric matrix)
  average eigenvalue GAMMA=   2.3219
  2.3219

[...]

 average (electrostatic) potential at core
  the test charge radii are     0.6991
  (the norm of the test charge is              1.0000)
       1 -58.1918       2 -58.1918       3 -58.1918       4 -58.1918

 E-fermi :  -2.7550     XC(G=0):  -2.1429     alpha+bet : -1.9046

 k-point     1 :       0.0000    0.0000    0.0000
  band No.  band energies     occupation
      1     -22.2506      2.00000
      2     -17.0180      2.00000
      3     -15.9795      2.00000
      4     -10.3566      2.00000
      5      -9.1484      2.00000
      6      -5.8040      2.00000
      7      -5.7707      2.00000
      8      -5.1051      2.00000
      9      -1.0758      0.00000
     10       0.5242      0.00000
     11       1.3252      0.00000
     12       1.7087      0.00000

[...]

 soft charge-density along one line, spin component           1
         0         1         2         3         4         5         6         7         8         9
 total charge-density along one line

------------------------ aborting loop because EDIFF is reached ----------------------------------------

  FORCE on cell =-STRESS in cart. coord.  units (eV):
  Direction    XX          YY          ZZ          XY          YZ          ZX
  Alpha Z     6.18334     6.18334     6.18334
  Ewald    3121.63370  3120.75254 -3658.58702    -0.00000     0.00000     0.00000
  Hartree  3055.14137  3055.02552 -3032.41462    -0.00000    -0.00000    -0.00000
  E(xc)     -58.33104   -58.33470   -60.67163     0.00000    -0.00000    -0.00000
  Local   -6349.15383 -6348.32637  6484.85957    -0.00000     0.00000     0.00000
  n-local   -13.93166   -13.94582   -12.76219     0.05588     0.00000    -0.00000
  augment    -1.54138    -1.53993    -1.41363    -0.00000    -0.00000     0.00000
  Kinetic   239.95490   240.14351   274.80486    -4.59575    -0.00000    -0.00000
  Fock        0.00000     0.00000     0.00000     0.00000     0.00000     0.00000
  Total      -0.04461    -0.04193    -0.00132     0.00000     0.00000     0.00000
  in kB      -0.33896    -0.31862    -0.01000     0.00000     0.00000     0.00000

 VOLUME and BASIS-vectors are now :
  energy-cutoff  :     2000.00
  volume of cell :      210.84
      direct lattice vectors                 reciprocal lattice vectors
     4.274537011  0.000000000  0.000000000     0.233943465  0.000000000  0.000000000
     0.000000000  2.467322355  0.000000000     0.000000000  0.405297669  0.000000000
     0.000000000  0.000000000 19.990962724     0.000000000  0.000000000  0.050022603

[...]

 FORCES acting on ions
    electron-ion (+dipol)            ewald-force                    non-local-force                 convergence-correction
   -.105E+00 0.609E-16 -.318E-09   0.140E+00 0.880E-14 0.144E-33   0.194E-01 -.104E-16 0.000E+00   -.435E-07 0.724E-15 0.191E-12
   0.105E+00 0.133E-13 -.582E-08   -.140E+00 -.408E-14 -.310E-18   -.194E-01 0.139E-16 -.414E-24   0.435E-07 -.161E-14 0.192E-12
   -.105E+00 -.204E-12 -.352E-09   0.140E+00 0.590E-14 -.120E-33   0.194E-01 -.347E-17 0.000E+00   -.435E-07 0.552E-15 0.191E-12
   0.105E+00 0.689E-15 -.584E-08   -.140E+00 -.698E-14 0.310E-18   -.194E-01 0.000E+00 -.414E-24   0.435E-07 -.148E-14 0.192E-12
   -.512E-06 -.190E-12 -.123E-07   -.167E-14 0.363E-14 0.000E+00   0.694E-17 0.000E+00 -.827E-24   -.296E-13 -.180E-14 0.767E-12

 POSITION                                       TOTAL-FORCE (eV/Angst)
      4.27400      0.00000      0.00000         0.053922      0.000000      0.000000
      0.71296      1.23366      0.00000        -0.053922      0.000000      0.000000
      2.13673      1.23366      0.00000         0.053922      0.000000      0.000000
      2.85023      0.00000      0.00000        -0.053922     -0.000000      0.000000
    total drift:                               -0.000001     -0.000000     -0.000000

  FREE ENERGIE OF THE ION-ELECTRON SYSTEM (eV)
  free  energy   TOTEN  =       -36.92542260 eV

  energy  without entropy=      -36.92529368  energy(sigma->0) =      -36.92535814

 Quasi-Newton relaxation of ions (Broydens 2nd method)
  g(Force)  = 0.561E-03   g(Stress)= 0.000E+00

 Reset! Starting new Quasi-Newton update for ions

[...]

WARNING in EDDRMM: call to ZHEGV failed, returncode =   6  3  1

[...]

 d Force =-0.8398355E-03[-0.224E-02, 0.561E-03]  d Energy =-0.8396845E-03-0.151E-06
 d Force =-0.3322894E-02[-0.810E-02, 0.146E-02]  d Ewald  =-0.3336981E-02 0.141E-04

[...]

 retain information from N=  1 steps
 eigenvalues of (default step * inverse Hessian matrix)
  average eigenvalue of G=   0.2003
 eigenvalue spectrum of G is  0.2003

[...]

 d Force = 0.8962473E-03[ 0.468E-06, 0.179E-02]  d Energy = 0.8957611E-03 0.486E-06
 d Force = 0.3428193E-02[ 0.377E-03, 0.648E-02]  d Ewald  = 0.3435396E-02-0.720E-05

[...]

 eigenvalue-minimisations  :  6824
 total energy-change (2. order) : 0.1602984E-09  ( 0.2109009E-09)
 number of electron      16.0000000 magnetization
 augmentation part        0.3816824 magnetization

[...]

 d Force = 0.7162584E-10[ 0.208E-10, 0.122E-09]  d Energy = 0.1749640E-08-0.168E-08
 d Force = 0.9842680E-07[ 0.982E-07, 0.986E-07]  d Ewald  = 0.9842643E-07 0.455E-12

[...]

 eigenvalue-minimisations  :  2923
 total energy-change (2. order) :-0.3778950E-09  ( 0.9099922E-13)
 number of electron      16.0000000 magnetization
 augmentation part        0.3816824 magnetization

[...]

 d Force = 0.2741051E-11[ 0.125E-11, 0.424E-11]  d Energy =-0.1065246E-09 0.109E-09
 d Force = 0.2003196E-07[ 0.200E-07, 0.200E-07]  d Ewald  = 0.2003208E-07 0.000E+00

[...]

 eigenvalue-minimisations  :  1377
 total energy-change (2. order) : 0.5138645E-10  (-0.1091617E-12)
 number of electron      16.0000000 magnetization
 augmentation part        0.3816823 magnetization

[...]

 d Force =-0.3829128E-12[-0.129E-11, 0.520E-12]  d Energy = 0.3615241E-10-0.365E-10
 d Force = 0.8347391E-08[ 0.835E-08, 0.835E-08]  d Ewald  = 0.8347342E-08 0.000E+00

[...]

 FEWALD executed in parallel

[...]

 eigenvalue-minimisations  :  1277
 total energy-change (2. order) : 0.4337153E-09  ( 0.4860310E-14)
 number of electron      16.0000000 magnetization
 augmentation part        0.3816823 magnetization

[...]

 eigenvalue-minimisations  :  1117
 total energy-change (2. order) :-0.3174137E-09  ( 0.1122559E-14)
 number of electron      16.0000000 magnetization
 augmentation part        0.3816823 magnetization

 Broyden mixing:
  rms(total) = 0.15598E-09    rms(broyden)= 0.15577E-09
  rms(prec ) = 0.46257E-09
  weight for this iteration     100.00

 eigenvalues of (default mixing * dielectric matrix)
  average eigenvalue GAMMA=   1.9740
  2.8002  2.8002  2.4513  0.9090  0.9090

[...]

----------------------------------------- Iteration    7(   7)  ---------------------------------------

 eigenvalue-minimisations  :  1276
 total energy-change (2. order) :-0.3615241E-10  (-0.2787893E-14)
 number of electron      16.0000000 magnetization
 augmentation part        0.3816823 magnetization

 Free energy of the ion-electron system (eV)
  alpha Z        PSCENC =         6.18334092
  Ewald energy   TEWEN  =      2583.79937824
  -Hartree energ DENC   =     -3077.75219629
  -exchange      EXHF   =         0.00000000
  -V(xc)+E(xc)   XCENC  =        57.51426748
  PAW double counting   =       276.89661478     -282.04464494
  entropy T*S    EENTRO =        -0.00013051
  eigenvalues    EBANDS =      -190.14563526
  atomic energy  EATOM  =       588.62352690
  free energy    TOTEN  =       -36.92547868 eV

  energy without entropy =      -36.92534817  energy(sigma->0) =      -36.92541343

 average (electrostatic) potential at core
  the test charge radii are     0.6991
  (the norm of the test charge is              1.0000)
       1 -58.1918       2 -58.1918       3 -58.1918       4 -58.1918

 E-fermi :  -2.7550     XC(G=0):  -2.1428     alpha+bet : -1.9046

[...]

 k-point   247 :       0.5000    0.5000    0.0000
  band No.  band energies     occupation
      1     -17.0186      2.00000
      2     -17.0186      2.00000
      3     -15.9709      2.00000
      4     -15.9709      2.00000
      5      -9.1596      2.00000
      6      -9.1596      2.00000
      7      -5.1098      2.00000
      8      -5.1098      2.00000
      9      -1.0767      0.00000
     10      -1.0767      0.00000
     11       4.5985      0.00000
     12       4.5985      0.00000

 soft charge-density along one line, spin component           1
         0         1         2         3         4         5         6         7         8         9
 total charge-density along one line

------------------------ aborting loop because EDIFF is reached ----------------------------------------

  FORCE on cell =-STRESS in cart. coord.  units (eV):
  Direction    XX          YY          ZZ          XY          YZ          ZX
  Alpha Z     6.18334     6.18334     6.18334
  Ewald    3121.17775  3121.20839 -3658.58702    -0.00000     0.00000     0.00000
  Hartree  3055.07854  3055.08826 -3032.41459    -0.00000    -0.00000    -0.00000
  E(xc)     -58.33276   -58.33297   -60.67162     0.00000    -0.00000    -0.00000
  Local   -6348.72238 -6348.75774  6484.85958    -0.00000     0.00000    -0.00000
  n-local   -13.93533   -13.94217   -12.76218     0.05649    -0.00000    -0.00000
  augment    -1.54066    -1.54066    -1.41362    -0.00000    -0.00000     0.00000
  Kinetic   240.02672   240.07158   274.80481    -4.59806     0.00000     0.00000
  Fock        0.00000     0.00000     0.00000     0.00000     0.00000     0.00000
  Total      -0.06479    -0.02196    -0.00131     0.00000     0.00000     0.00000
  in kB      -0.49234    -0.16690    -0.00999     0.00000     0.00000     0.00000

 VOLUME and BASIS-vectors are now :
  energy-cutoff  :     2000.00
  volume of cell :      210.84
      direct lattice vectors                 reciprocal lattice vectors
     4.274537011  0.000000000  0.000000000     0.233943465  0.000000000  0.000000000
     0.000000000  2.467322355  0.000000000     0.000000000  0.405297669  0.000000000
     0.000000000  0.000000000 19.990962724     0.000000000  0.000000000  0.050022603

  length of vectors
     4.274537011  2.467322355 19.990962724     0.233943465  0.405297669  0.050022603

 FORCES acting on ions
    electron-ion (+dipol)            ewald-force                    non-local-force                 convergence-correction
   0.451E-01 -.459E-15 -.511E-10   -.451E-01 0.697E-14 0.179E-17   0.383E-04 0.347E-17 0.000E+00   0.165E-09 -.470E-16 0.365E-12
   -.451E-01 0.475E-14 -.521E-08   0.451E-01 -.570E-14 0.605E-28   -.383E-04 -.139E-16 0.000E+00   -.165E-09 -.368E-15 0.385E-12
   0.451E-01 -.110E-12 -.110E-10   -.451E-01 0.752E-14 -.179E-17   0.383E-04 0.347E-17 0.000E+00   0.165E-09 0.232E-16 0.431E-12
   -.451E-01 0.129E-14 -.519E-08   0.451E-01 -.516E-14 -.605E-28   -.383E-04 -.139E-16 0.000E+00   -.165E-09 -.523E-15 0.411E-12
   -.491E-06 -.104E-12 -.105E-07   -.153E-14 0.363E-14 0.963E-34   -.678E-20 -.208E-16 0.000E+00   0.218E-14 -.915E-15 0.159E-11

 POSITION                                       TOTAL-FORCE (eV/Angst)
      4.27452      0.00000      0.00000         0.000001     -0.000000     -0.000000
      0.71244      1.23366     -0.00000        -0.000001      0.000000      0.000000
      2.13725      1.23366      0.00000         0.000001      0.000000     -0.000000
      2.84971      0.00000     -0.00000        -0.000001     -0.000000      0.000000
    total drift:                               -0.000000     -0.000000     -0.000000

  FREE ENERGIE OF THE ION-ELECTRON SYSTEM (eV)
  free  energy   TOTEN  =       -36.92547868 eV

  energy  without entropy=      -36.92534817  energy(sigma->0) =      -36.92541343

 d Force = 0.5040210E-12[ 0.926E-13, 0.915E-12]  d Energy = 0.2664819E-09-0.266E-09
 d Force =-0.5943966E-08[-0.594E-08,-0.594E-08]  d Ewald  =-0.5943093E-08-0.909E-12

 Quasi-Newton relaxation of ions (Broydens 2nd method)
  g(Force)  = 0.952E-13   g(Stress)= 0.000E+00

 retain information from N=  1 steps
 eigenvalues of (default step * inverse Hessian matrix)
  average eigenvalue of G=   0.1095
 eigenvalue spectrum of G is  0.1095

 reached required accuracy - stopping structural energy minimisation