 vasp.5.3.5 31Mar14 (build Mar 02 2015 18:14:16) complex

 executed on             LinuxIFC date 2018.08.11  01:40:45

 INCAR:
 POTCAR:   PAW_PBE C 08Apr2002
 POTCAR:   PAW_PBE C 08Apr2002
   VRHFIN =C: s2p2

   TITEL  = PAW_PBE C 08Apr2002
   POMASS =   12.011; ZVAL   =    4.000    mass and valenz
   ENMAX  =  400.000; ENMIN  =  300.000 eV
   QCUT   =   -5.516; QGAM   =   11.032    optimization parameters

   Description
     l     E      TYP  RCUT    TYP  RCUT
     0   .000     23  1.200
     0   .000     23  1.200
     1   .000     23  1.500
     1  2.500     23  1.500
     2   .000      7  1.500

 PAW_PBE C 08Apr2002                    :

 POSCAR: MD-kMC export data
  positions in direct lattice
  velocities in cartesian coordinates
 exchange correlation table for  LEXCH =        8
   RHO(1)=    0.500       N(1)  =     2000
   RHO(2)=  100.500       N(2)  =     4000

 ion  position               nearest neighbor table
   1  0.000  0.000  0.000-   2 1.42   2 1.42   4 1.43
   2  0.167  0.500  0.000-   1 1.42   1 1.42   3 1.43
   3  0.500  0.500  0.000-   4 1.42   4 1.42   2 1.43
   4  0.667  0.000  0.000-   3 1.42   3 1.42   1 1.43

  LATTYP: Found a simple orthorhombic cell.
 ALAT       =     2.4671758937
 B/A-ratio  =     1.7322514904
 C/A-ratio  =     8.1047085535

  Lattice vectors:

 A1 = (   0.0000000000,  -2.4671758937,   0.0000000000)
 A2 = (  -4.2737691189,   0.0000000000,   0.0000000000)
 A3 = (   0.0000000000,   0.0000000000, -19.9957415684)

Analysis of symmetry for initial positions (statically):
 Subroutine PRICEL returns following result:

  LATTYP: Found a base centered orthorhombic cell.
 ALAT       =     2.4671758937
 B/A-ratio  =     1.7322514904
 C/A-ratio  =     8.1047085535

[...]

   2 primitive cells build up your supercell.

 Routine SETGRP: Setting up the symmetry group for a
 simple orthorhombic supercell.

 Subroutine GETGRP returns: Found  8 space group operations
 (whereof  4 operations were pure point group operations)
 out of a pool of  8 trial point group operations.

The static configuration has the point symmetry C_2v.
 The point group associated with its full space group is D_2h.

Analysis of symmetry for dynamics (positions and initial velocities):
 Subroutine PRICEL returns following result:

  LATTYP: Found a base centered orthorhombic cell.
 ALAT       =     2.4671758937
 B/A-ratio  =     1.7322514904
 C/A-ratio  =     8.1047085535

  Lattice vectors:

 A1 = (   2.1368845594,  -1.2335879468,   0.0000000000)
 A2 = (  -2.1368845594,  -1.2335879468,   0.0000000000)
 A3 = (   0.0000000000,   0.0000000000, -19.9957415684)

   2 primitive cells build up your supercell.

 Routine SETGRP: Setting up the symmetry group for a
 simple orthorhombic supercell.

 Subroutine GETGRP returns: Found  8 space group operations
 (whereof  4 operations were pure point group operations)
 out of a pool of  8 trial point group operations.

The dynamic configuration has the point symmetry C_2v.
 The point group associated with its full space group is D_2h.

 KPOINTS: Automatic mesh

Automatic generation of k-mesh.
Space group operators:
 irot       det(A)        alpha          n_x          n_y          n_z        tau_x        tau_y        tau_z
    1     1.000000     0.000000     1.000000     0.000000     0.000000     0.000000     0.000000     0.000000
    2    -1.000000   180.000000     0.000000     0.000000     1.000000     0.000000     0.000000     0.000000
    3     1.000000   180.000000     1.000000     0.000000     0.000000     0.000000     0.000000     0.000000
    4    -1.000000   180.000000     0.000000     1.000000     0.000000     0.000000     0.000000     0.000000
    5    -1.000000     0.000000     1.000000     0.000000     0.000000     0.166667    -0.500000     0.000000
    6     1.000000   180.000000     0.000000     0.000000     1.000000     0.166667    -0.500000     0.000000
    7    -1.000000   180.000000     1.000000     0.000000     0.000000     0.166667    -0.500000     0.000000
    8     1.000000   180.000000     0.000000     1.000000     0.000000     0.166667    -0.500000     0.000000

 Subroutine IBZKPT returns following result:

 Found    247 irreducible k-points:

 Following reciprocal coordinates:
            Coordinates               Weight
  0.000000  0.000000  0.000000      1.000000
  0.041667  0.000000  0.000000      2.000000
  0.083333  0.000000  0.000000      2.000000
  0.125000  0.000000  0.000000      2.000000
  0.166667  0.000000  0.000000      2.000000
  0.208333  0.000000  0.000000      2.000000
  0.250000  0.000000  0.000000      2.000000
  0.291667  0.000000  0.000000      2.000000
  0.333333  0.000000  0.000000      2.000000
  0.375000  0.000000  0.000000      2.000000
  0.416667  0.000000  0.000000      2.000000
  0.458333  0.000000  0.000000      2.000000
  0.500000  0.000000  0.000000      1.000000
  0.000000  0.027778  0.000000      2.000000
  0.041667  0.027778  0.000000      4.000000
  0.083333  0.027778  0.000000      4.000000
  0.125000  0.027778  0.000000      4.000000
  0.166667  0.027778  0.000000      4.000000
  0.208333  0.027778  0.000000      4.000000
  0.250000  0.027778  0.000000      4.000000
  0.291667  0.027778  0.000000      4.000000
  0.333333  0.027778  0.000000      4.000000
  0.375000  0.027778  0.000000      4.000000
  0.416667  0.027778  0.000000      4.000000
  0.458333  0.027778  0.000000      4.000000
  0.500000  0.027778  0.000000      2.000000
  0.000000  0.055556  0.000000      2.000000
  0.041667  0.055556  0.000000      4.000000
  0.083333  0.055556  0.000000      4.000000
  0.125000  0.055556  0.000000      4.000000
  0.166667  0.055556  0.000000      4.000000
  0.208333  0.055556  0.000000      4.000000
  0.250000  0.055556  0.000000      4.000000
  0.291667  0.055556  0.000000      4.000000
  0.333333  0.055556  0.000000      4.000000
  0.375000  0.055556  0.000000      4.000000
  0.416667  0.055556  0.000000      4.000000
  0.458333  0.055556  0.000000      4.000000
  0.500000  0.055556  0.000000      2.000000
  0.000000  0.083333  0.000000      2.000000
  0.041667  0.083333  0.000000      4.000000
  0.083333  0.083333  0.000000      4.000000
  0.125000  0.083333  0.000000      4.000000
  0.166667  0.083333  0.000000      4.000000
  0.208333  0.083333  0.000000      4.000000
  0.250000  0.083333  0.000000      4.000000
  0.291667  0.083333  0.000000      4.000000
  0.333333  0.083333  0.000000      4.000000
  0.375000  0.083333  0.000000      4.000000
  0.416667  0.083333  0.000000      4.000000
  0.458333  0.083333  0.000000      4.000000
  0.500000  0.083333  0.000000      2.000000
  0.000000  0.111111  0.000000      2.000000
  0.041667  0.111111  0.000000      4.000000
  0.083333  0.111111  0.000000      4.000000
  0.125000  0.111111  0.000000      4.000000
  0.166667  0.111111  0.000000      4.000000
  0.208333  0.111111  0.000000      4.000000
  0.250000  0.111111  0.000000      4.000000
  0.291667  0.111111  0.000000      4.000000
[...]
  0.458333  0.472222  0.000000      4.000000
  0.500000  0.472222  0.000000      2.000000
  0.000000  0.500000  0.000000      1.000000
  0.041667  0.500000  0.000000      2.000000
  0.083333  0.500000  0.000000      2.000000
  0.125000  0.500000  0.000000      2.000000
  0.166667  0.500000  0.000000      2.000000
  0.208333  0.500000  0.000000      2.000000
  0.250000  0.500000  0.000000      2.000000
  0.291667  0.500000  0.000000      2.000000
  0.333333  0.500000  0.000000      2.000000
  0.375000  0.500000  0.000000      2.000000
  0.416667  0.500000  0.000000      2.000000
  0.458333  0.500000  0.000000      2.000000
  0.500000  0.500000  0.000000      1.000000

 Following cartesian coordinates:
            Coordinates               Weight
  0.000000  0.000000  0.000000      1.000000
  0.009749  0.000000  0.000000      2.000000
  0.019499  0.000000  0.000000      2.000000
  0.029248  0.000000  0.000000      2.000000
  0.038998  0.000000  0.000000      2.000000
  0.048747  0.000000  0.000000      2.000000
  0.058496  0.000000  0.000000      2.000000
  0.068246  0.000000  0.000000      2.000000
  0.077995  0.000000  0.000000      2.000000
  0.087745  0.000000  0.000000      2.000000
  0.097494  0.000000  0.000000      2.000000
  0.107243  0.000000  0.000000      2.000000
  0.116993  0.000000  0.000000      1.000000
  0.000000  0.011259  0.000000      2.000000
  0.009749  0.011259  0.000000      4.000000
  0.019499  0.011259  0.000000      4.000000
  0.029248  0.011259  0.000000      4.000000
  0.038998  0.011259  0.000000      4.000000
  0.048747  0.011259  0.000000      4.000000
  0.058496  0.011259  0.000000      4.000000
  0.068246  0.011259  0.000000      4.000000
  0.077995  0.011259  0.000000      4.000000
  0.087745  0.011259  0.000000      4.000000
  0.097494  0.011259  0.000000      4.000000
  0.107243  0.011259  0.000000      4.000000
  0.116993  0.011259  0.000000      2.000000
  0.000000  0.022518  0.000000      2.000000
  0.009749  0.022518  0.000000      4.000000
  0.019499  0.022518  0.000000      4.000000
  0.029248  0.022518  0.000000      4.000000
  0.038998  0.022518  0.000000      4.000000
  0.048747  0.022518  0.000000      4.000000
  0.058496  0.022518  0.000000      4.000000
  0.068246  0.022518  0.000000      4.000000
  0.077995  0.022518  0.000000      4.000000
  0.087745  0.022518  0.000000      4.000000
  0.097494  0.022518  0.000000      4.000000
  0.107243  0.022518  0.000000      4.000000
  0.116993  0.022518  0.000000      2.000000
  0.000000  0.033777  0.000000      2.000000
  0.009749  0.033777  0.000000      4.000000
  0.019499  0.033777  0.000000      4.000000
  0.029248  0.033777  0.000000      4.000000
  0.038998  0.033777  0.000000      4.000000
  0.048747  0.033777  0.000000      4.000000
  0.058496  0.033777  0.000000      4.000000
  0.068246  0.033777  0.000000      4.000000
  0.077995  0.033777  0.000000      4.000000
  0.087745  0.033777  0.000000      4.000000
  0.097494  0.033777  0.000000      4.000000
  0.107243  0.033777  0.000000      4.000000
  0.116993  0.033777  0.000000      2.000000
  0.000000  0.045036  0.000000      2.000000
  0.009749  0.045036  0.000000      4.000000
  0.019499  0.045036  0.000000      4.000000
  0.029248  0.045036  0.000000      4.000000
  0.038998  0.045036  0.000000      4.000000
  0.048747  0.045036  0.000000      4.000000
  0.058496  0.045036  0.000000      4.000000
  0.068246  0.045036  0.000000      4.000000
[...]
  0.107243  0.191402  0.000000      4.000000
  0.116993  0.191402  0.000000      2.000000
  0.000000  0.202661  0.000000      1.000000
  0.009749  0.202661  0.000000      2.000000
  0.019499  0.202661  0.000000      2.000000
  0.029248  0.202661  0.000000      2.000000
  0.038998  0.202661  0.000000      2.000000
  0.048747  0.202661  0.000000      2.000000
  0.058496  0.202661  0.000000      2.000000
  0.068246  0.202661  0.000000      2.000000
  0.077995  0.202661  0.000000      2.000000
  0.087745  0.202661  0.000000      2.000000
  0.097494  0.202661  0.000000      2.000000
  0.107243  0.202661  0.000000      2.000000
  0.116993  0.202661  0.000000      1.000000

 I would recommend the setting:
   dimension x,y,z NGX =    62 NGY =   36 NGZ =  292
[...]
 k-point ** :   0.2083 0.3056 0.0000  plane waves:   42866
 k-point ** :   0.2500 0.3056 0.0000  plane waves:   42847
 k-point ** :   0.2917 0.3056 0.0000  plane waves:   42839
 k-point ** :   0.3333 0.3056 0.0000  plane waves:   42838
 k-point ** :   0.3750 0.3056 0.0000  plane waves:   42828
 k-point ** :   0.4167 0.3056 0.0000  plane waves:   42818
 k-point ** :   0.4583 0.3056 0.0000  plane waves:   42816
 k-point ** :   0.5000 0.3056 0.0000  plane waves:   42860
 k-point ** :   0.0000 0.3333 0.0000  plane waves:   42912
 k-point ** :   0.0417 0.3333 0.0000  plane waves:   42901
 k-point ** :   0.0833 0.3333 0.0000  plane waves:   42879
[...]
 k-point ** :   0.4583 0.4722 0.0000  plane waves:   42813
 k-point ** :   0.5000 0.4722 0.0000  plane waves:   42830
 k-point ** :   0.0000 0.5000 0.0000  plane waves:   42870
 k-point ** :   0.0417 0.5000 0.0000  plane waves:   42948
 k-point ** :   0.0833 0.5000 0.0000  plane waves:   42924
 k-point ** :   0.1250 0.5000 0.0000  plane waves:   42930
 k-point ** :   0.1667 0.5000 0.0000  plane waves:   42910
 k-point ** :   0.2083 0.5000 0.0000  plane waves:   42942
 k-point ** :   0.2500 0.5000 0.0000  plane waves:   42932
 k-point ** :   0.2917 0.5000 0.0000  plane waves:   42888
 k-point ** :   0.3333 0.5000 0.0000  plane waves:   42854
 k-point ** :   0.3750 0.5000 0.0000  plane waves:   42818
 k-point ** :   0.4167 0.5000 0.0000  plane waves:   42788
 k-point ** :   0.4583 0.5000 0.0000  plane waves:   42822
 k-point ** :   0.5000 0.5000 0.0000  plane waves:   42816

 maximum and minimum number of plane-waves per node :     21508    21250

 maximum number of plane-waves:     42948
 maximum index in each direction:
   IXMAX=   15   IYMAX=    8   IZMAX=   72
   IXMIN=  -16   IYMIN=   -9   IZMIN=  -72

 NGX is ok and might be reduce to  64
 NGY is ok and might be reduce to  36
 NGZ is ok and might be reduce to 290

 parallel 3D FFT for wavefunctions:
    minimum data exchange during FFTs selected (reduces bandwidth)
 parallel 3D FFT for charge:
    minimum data exchange during FFTs selected (reduces bandwidth)

 Broyden mixing: mesh for mixing (old mesh)
   NGX = 31   NGY = 17   NGZ =145
  (NGX  =128   NGY  = 72   NGZ  =588)
  gives a total of  76415 points

 initial charge density was supplied:
 charge density of overlapping atoms calculated
 number of electron      16.0000000 magnetization
 keeping initial charge density in first step

 Maximum index for augmentation-charges         4659 (set IRDMAX)

 First call to EWALD:  gamma=   0.298
 Maximum number of real-space cells 4x 6x 1
 Maximum number of reciprocal cells 2x 1x 8

 FEWALD executed in parallel

----------------------------------------- Iteration    1(   1)  ---------------------------------------

 eigenvalue-minimisations  :  5928
 total energy-change (2. order) : 0.1910381E+03  (-0.1066070E+04)
 number of electron      16.0000000 magnetization
 augmentation part       16.0000000 magnetization

 Free energy of the ion-electron system (eV)
  alpha Z        PSCENC =         6.18334092
  Ewald energy   TEWEN  =      2585.42058536
  -Hartree energ DENC   =     -3010.84413309
  -exchange      EXHF   =         0.00000000
  -V(xc)+E(xc)   XCENC  =        55.09475016
  PAW double counting   =       151.32577238     -155.92769107
  entropy T*S    EENTRO =        -0.00081507
  eigenvalues    EBANDS =       -28.83722707
  atomic energy  EATOM  =       588.62352690
  free energy    TOTEN  =       191.03810943 eV

  energy without entropy =      191.03892450  energy(sigma->0) =      191.03851696

[...]

 eigenvalue-minimisations  : 10356
 total energy-change (2. order) :-0.1996789E+03  (-0.1765424E+03)
 number of electron      16.0000000 magnetization
 augmentation part       16.0000000 magnetization

[...]

 Broyden mixing:
  rms(total) = 0.73465E+00    rms(broyden)= 0.73465E+00
  rms(prec ) = 0.79875E+00
  weight for this iteration     100.00

[...]

 eigenvalues of (default mixing * dielectric matrix)
  average eigenvalue GAMMA=   2.3182
  2.3182

[...]

WARNING in EDDRMM: call to ZHEGV failed, returncode =   6  3  1

[...]

 average (electrostatic) potential at core
  the test charge radii are     0.6991
  (the norm of the test charge is              1.0000)
       1 -58.1904       2 -58.1904       3 -58.1904       4 -58.1904

 E-fermi :  -2.7542     XC(G=0):  -2.1432     alpha+bet : -1.9046

 k-point     1 :       0.0000    0.0000    0.0000
  band No.  band energies     occupation
      1     -22.2526      2.00000
      2     -17.0257      2.00000
      3     -15.9627      2.00000
      4     -10.3581      2.00000
      5      -9.1647      2.00000
      6      -5.8029      2.00000
      7      -5.7698      2.00000
      8      -5.1195      2.00000
      9      -1.0627      0.00000
     10       0.5240      0.00000
     11       1.3250      0.00000
     12       1.7064      0.00000

[...]

 soft charge-density along one line, spin component           1
         0         1         2         3         4         5         6         7         8         9
 total charge-density along one line

------------------------ aborting loop because EDIFF is reached ----------------------------------------

  FORCE on cell =-STRESS in cart. coord.  units (eV):
  Direction    XX          YY          ZZ          XY          YZ          ZX
  Alpha Z     6.18334     6.18334     6.18334
  Ewald    3122.36980  3123.38693 -3660.33641     0.00000     0.00000     0.00000
  Hartree  3056.63418  3056.77700 -3034.04189    -0.00000    -0.00000    -0.00000
  E(xc)     -58.33901   -58.33530   -60.67612    -0.00000    -0.00000    -0.00000
  Local   -6351.55452 -6352.52035  6488.22549     0.00000    -0.00000    -0.00000
  n-local   -13.94733   -13.94263   -12.76552     0.05694    -0.00000    -0.00000
  augment    -1.54062    -1.54219    -1.41412     0.00000     0.00000    -0.00000
  Kinetic   240.15137   240.01491   274.82391    -4.60157     0.00000     0.00000
  Fock        0.00000     0.00000     0.00000     0.00000     0.00000     0.00000
  Total      -0.04279     0.02171    -0.00133     0.00000     0.00000     0.00000
  in kB      -0.32517     0.16494    -0.01012     0.00000     0.00000     0.00000

 VOLUME and BASIS-vectors are now :
  energy-cutoff  :     2000.00
  volume of cell :      210.84
      direct lattice vectors                 reciprocal lattice vectors
     4.273769119  0.000000000  0.000000000     0.233985499  0.000000000  0.000000000
     0.000000000  2.467175894  0.000000000     0.000000000  0.405321729  0.000000000
     0.000000000  0.000000000 19.995741568     0.000000000  0.000000000  0.050010648

[...]

 FORCES acting on ions
    electron-ion (+dipol)            ewald-force                    non-local-force                 convergence-correction
   0.187E+00 -.430E-16 0.286E-09   -.225E+00 0.392E-14 -.657E-31   -.212E-01 -.104E-16 0.000E+00   -.359E-06 -.275E-14 0.196E-12
   -.187E+00 0.119E-13 -.454E-08   0.225E+00 -.133E-14 0.317E-18   0.212E-01 0.694E-17 0.000E+00   0.359E-06 -.440E-15 0.196E-12
   0.187E+00 0.588E-12 0.300E-09   -.225E+00 0.112E-14 0.657E-31   -.212E-01 -.347E-17 0.000E+00   -.359E-06 -.269E-14 0.196E-12
   -.187E+00 0.549E-15 -.454E-08   0.225E+00 -.414E-14 -.317E-18   0.212E-01 0.694E-17 0.000E+00   0.359E-06 -.473E-15 0.196E-12
   -.454E-06 0.600E-12 -.849E-08   -.508E-14 -.424E-15 0.000E+00   0.694E-17 0.000E+00 0.000E+00   0.156E-12 -.635E-14 0.784E-12

 POSITION                                       TOTAL-FORCE (eV/Angst)
      0.00056      0.00000      0.00000        -0.058989     -0.000000      0.000000
      0.71173      1.23359      0.00000         0.058989      0.000000      0.000000
      2.13745      1.23359      0.00000        -0.058989      0.000000      0.000000
      2.84862      0.00000      0.00000         0.058989     -0.000000      0.000000
    total drift:                               -0.000000      0.000000     -0.000000

  FREE ENERGIE OF THE ION-ELECTRON SYSTEM (eV)
  free  energy   TOTEN  =       -36.92541981 eV

  energy  without entropy=      -36.92529272  energy(sigma->0) =      -36.92535626

 Quasi-Newton relaxation of ions (Broydens 2nd method)
  g(Force)  = 0.671E-03   g(Stress)= 0.000E+00

 Reset! Starting new Quasi-Newton update for ions

[...]

 eigenvalue-minimisations  :  2083
 total energy-change (2. order) : 0.3971081E-09  ( 0.4302731E-13)
 number of electron      16.0000000 magnetization
 augmentation part        0.3817950 magnetization

[...]

 eigenvalue-minimisations  :  1986
 total energy-change (2. order) :-0.4899903E-10  ( 0.7997718E-15)
 number of electron      16.0000000 magnetization
 augmentation part        0.3817950 magnetization

[...]

 d Force =-0.1020040E-02[-0.271E-02, 0.671E-03]  d Energy =-0.1012499E-02-0.754E-05
 d Force =-0.3227140E-02[-0.901E-02, 0.256E-02]  d Ewald  =-0.3208646E-02-0.185E-04

[...]

 retain information from N=  1 steps
 eigenvalues of (default step * inverse Hessian matrix)
  average eigenvalue of G=   0.1985
 eigenvalue spectrum of G is  0.1985

[...]

 d Force = 0.1084266E-02[-0.483E-05, 0.217E-02]  d Energy = 0.1079737E-02 0.453E-05
 d Force = 0.3499814E-02[-0.224E-03, 0.722E-02]  d Ewald  = 0.3490288E-02 0.953E-05

[...]

WARNING in EDDRMM: call to ZHEGV failed, returncode =   6  3  1

[...]

 d Force = 0.5236483E-08[-0.220E-09, 0.107E-07]  d Energy = 0.5377842E-08-0.141E-09
 d Force = 0.4771358E-06[ 0.459E-06, 0.495E-06]  d Ewald  = 0.4771359E-06 0.000E+00

[...]

 d Force = 0.1634145E-12[-0.412E-11, 0.445E-11]  d Energy = 0.5525180E-10-0.551E-10
 d Force =-0.9274749E-08[-0.928E-08,-0.927E-08]  d Ewald  =-0.9274572E-08 0.000E+00

[...]

 d Force = 0.1125907E-11[ 0.269E-12, 0.198E-11]  d Energy =-0.5479706E-10 0.559E-10
 d Force = 0.4462393E-08[ 0.446E-08, 0.446E-08]  d Ewald  = 0.4462436E-08 0.000E+00

[...]

 eigenvalue-minimisations  :   661
 total energy-change (2. order) :-0.5491074E-10  (-0.4983668E-14)
 number of electron      16.0000000 magnetization
 augmentation part        0.3817909 magnetization

[...]

 d Force = 0.3895412E-13[ 0.356E-13, 0.423E-13]  d Energy = 0.1958824E-09-0.196E-09
 d Force = 0.7011887E-09[ 0.701E-09, 0.701E-09]  d Ewald  = 0.7012204E-09 0.000E+00

[...]

 eigenvalue-minimisations  :   311
 total energy-change (2. order) : 0.1375611E-10  (-0.2113536E-14)
 number of electron      16.0000000 magnetization
 augmentation part        0.3817909 magnetization

[...]

 d Force =-0.9841802E-13[-0.384E-12, 0.187E-12]  d Energy =-0.1334683E-09 0.133E-09
 d Force = 0.3684822E-08[ 0.368E-08, 0.369E-08]  d Ewald  = 0.3684818E-08 0.000E+00

[...]

 d Force = 0.3896481E-14[-0.478E-13, 0.555E-13]  d Energy =-0.9936230E-10 0.994E-10
 d Force = 0.9133525E-09[ 0.913E-09, 0.913E-09]  d Ewald  = 0.9135874E-09-0.455E-12

[...]

 FEWALD executed in parallel

[...]

 eigenvalue-minimisations  :    71
 total energy-change (2. order) : 0.9811174E-10  ( 0.0000000E+00)
 number of electron      16.0000000 magnetization
 augmentation part        0.3817909 magnetization

 Broyden mixing:
  rms(total) = 0.28320E-10    rms(broyden)= 0.28211E-10
  rms(prec ) = 0.37262E-10
  weight for this iteration     100.00

 eigenvalues of (default mixing * dielectric matrix)
  average eigenvalue GAMMA=   1.8895
  2.6842  2.5516  0.4326

[...]

----------------------------------------- Iteration   11(   5)  ---------------------------------------

 eigenvalue-minimisations  :   179
 total energy-change (2. order) :-0.4206413E-10  ( 0.0000000E+00)
 number of electron      16.0000000 magnetization
 augmentation part        0.3817909 magnetization

 Free energy of the ion-electron system (eV)
  alpha Z        PSCENC =         6.18334092
  Ewald energy   TEWEN  =      2585.42030325
  -Hartree energ DENC   =     -3079.36908794
  -exchange      EXHF   =         0.00000000
  -V(xc)+E(xc)   XCENC  =        57.51868983
  PAW double counting   =       276.99409421     -282.14256901
  entropy T*S    EENTRO =        -0.00013058
  eigenvalues    EBANDS =      -190.15365464
  atomic energy  EATOM  =       588.62352690
  free energy    TOTEN  =       -36.92548705 eV

  energy without entropy =      -36.92535647  energy(sigma->0) =      -36.92542176

 average (electrostatic) potential at core
  the test charge radii are     0.6991
  (the norm of the test charge is              1.0000)
       1 -58.1904       2 -58.1904       3 -58.1904       4 -58.1904

 E-fermi :  -2.7542     XC(G=0):  -2.1424     alpha+bet : -1.9046

[...]

 k-point   247 :       0.5000    0.5000    0.0000
  band No.  band energies     occupation
      1     -17.0196      2.00000
      2     -17.0196      2.00000
      3     -15.9723      2.00000
      4     -15.9723      2.00000
      5      -9.1590      2.00000
      6      -9.1590      2.00000
      7      -5.1101      2.00000
      8      -5.1101      2.00000
      9      -1.0757      0.00000
     10      -1.0757      0.00000
     11       4.6044      0.00000
     12       4.6044      0.00000

 soft charge-density along one line, spin component           1
         0         1         2         3         4         5         6         7         8         9
 total charge-density along one line

------------------------ aborting loop because EDIFF is reached ----------------------------------------

  FORCE on cell =-STRESS in cart. coord.  units (eV):
  Direction    XX          YY          ZZ          XY          YZ          ZX
  Alpha Z     6.18334     6.18334     6.18334
  Ewald    3122.86926  3122.88719 -3660.33641    -0.00000     0.00000     0.00000
  Hartree  3056.70285  3056.70812 -3034.04188    -0.00000    -0.00000    -0.00000
  E(xc)     -58.33710   -58.33719   -60.67611     0.00000    -0.00000    -0.00000
  Local   -6352.02712 -6352.04749  6488.22557    -0.00000     0.00000    -0.00000
  n-local   -13.94330   -13.94667   -12.76551     0.05628    -0.00000    -0.00000
  augment    -1.54141    -1.54139    -1.41412     0.00000    -0.00000     0.00000
  Kinetic   240.07253   240.09354   274.82382    -4.59909     0.00000     0.00000
  Fock        0.00000     0.00000     0.00000     0.00000     0.00000     0.00000
  Total      -0.02096    -0.00055    -0.00132     0.00000     0.00000     0.00000
  in kB      -0.15928    -0.00417    -0.01003     0.00000     0.00000     0.00000

 VOLUME and BASIS-vectors are now :
  energy-cutoff  :     2000.00
  volume of cell :      210.84
      direct lattice vectors                 reciprocal lattice vectors
     4.273769119  0.000000000  0.000000000     0.233985499  0.000000000  0.000000000
     0.000000000  2.467175894  0.000000000     0.000000000  0.405321729  0.000000000
     0.000000000  0.000000000 19.995741568     0.000000000  0.000000000  0.050010648

  length of vectors
     4.273769119  2.467175894 19.995741568     0.233985499  0.405321729  0.050010648

 FORCES acting on ions
    electron-ion (+dipol)            ewald-force                    non-local-force                 convergence-correction
   0.227E-01 0.135E-15 -.425E-11   -.227E-01 0.775E-14 -.154E-17   -.552E-06 -.694E-17 0.000E+00   -.202E-10 -.944E-15 0.962E-12
   -.227E-01 -.648E-14 -.520E-08   0.227E-01 -.519E-14 0.123E-17   0.552E-06 0.139E-16 0.252E-28   0.202E-10 -.193E-14 0.972E-12
   0.227E-01 -.265E-12 -.140E-10   -.227E-01 0.237E-14 -.197E-18   -.552E-06 -.694E-17 0.000E+00   -.202E-10 -.949E-15 0.961E-12
   -.227E-01 0.201E-15 -.517E-08   0.227E-01 -.536E-14 0.500E-18   0.552E-06 0.000E+00 0.000E+00   0.202E-10 -.192E-14 0.951E-12
   -.477E-06 -.271E-12 -.104E-07   -.492E-14 -.424E-15 -.963E-34   0.000E+00 0.000E+00 0.252E-28   0.101E-14 -.574E-14 0.385E-11

 POSITION                                       TOTAL-FORCE (eV/Angst)
     -0.00001      0.00000      0.00000        -0.000000      0.000000     -0.000000
      0.71230      1.23359     -0.00000         0.000000     -0.000000      0.000000
      2.13688      1.23359      0.00000        -0.000000     -0.000000     -0.000000
      2.84919     -0.00000     -0.00000         0.000000      0.000000      0.000000
    total drift:                               -0.000000     -0.000000     -0.000000

  FREE ENERGIE OF THE ION-ELECTRON SYSTEM (eV)
  free  energy   TOTEN  =       -36.92548705 eV

  energy  without entropy=      -36.92535647  energy(sigma->0) =      -36.92542176

 d Force = 0.7712266E-14[-0.665E-14, 0.221E-13]  d Energy = 0.4456524E-10-0.446E-10
 d Force =-0.4222049E-09[-0.422E-09,-0.422E-09]  d Ewald  =-0.4224603E-09 0.455E-12

 Quasi-Newton relaxation of ions (Broydens 2nd method)
  g(Force)  = 0.247E-13   g(Stress)= 0.000E+00

 retain information from N=  1 steps
 eigenvalues of (default step * inverse Hessian matrix)
  average eigenvalue of G=   0.0623
 eigenvalue spectrum of G is  0.0623

 reached required accuracy - stopping structural energy minimisation