 vasp.5.3.5 31Mar14 (build Mar 02 2015 18:14:16) complex

 executed on             LinuxIFC date 2018.08.09  14:20:42

 INCAR:
 POTCAR:   PAW_PBE C 08Apr2002
 POTCAR:   PAW_PBE C 08Apr2002
   VRHFIN =C: s2p2

   TITEL  = PAW_PBE C 08Apr2002
   POMASS =   12.011; ZVAL   =    4.000    mass and valenz
   ENMAX  =  400.000; ENMIN  =  300.000 eV
   QCUT   =   -5.516; QGAM   =   11.032    optimization parameters

   Description
     l     E      TYP  RCUT    TYP  RCUT
     0   .000     23  1.200
     0   .000     23  1.200
     1   .000     23  1.500
     1  2.500     23  1.500
     2   .000      7  1.500

 PAW_PBE C 08Apr2002                    :

 POSCAR: MD-kMC export data
  positions in direct lattice
  velocities in cartesian coordinates
 exchange correlation table for  LEXCH =        8
   RHO(1)=    0.500       N(1)  =     2000
   RHO(2)=  100.500       N(2)  =     4000

 ion  position               nearest neighbor table
   1  0.999  0.000  0.000-   2 1.43   2 1.43   4 1.46
   2  0.167  0.500  0.000-   1 1.43   1 1.43   3 1.46
   3  0.499  0.500  0.000-   4 1.43   4 1.43   2 1.46
   4  0.667  0.000  0.000-   3 1.43   3 1.43   1 1.46

  LATTYP: Found a simple orthorhombic cell.
 ALAT       =     2.4571159957
 B/A-ratio  =     1.7828779851
 C/A-ratio  =     7.9716841854

  Lattice vectors:

 A1 = (   0.0000000000,  -2.4571159957,   0.0000000000)
 A2 = (  -4.3807380157,   0.0000000000,   0.0000000000)
 A3 = (   0.0000000000,   0.0000000000, -19.5873527244)

Analysis of symmetry for initial positions (statically):
 Subroutine PRICEL returns following result:

  LATTYP: Found a base centered orthorhombic cell.
 ALAT       =     2.4571159957
 B/A-ratio  =     1.7828779851
 C/A-ratio  =     7.9716841854

[...]

   2 primitive cells build up your supercell.

 Routine SETGRP: Setting up the symmetry group for a
 simple orthorhombic supercell.

 Subroutine GETGRP returns: Found  8 space group operations
 (whereof  4 operations were pure point group operations)
 out of a pool of  8 trial point group operations.

The static configuration has the point symmetry C_2v.
 The point group associated with its full space group is D_2h.

Analysis of symmetry for dynamics (positions and initial velocities):
 Subroutine PRICEL returns following result:

  LATTYP: Found a base centered orthorhombic cell.
 ALAT       =     2.4571159957
 B/A-ratio  =     1.7828779851
 C/A-ratio  =     7.9716841854

  Lattice vectors:

 A1 = (   2.1903690078,  -1.2285579978,   0.0000000000)
 A2 = (  -2.1903690078,  -1.2285579978,   0.0000000000)
 A3 = (   0.0000000000,   0.0000000000, -19.5873527244)

   2 primitive cells build up your supercell.

 Routine SETGRP: Setting up the symmetry group for a
 simple orthorhombic supercell.

 Subroutine GETGRP returns: Found  8 space group operations
 (whereof  4 operations were pure point group operations)
 out of a pool of  8 trial point group operations.

The dynamic configuration has the point symmetry C_2v.
 The point group associated with its full space group is D_2h.

 KPOINTS: Automatic mesh

Automatic generation of k-mesh.
Space group operators:
 irot       det(A)        alpha          n_x          n_y          n_z        tau_x        tau_y        tau_z
    1     1.000000     0.000000     1.000000     0.000000     0.000000     0.000000     0.000000     0.000000
    2    -1.000000   180.000000     0.000000     0.000000     1.000000     0.000000     0.000000     0.000000
    3     1.000000   180.000000     1.000000     0.000000     0.000000     0.000000     0.000000     0.000000
    4    -1.000000   180.000000     0.000000     1.000000     0.000000     0.000000     0.000000     0.000000
    5    -1.000000     0.000000     1.000000     0.000000     0.000000     0.166667    -0.500000     0.000000
    6     1.000000   180.000000     0.000000     0.000000     1.000000     0.166667    -0.500000     0.000000
    7    -1.000000   180.000000     1.000000     0.000000     0.000000     0.166667    -0.500000     0.000000
    8     1.000000   180.000000     0.000000     1.000000     0.000000     0.166667    -0.500000     0.000000

 Subroutine IBZKPT returns following result:

 Found    247 irreducible k-points:

 Following reciprocal coordinates:
            Coordinates               Weight
  0.000000  0.000000  0.000000      1.000000
  0.041667  0.000000  0.000000      2.000000
  0.083333  0.000000  0.000000      2.000000
  0.125000  0.000000  0.000000      2.000000
  0.166667  0.000000  0.000000      2.000000
  0.208333  0.000000  0.000000      2.000000
  0.250000  0.000000  0.000000      2.000000
  0.291667  0.000000  0.000000      2.000000
  0.333333  0.000000  0.000000      2.000000
  0.375000  0.000000  0.000000      2.000000
  0.416667  0.000000  0.000000      2.000000
  0.458333  0.000000  0.000000      2.000000
  0.500000  0.000000  0.000000      1.000000
  0.000000  0.027778  0.000000      2.000000
  0.041667  0.027778  0.000000      4.000000
  0.083333  0.027778  0.000000      4.000000
  0.125000  0.027778  0.000000      4.000000
  0.166667  0.027778  0.000000      4.000000
  0.208333  0.027778  0.000000      4.000000
  0.250000  0.027778  0.000000      4.000000
  0.291667  0.027778  0.000000      4.000000
  0.333333  0.027778  0.000000      4.000000
  0.375000  0.027778  0.000000      4.000000
  0.416667  0.027778  0.000000      4.000000
  0.458333  0.027778  0.000000      4.000000
  0.500000  0.027778  0.000000      2.000000
  0.000000  0.055556  0.000000      2.000000
  0.041667  0.055556  0.000000      4.000000
  0.083333  0.055556  0.000000      4.000000
  0.125000  0.055556  0.000000      4.000000
  0.166667  0.055556  0.000000      4.000000
  0.208333  0.055556  0.000000      4.000000
  0.250000  0.055556  0.000000      4.000000
  0.291667  0.055556  0.000000      4.000000
  0.333333  0.055556  0.000000      4.000000
  0.375000  0.055556  0.000000      4.000000
  0.416667  0.055556  0.000000      4.000000
  0.458333  0.055556  0.000000      4.000000
  0.500000  0.055556  0.000000      2.000000
  0.000000  0.083333  0.000000      2.000000
  0.041667  0.083333  0.000000      4.000000
  0.083333  0.083333  0.000000      4.000000
  0.125000  0.083333  0.000000      4.000000
  0.166667  0.083333  0.000000      4.000000
  0.208333  0.083333  0.000000      4.000000
  0.250000  0.083333  0.000000      4.000000
  0.291667  0.083333  0.000000      4.000000
  0.333333  0.083333  0.000000      4.000000
  0.375000  0.083333  0.000000      4.000000
  0.416667  0.083333  0.000000      4.000000
  0.458333  0.083333  0.000000      4.000000
  0.500000  0.083333  0.000000      2.000000
  0.000000  0.111111  0.000000      2.000000
  0.041667  0.111111  0.000000      4.000000
  0.083333  0.111111  0.000000      4.000000
  0.125000  0.111111  0.000000      4.000000
  0.166667  0.111111  0.000000      4.000000
  0.208333  0.111111  0.000000      4.000000
  0.250000  0.111111  0.000000      4.000000
  0.291667  0.111111  0.000000      4.000000
[...]
  0.458333  0.472222  0.000000      4.000000
  0.500000  0.472222  0.000000      2.000000
  0.000000  0.500000  0.000000      1.000000
  0.041667  0.500000  0.000000      2.000000
  0.083333  0.500000  0.000000      2.000000
  0.125000  0.500000  0.000000      2.000000
  0.166667  0.500000  0.000000      2.000000
  0.208333  0.500000  0.000000      2.000000
  0.250000  0.500000  0.000000      2.000000
  0.291667  0.500000  0.000000      2.000000
  0.333333  0.500000  0.000000      2.000000
  0.375000  0.500000  0.000000      2.000000
  0.416667  0.500000  0.000000      2.000000
  0.458333  0.500000  0.000000      2.000000
  0.500000  0.500000  0.000000      1.000000

 Following cartesian coordinates:
            Coordinates               Weight
  0.000000  0.000000  0.000000      1.000000
  0.009511  0.000000  0.000000      2.000000
  0.019023  0.000000  0.000000      2.000000
  0.028534  0.000000  0.000000      2.000000
  0.038045  0.000000  0.000000      2.000000
  0.047557  0.000000  0.000000      2.000000
  0.057068  0.000000  0.000000      2.000000
  0.066579  0.000000  0.000000      2.000000
  0.076091  0.000000  0.000000      2.000000
  0.085602  0.000000  0.000000      2.000000
  0.095113  0.000000  0.000000      2.000000
  0.104625  0.000000  0.000000      2.000000
  0.114136  0.000000  0.000000      1.000000
  0.000000  0.011305  0.000000      2.000000
  0.009511  0.011305  0.000000      4.000000
  0.019023  0.011305  0.000000      4.000000
  0.028534  0.011305  0.000000      4.000000
  0.038045  0.011305  0.000000      4.000000
  0.047557  0.011305  0.000000      4.000000
  0.057068  0.011305  0.000000      4.000000
  0.066579  0.011305  0.000000      4.000000
  0.076091  0.011305  0.000000      4.000000
  0.085602  0.011305  0.000000      4.000000
  0.095113  0.011305  0.000000      4.000000
  0.104625  0.011305  0.000000      4.000000
  0.114136  0.011305  0.000000      2.000000
  0.000000  0.022610  0.000000      2.000000
  0.009511  0.022610  0.000000      4.000000
  0.019023  0.022610  0.000000      4.000000
  0.028534  0.022610  0.000000      4.000000
  0.038045  0.022610  0.000000      4.000000
  0.047557  0.022610  0.000000      4.000000
  0.057068  0.022610  0.000000      4.000000
  0.066579  0.022610  0.000000      4.000000
  0.076091  0.022610  0.000000      4.000000
  0.085602  0.022610  0.000000      4.000000
  0.095113  0.022610  0.000000      4.000000
  0.104625  0.022610  0.000000      4.000000
  0.114136  0.022610  0.000000      2.000000
  0.000000  0.033915  0.000000      2.000000
  0.009511  0.033915  0.000000      4.000000
  0.019023  0.033915  0.000000      4.000000
  0.028534  0.033915  0.000000      4.000000
  0.038045  0.033915  0.000000      4.000000
  0.047557  0.033915  0.000000      4.000000
  0.057068  0.033915  0.000000      4.000000
  0.066579  0.033915  0.000000      4.000000
  0.076091  0.033915  0.000000      4.000000
  0.085602  0.033915  0.000000      4.000000
  0.095113  0.033915  0.000000      4.000000
  0.104625  0.033915  0.000000      4.000000
  0.114136  0.033915  0.000000      2.000000
  0.000000  0.045220  0.000000      2.000000
  0.009511  0.045220  0.000000      4.000000
  0.019023  0.045220  0.000000      4.000000
  0.028534  0.045220  0.000000      4.000000
  0.038045  0.045220  0.000000      4.000000
  0.047557  0.045220  0.000000      4.000000
  0.057068  0.045220  0.000000      4.000000
  0.066579  0.045220  0.000000      4.000000
[...]
  0.104625  0.192186  0.000000      4.000000
  0.114136  0.192186  0.000000      2.000000
  0.000000  0.203491  0.000000      1.000000
  0.009511  0.203491  0.000000      2.000000
  0.019023  0.203491  0.000000      2.000000
  0.028534  0.203491  0.000000      2.000000
  0.038045  0.203491  0.000000      2.000000
  0.047557  0.203491  0.000000      2.000000
  0.057068  0.203491  0.000000      2.000000
  0.066579  0.203491  0.000000      2.000000
  0.076091  0.203491  0.000000      2.000000
  0.085602  0.203491  0.000000      2.000000
  0.095113  0.203491  0.000000      2.000000
  0.104625  0.203491  0.000000      2.000000
  0.114136  0.203491  0.000000      1.000000

 I would recommend the setting:
   dimension x,y,z NGX =    64 NGY =   36 NGZ =  286
[...]
 k-point ** :   0.3333 0.3056 0.0000  plane waves:   42865
 k-point ** :   0.3750 0.3056 0.0000  plane waves:   42878
 k-point ** :   0.4167 0.3056 0.0000  plane waves:   42888
 k-point ** :   0.4583 0.3056 0.0000  plane waves:   42882
 k-point ** :   0.5000 0.3056 0.0000  plane waves:   42888
 k-point ** :   0.0000 0.3333 0.0000  plane waves:   42814
 k-point ** :   0.0417 0.3333 0.0000  plane waves:   42820
 k-point ** :   0.0833 0.3333 0.0000  plane waves:   42840
[...]
 k-point ** :   0.4583 0.4722 0.0000  plane waves:   42976
 k-point ** :   0.5000 0.4722 0.0000  plane waves:   42940
 k-point ** :   0.0000 0.5000 0.0000  plane waves:   42842
 k-point ** :   0.0417 0.5000 0.0000  plane waves:   42824
 k-point ** :   0.0833 0.5000 0.0000  plane waves:   42824
 k-point ** :   0.1250 0.5000 0.0000  plane waves:   42872
 k-point ** :   0.1667 0.5000 0.0000  plane waves:   42860
 k-point ** :   0.2083 0.5000 0.0000  plane waves:   42886
 k-point ** :   0.2500 0.5000 0.0000  plane waves:   42874
 k-point ** :   0.2917 0.5000 0.0000  plane waves:   42930
 k-point ** :   0.3333 0.5000 0.0000  plane waves:   42920
 k-point ** :   0.3750 0.5000 0.0000  plane waves:   42914
 k-point ** :   0.4167 0.5000 0.0000  plane waves:   42940
 k-point ** :   0.4583 0.5000 0.0000  plane waves:   42952
 k-point ** :   0.5000 0.5000 0.0000  plane waves:   42968

 maximum and minimum number of plane-waves per node :     21500    21320

 maximum number of plane-waves:     42976
 maximum index in each direction:
   IXMAX=   15   IYMAX=    8   IZMAX=   71
   IXMIN=  -16   IYMIN=   -9   IZMIN=  -71

 NGX is ok and might be reduce to  64
 NGY is ok and might be reduce to  36
 NGZ is ok and might be reduce to 286

 parallel 3D FFT for wavefunctions:
    minimum data exchange during FFTs selected (reduces bandwidth)
 parallel 3D FFT for charge:
    minimum data exchange during FFTs selected (reduces bandwidth)

 Broyden mixing: mesh for mixing (old mesh)
   NGX = 31   NGY = 17   NGZ =143
  (NGX  =128   NGY  = 72   NGZ  =576)
  gives a total of  75361 points

 initial charge density was supplied:
 charge density of overlapping atoms calculated
 number of electron      16.0000000 magnetization
 keeping initial charge density in first step

 Maximum index for augmentation-charges         4569 (set IRDMAX)

 First call to EWALD:  gamma=   0.298
 Maximum number of real-space cells 4x 6x 1
 Maximum number of reciprocal cells 2x 1x 8

 FEWALD executed in parallel

----------------------------------------- Iteration    1(   1)  ---------------------------------------

 eigenvalue-minimisations  :  5928
 total energy-change (2. order) : 0.1870435E+03  (-0.1060728E+04)
 number of electron      16.0000000 magnetization
 augmentation part       16.0000000 magnetization

 Free energy of the ion-electron system (eV)
  alpha Z        PSCENC =         6.18334092
  Ewald energy   TEWEN  =      2448.46496402
  -Hartree energ DENC   =     -2877.98843312
  -exchange      EXHF   =         0.00000000
  -V(xc)+E(xc)   XCENC  =        54.81505760
  PAW double counting   =       151.32577238     -155.92769107
  entropy T*S    EENTRO =        -0.00093159
  eigenvalues    EBANDS =       -28.45207511
  atomic energy  EATOM  =       588.62352690
  free energy    TOTEN  =       187.04353094 eV

  energy without entropy =      187.04446253  energy(sigma->0) =      187.04399673

[...]

 eigenvalue-minimisations  : 10452
 total energy-change (2. order) :-0.1958762E+03  (-0.1731581E+03)
 number of electron      16.0000000 magnetization
 augmentation part       16.0000000 magnetization

[...]

 Broyden mixing:
  rms(total) = 0.70648E+00    rms(broyden)= 0.70648E+00
  rms(prec ) = 0.76980E+00
  weight for this iteration     100.00

[...]

 eigenvalues of (default mixing * dielectric matrix)
  average eigenvalue GAMMA=   2.3252
  2.3252

[...]

WARNING in EDDRMM: call to ZHEGV failed, returncode =   6  3  1
WARNING in EDDRMM: call to ZHEGV failed, returncode =   6  3  1
WARNING in EDDRMM: call to ZHEGV failed, returncode =   6  3  1
WARNING in EDDRMM: call to ZHEGV failed, returncode =   6  3  1

[...]

 average (electrostatic) potential at core
  the test charge radii are     0.6991
  (the norm of the test charge is              1.0000)
       1 -58.3157       2 -58.3157       3 -58.3157       4 -58.3157

 E-fermi :  -2.8246     XC(G=0):  -2.1781     alpha+bet : -1.9046

 k-point     1 :       0.0000    0.0000    0.0000
  band No.  band energies     occupation
      1     -22.0796      2.00000
      2     -17.2590      2.00000
      3     -15.8316      2.00000
      4     -10.2246      2.00000
      5      -8.8026      2.00000
      6      -6.0077      2.00000
      7      -5.7269      2.00000
      8      -5.3368      2.00000
      9      -1.1865      0.00000
     10       0.5449      0.00000
     11       1.3429      0.00000
     12       1.7350      0.00000

[...]

 soft charge-density along one line, spin component           1
         0         1         2         3         4         5         6         7         8         9
 total charge-density along one line

------------------------ aborting loop because EDIFF is reached ----------------------------------------

  FORCE on cell =-STRESS in cart. coord.  units (eV):
  Direction    XX          YY          ZZ          XY          YZ          ZX
  Alpha Z     6.18334     6.18334     6.18334
  Ewald    2978.67238  2982.13976 -3512.34737    -0.00000     0.00000     0.00000
  Hartree  2919.03302  2920.21755 -2896.49810    -0.00000    -0.00000    -0.00000
  E(xc)     -57.95548   -57.98351   -60.29079    -0.00000    -0.00000    -0.00000
  Local   -6071.24989 -6075.35921  6203.60062    -0.00000     0.00000     0.00000
  n-local   -13.00432   -13.81671   -12.47863     0.06782     0.00000     0.00000
  augment    -1.47773    -1.48007    -1.37136     0.00000     0.00000     0.00000
  Kinetic   234.35332   240.09909   273.20095    -4.45201     0.00000    -0.00000
  Fock        0.00000     0.00000     0.00000     0.00000     0.00000     0.00000
  Total      -5.44537     0.00024    -0.00134     0.00000     0.00000     0.00000
  in kB     -41.37986     0.00183    -0.01018     0.00000     0.00000     0.00000

 VOLUME and BASIS-vectors are now :
  energy-cutoff  :     2000.00
  volume of cell :      210.84
      direct lattice vectors                 reciprocal lattice vectors
     4.380738016  0.000000000  0.000000000     0.228272039  0.000000000  0.000000000
     0.000000000  2.457115996  0.000000000     0.000000000  0.406981193  0.000000000
     0.000000000  0.000000000 19.587352724     0.000000000  0.000000000  0.051053351

[...]

 FORCES acting on ions
    electron-ion (+dipol)            ewald-force                    non-local-force                 convergence-correction
   0.538E+01 0.405E-15 -.249E-08   -.538E+01 0.389E-14 0.223E-17   -.515E-02 0.139E-16 0.000E+00   -.438E-07 -.131E-15 -.816E-13
   -.538E+01 -.325E-14 -.109E-07   0.538E+01 -.693E-14 0.538E-33   0.515E-02 -.347E-17 0.000E+00   0.438E-07 -.790E-15 -.814E-13
   0.538E+01 -.156E-12 -.247E-08   -.538E+01 0.300E-14 -.223E-17   -.515E-02 0.139E-16 0.000E+00   -.438E-07 0.430E-16 -.817E-13
   -.538E+01 -.836E-16 -.109E-07   0.538E+01 -.782E-14 -.539E-33   0.515E-02 -.104E-16 0.000E+00   0.438E-07 -.969E-15 -.814E-13
   -.945E-06 -.159E-12 -.268E-07   -.266E-14 -.786E-14 -.153E-33   0.347E-17 0.139E-16 0.000E+00   -.709E-13 -.185E-14 -.326E-12

 POSITION                                       TOTAL-FORCE (eV/Angst)
      4.37837      0.00000      0.00000        -0.000325      0.000000     -0.000000
      0.73249      1.22856      0.00000         0.000325     -0.000000      0.000000
      2.18800      1.22856      0.00000        -0.000325      0.000000     -0.000000
      2.92286      0.00000      0.00000         0.000325     -0.000000      0.000000
    total drift:                               -0.000001     -0.000000     -0.000000

  FREE ENERGIE OF THE ION-ELECTRON SYSTEM (eV)
  free  energy   TOTEN  =       -36.85760974 eV

  energy  without entropy=      -36.85760972  energy(sigma->0) =      -36.85760973

 Quasi-Newton relaxation of ions (Broydens 2nd method)
  g(Force)  = 0.204E-07   g(Stress)= 0.000E+00

 Reset! Starting new Quasi-Newton update for ions

[...]

WARNING in EDDRMM: call to ZHEGV failed, returncode =   6  3  1

[...]

 d Force =-0.2740235E-07[-0.752E-07, 0.204E-07]  d Energy =-0.3099683E-07 0.359E-08
 d Force = 0.3370057E-03[ 0.337E-03, 0.337E-03]  d Ewald  = 0.3370057E-03-0.318E-11

[...]

 retain information from N=  1 steps
 eigenvalues of (default step * inverse Hessian matrix)
  average eigenvalue of G=   0.2132
 eigenvalue spectrum of G is  0.2132

[...]

 d Force = 0.2935612E-07[-0.434E-09, 0.591E-07]  d Energy = 0.3239040E-07-0.303E-08
 d Force =-0.2651375E-03[-0.265E-03,-0.265E-03]  d Ewald  =-0.2651375E-03 0.136E-11

[...]

 eigenvalue-minimisations  :  4892
 total energy-change (2. order) : 0.4699814E-09  ( 0.5276767E-09)
 number of electron      16.0000000 magnetization
 augmentation part        0.3725096 magnetization

[...]

 eigenvalue-minimisations  :  3145
 total energy-change (2. order) :-0.4348522E-09  ( 0.1599338E-12)
 number of electron      16.0000000 magnetization
 augmentation part        0.3725096 magnetization

[...]

 d Force =-0.4447116E-12[-0.405E-11, 0.316E-11]  d Energy = 0.3706191E-10-0.375E-10
 d Force = 0.1931163E-05[ 0.193E-05, 0.193E-05]  d Ewald  = 0.1931164E-05-0.455E-12

[...]

 d Force = 0.1319948E-11[ 0.366E-12, 0.227E-11]  d Energy = 0.7958079E-12 0.526E-12
 d Force =-0.1084760E-05[-0.108E-05,-0.108E-05]  d Ewald  =-0.1084760E-05 0.455E-12

[...]

 d Force = 0.7088093E-13[ 0.714E-13, 0.703E-13]  d Energy =-0.3261675E-09 0.326E-09
 d Force =-0.2082723E-06[-0.208E-06,-0.208E-06]  d Ewald  =-0.2082725E-06 0.000E+00

[...]

 d Force =-0.7613694E-10[-0.148E-09,-0.451E-11]  d Energy =-0.2164597E-09 0.140E-09
 d Force = 0.1314004E-04[ 0.131E-04, 0.131E-04]  d Ewald  = 0.1314004E-04 0.000E+00

[...]

 d Force = 0.7967643E-10[ 0.694E-11, 0.152E-09]  d Energy = 0.3595915E-09-0.280E-09
 d Force =-0.1355351E-04[-0.136E-04,-0.136E-04]  d Ewald  =-0.1355351E-04 0.000E+00

[...]

 eigenvalue-minimisations  :  1225
 total energy-change (2. order) : 0.1466560E-10  (-0.8410556E-13)
 number of electron      16.0000000 magnetization
 augmentation part        0.3725096 magnetization

[...]

 d Force =-0.8970539E-13[-0.510E-12, 0.331E-12]  d Energy = 0.3003606E-09-0.300E-09
 d Force =-0.6463125E-06[-0.646E-06,-0.646E-06]  d Ewald  =-0.6463129E-06 0.455E-12

[...]

 FEWALD executed in parallel

[...]

 eigenvalue-minimisations  :   315
 total energy-change (2. order) :-0.5347829E-09  (-0.1342959E-13)
 number of electron      16.0000000 magnetization
 augmentation part        0.3725096 magnetization

[...]

 eigenvalue-minimisations  :   330
 total energy-change (2. order) : 0.4440608E-09  ( 0.6949174E-14)
 number of electron      16.0000000 magnetization
 augmentation part        0.3725096 magnetization

 Broyden mixing:
  rms(total) = 0.20828E-09    rms(broyden)= 0.20799E-09
  rms(prec ) = 0.23110E-09
  weight for this iteration     100.00

 eigenvalues of (default mixing * dielectric matrix)
  average eigenvalue GAMMA=   2.0149
  2.7295  2.5019  0.8134

[...]

----------------------------------------- Iteration   10(   5)  ---------------------------------------

 eigenvalue-minimisations  :   836
 total energy-change (2. order) :-0.2762590E-10  ( 0.1254963E-13)
 number of electron      16.0000000 magnetization
 augmentation part        0.3725096 magnetization

 Free energy of the ion-electron system (eV)
  alpha Z        PSCENC =         6.18334092
  Ewald energy   TEWEN  =      2448.46489218
  -Hartree energ DENC   =     -2942.75241137
  -exchange      EXHF   =         0.00000000
  -V(xc)+E(xc)   XCENC  =        57.13887942
  PAW double counting   =       268.76116505     -273.87239536
  entropy T*S    EENTRO =        -0.00000002
  eigenvalues    EBANDS =      -189.40460748
  atomic energy  EATOM  =       588.62352690
  free energy    TOTEN  =       -36.85760974 eV

  energy without entropy =      -36.85760972  energy(sigma->0) =      -36.85760973

 average (electrostatic) potential at core
  the test charge radii are     0.6991
  (the norm of the test charge is              1.0000)
       1 -58.3157       2 -58.3157       3 -58.3157       4 -58.3157

 E-fermi :  -2.8246     XC(G=0):  -2.1775     alpha+bet : -1.9046

[...]

 k-point   247 :       0.5000    0.5000    0.0000
  band No.  band energies     occupation
      1     -16.8441      2.00000
      2     -16.8441      2.00000
      3     -15.8568      2.00000
      4     -15.8568      2.00000
      5      -9.3035      2.00000
      6      -9.3035      2.00000
      7      -5.0113      2.00000
      8      -5.0113      2.00000
      9      -1.1524      0.00000
     10      -1.1524      0.00000
     11       3.8912      0.00000
     12       3.8912      0.00000

 soft charge-density along one line, spin component           1
         0         1         2         3         4         5         6         7         8         9
 total charge-density along one line

------------------------ aborting loop because EDIFF is reached ----------------------------------------

  FORCE on cell =-STRESS in cart. coord.  units (eV):
  Direction    XX          YY          ZZ          XY          YZ          ZX
  Alpha Z     6.18334     6.18334     6.18334
  Ewald    2978.67522  2982.13684 -3512.34737    -0.00000     0.00000     0.00000
  Hartree  2919.03341  2920.21711 -2896.49811    -0.00000    -0.00000    -0.00000
  E(xc)     -57.95547   -57.98352   -60.29078     0.00000    -0.00000    -0.00000
  Local   -6071.25263 -6075.35639  6203.60064    -0.00000     0.00000    -0.00000
  n-local   -13.00430   -13.81673   -12.47863     0.06782     0.00000    -0.00000
  augment    -1.47773    -1.48006    -1.37136    -0.00000     0.00000    -0.00000
  Kinetic   234.35285   240.09952   273.20093    -4.45200    -0.00000     0.00000
  Fock        0.00000     0.00000     0.00000     0.00000     0.00000     0.00000
  Total      -5.44530     0.00010    -0.00134     0.00000     0.00000     0.00000
  in kB     -41.37933     0.00077    -0.01015     0.00000     0.00000     0.00000

 VOLUME and BASIS-vectors are now :
  energy-cutoff  :     2000.00
  volume of cell :      210.84
      direct lattice vectors                 reciprocal lattice vectors
     4.380738016  0.000000000  0.000000000     0.228272039  0.000000000  0.000000000
     0.000000000  2.457115996  0.000000000     0.000000000  0.406981193  0.000000000
     0.000000000  0.000000000 19.587352724     0.000000000  0.000000000  0.051053351

  length of vectors
     4.380738016  2.457115996 19.587352724     0.228272039  0.406981193  0.051053351

 FORCES acting on ions
    electron-ion (+dipol)            ewald-force                    non-local-force                 convergence-correction
   0.538E+01 0.774E-16 -.247E-08   -.538E+01 0.307E-16 -.204E-17   -.503E-02 -.347E-17 0.000E+00   -.412E-09 0.115E-14 -.233E-11
   -.538E+01 0.202E-12 -.109E-07   0.538E+01 -.224E-14 0.204E-17   0.503E-02 0.000E+00 0.000E+00   0.412E-09 -.216E-14 -.234E-11
   0.538E+01 -.196E-12 -.246E-08   -.538E+01 -.169E-14 -.569E-18   -.503E-02 -.347E-17 0.000E+00   -.412E-09 0.878E-15 -.232E-11
   -.538E+01 0.166E-15 -.109E-07   0.538E+01 -.396E-14 0.569E-18   0.503E-02 0.000E+00 0.000E+00   0.412E-09 -.192E-14 -.232E-11
   -.945E-06 0.708E-14 -.268E-07   -.178E-14 -.786E-14 0.000E+00   0.000E+00 -.694E-17 0.000E+00   0.215E-14 -.205E-14 -.931E-11

 POSITION                                       TOTAL-FORCE (eV/Angst)
      4.37836     -0.00000      0.00000         0.000000     -0.000000     -0.000000
      0.73250      1.22856     -0.00000        -0.000000      0.000000      0.000000
      2.18799      1.22856      0.00000         0.000000      0.000000     -0.000000
      2.92287      0.00000     -0.00000        -0.000000     -0.000000      0.000000
    total drift:                               -0.000001     -0.000000     -0.000000

  FREE ENERGIE OF THE ION-ELECTRON SYSTEM (eV)
  free  energy   TOTEN  =       -36.85760974 eV

  energy  without entropy=      -36.85760972  energy(sigma->0) =      -36.85760973

 d Force = 0.1487184E-12[-0.121E-13, 0.310E-12]  d Energy =-0.4322374E-09 0.432E-09
 d Force = 0.3920950E-06[ 0.392E-06, 0.392E-06]  d Ewald  = 0.3920950E-06 0.000E+00

 Quasi-Newton relaxation of ions (Broydens 2nd method)
  g(Force)  = 0.530E-14   g(Stress)= 0.000E+00

 retain information from N=  1 steps
 eigenvalues of (default step * inverse Hessian matrix)
  average eigenvalue of G=   0.0857
 eigenvalue spectrum of G is  0.0857

 reached required accuracy - stopping structural energy minimisation