 vasp.5.3.5 31Mar14 (build Mar 02 2015 18:14:16) complex

 executed on             LinuxIFC date 2018.08.09  20:52:50

 INCAR:
 POTCAR:   PAW_PBE C 08Apr2002
 POTCAR:   PAW_PBE C 08Apr2002
   VRHFIN =C: s2p2

   TITEL  = PAW_PBE C 08Apr2002
   POMASS =   12.011; ZVAL   =    4.000    mass and valenz
   ENMAX  =  400.000; ENMIN  =  300.000 eV
   QCUT   =   -5.516; QGAM   =   11.032    optimization parameters

   Description
     l     E      TYP  RCUT    TYP  RCUT
     0   .000     23  1.200
     0   .000     23  1.200
     1   .000     23  1.500
     1  2.500     23  1.500
     2   .000      7  1.500

 PAW_PBE C 08Apr2002                    :

 POSCAR: MD-kMC export data
  positions in direct lattice
  velocities in cartesian coordinates
 exchange correlation table for  LEXCH =        8
   RHO(1)=    0.500       N(1)  =     2000
   RHO(2)=  100.500       N(2)  =     4000

 ion  position               nearest neighbor table
   1  0.001  0.000  0.000-   4 1.42   2 1.44   2 1.44
   2  0.166  0.500  0.000-   3 1.42   1 1.44   1 1.44
   3  0.501  0.500  0.000-   2 1.42   4 1.44   4 1.44
   4  0.666  0.000  0.000-   1 1.42   3 1.44   3 1.44

  LATTYP: Found a simple orthorhombic cell.
 ALAT       =     2.5166477175
 B/A-ratio  =     1.6921637751
 C/A-ratio  =     7.8169801730

  Lattice vectors:

 A1 = (   0.0000000000,  -2.5166477175,   0.0000000000)
 A2 = (  -4.2585801023,   0.0000000000,   0.0000000000)
 A3 = (   0.0000000000,   0.0000000000, -19.6725853102)

Analysis of symmetry for initial positions (statically):
 Subroutine PRICEL returns following result:

  LATTYP: Found a base centered orthorhombic cell.
 ALAT       =     2.5166477175
 B/A-ratio  =     1.6921637751
 C/A-ratio  =     7.8169801730

[...]

   2 primitive cells build up your supercell.

 Routine SETGRP: Setting up the symmetry group for a
 simple orthorhombic supercell.

 Subroutine GETGRP returns: Found  8 space group operations
 (whereof  4 operations were pure point group operations)
 out of a pool of  8 trial point group operations.

The static configuration has the point symmetry C_2v.
 The point group associated with its full space group is D_2h.

Analysis of symmetry for dynamics (positions and initial velocities):
 Subroutine PRICEL returns following result:

  LATTYP: Found a base centered orthorhombic cell.
 ALAT       =     2.5166477175
 B/A-ratio  =     1.6921637751
 C/A-ratio  =     7.8169801730

  Lattice vectors:

 A1 = (   2.1292900511,  -1.2583238588,   0.0000000000)
 A2 = (  -2.1292900511,  -1.2583238588,   0.0000000000)
 A3 = (   0.0000000000,   0.0000000000, -19.6725853102)

   2 primitive cells build up your supercell.

 Routine SETGRP: Setting up the symmetry group for a
 simple orthorhombic supercell.

 Subroutine GETGRP returns: Found  8 space group operations
 (whereof  4 operations were pure point group operations)
 out of a pool of  8 trial point group operations.

The dynamic configuration has the point symmetry C_2v.
 The point group associated with its full space group is D_2h.

 KPOINTS: Automatic mesh

Automatic generation of k-mesh.
Space group operators:
 irot       det(A)        alpha          n_x          n_y          n_z        tau_x        tau_y        tau_z
    1     1.000000     0.000001     1.000000     0.000000     0.000000     0.000000     0.000000     0.000000
    2    -1.000000   180.000000     0.000000     0.000000     1.000000     0.000000     0.000000     0.000000
    3     1.000000   179.999999     1.000000     0.000000     0.000000     0.000000     0.000000     0.000000
    4    -1.000000   180.000000     0.000000     1.000000     0.000000     0.000000     0.000000     0.000000
    5    -1.000000     0.000001     1.000000     0.000000     0.000000     0.166667    -0.500000     0.000000
    6     1.000000   180.000000     0.000000     0.000000     1.000000     0.166667    -0.500000     0.000000
    7    -1.000000   179.999999     1.000000     0.000000     0.000000     0.166667    -0.500000     0.000000
    8     1.000000   180.000000     0.000000     1.000000     0.000000     0.166667    -0.500000     0.000000

 Subroutine IBZKPT returns following result:

 Found    247 irreducible k-points:

 Following reciprocal coordinates:
            Coordinates               Weight
  0.000000  0.000000  0.000000      1.000000
  0.041667  0.000000  0.000000      2.000000
  0.083333  0.000000  0.000000      2.000000
  0.125000  0.000000  0.000000      2.000000
  0.166667  0.000000  0.000000      2.000000
  0.208333  0.000000  0.000000      2.000000
  0.250000  0.000000  0.000000      2.000000
  0.291667  0.000000  0.000000      2.000000
  0.333333  0.000000  0.000000      2.000000
  0.375000  0.000000  0.000000      2.000000
  0.416667  0.000000  0.000000      2.000000
  0.458333  0.000000  0.000000      2.000000
  0.500000  0.000000  0.000000      1.000000
  0.000000  0.027778  0.000000      2.000000
  0.041667  0.027778  0.000000      4.000000
  0.083333  0.027778  0.000000      4.000000
  0.125000  0.027778  0.000000      4.000000
  0.166667  0.027778  0.000000      4.000000
  0.208333  0.027778  0.000000      4.000000
  0.250000  0.027778  0.000000      4.000000
  0.291667  0.027778  0.000000      4.000000
  0.333333  0.027778  0.000000      4.000000
  0.375000  0.027778  0.000000      4.000000
  0.416667  0.027778  0.000000      4.000000
  0.458333  0.027778  0.000000      4.000000
  0.500000  0.027778  0.000000      2.000000
  0.000000  0.055556  0.000000      2.000000
  0.041667  0.055556  0.000000      4.000000
  0.083333  0.055556  0.000000      4.000000
  0.125000  0.055556  0.000000      4.000000
  0.166667  0.055556  0.000000      4.000000
  0.208333  0.055556  0.000000      4.000000
  0.250000  0.055556  0.000000      4.000000
  0.291667  0.055556  0.000000      4.000000
  0.333333  0.055556  0.000000      4.000000
  0.375000  0.055556  0.000000      4.000000
  0.416667  0.055556  0.000000      4.000000
  0.458333  0.055556  0.000000      4.000000
  0.500000  0.055556  0.000000      2.000000
  0.000000  0.083333  0.000000      2.000000
  0.041667  0.083333  0.000000      4.000000
  0.083333  0.083333  0.000000      4.000000
  0.125000  0.083333  0.000000      4.000000
  0.166667  0.083333  0.000000      4.000000
  0.208333  0.083333  0.000000      4.000000
  0.250000  0.083333  0.000000      4.000000
  0.291667  0.083333  0.000000      4.000000
  0.333333  0.083333  0.000000      4.000000
  0.375000  0.083333  0.000000      4.000000
  0.416667  0.083333  0.000000      4.000000
  0.458333  0.083333  0.000000      4.000000
  0.500000  0.083333  0.000000      2.000000
  0.000000  0.111111  0.000000      2.000000
  0.041667  0.111111  0.000000      4.000000
  0.083333  0.111111  0.000000      4.000000
  0.125000  0.111111  0.000000      4.000000
  0.166667  0.111111  0.000000      4.000000
  0.208333  0.111111  0.000000      4.000000
  0.250000  0.111111  0.000000      4.000000
  0.291667  0.111111  0.000000      4.000000
[...]
  0.458333  0.472222  0.000000      4.000000
  0.500000  0.472222  0.000000      2.000000
  0.000000  0.500000  0.000000      1.000000
  0.041667  0.500000  0.000000      2.000000
  0.083333  0.500000  0.000000      2.000000
  0.125000  0.500000  0.000000      2.000000
  0.166667  0.500000  0.000000      2.000000
  0.208333  0.500000  0.000000      2.000000
  0.250000  0.500000  0.000000      2.000000
  0.291667  0.500000  0.000000      2.000000
  0.333333  0.500000  0.000000      2.000000
  0.375000  0.500000  0.000000      2.000000
  0.416667  0.500000  0.000000      2.000000
  0.458333  0.500000  0.000000      2.000000
  0.500000  0.500000  0.000000      1.000000

 Following cartesian coordinates:
            Coordinates               Weight
  0.000000  0.000000  0.000000      1.000000
  0.009784  0.000000  0.000000      2.000000
  0.019568  0.000000  0.000000      2.000000
  0.029353  0.000000  0.000000      2.000000
  0.039137  0.000000  0.000000      2.000000
  0.048921  0.000000  0.000000      2.000000
  0.058705  0.000000  0.000000      2.000000
  0.068489  0.000000  0.000000      2.000000
  0.078273  0.000000  0.000000      2.000000
  0.088058  0.000000  0.000000      2.000000
  0.097842  0.000000  0.000000      2.000000
  0.107626  0.000000  0.000000      2.000000
  0.117410  0.000000  0.000000      1.000000
  0.000000  0.011038  0.000000      2.000000
  0.009784  0.011038  0.000000      4.000000
  0.019568  0.011038  0.000000      4.000000
  0.029353  0.011038  0.000000      4.000000
  0.039137  0.011038  0.000000      4.000000
  0.048921  0.011038  0.000000      4.000000
  0.058705  0.011038  0.000000      4.000000
  0.068489  0.011038  0.000000      4.000000
  0.078273  0.011038  0.000000      4.000000
  0.088058  0.011038  0.000000      4.000000
  0.097842  0.011038  0.000000      4.000000
  0.107626  0.011038  0.000000      4.000000
  0.117410  0.011038  0.000000      2.000000
  0.000000  0.022075  0.000000      2.000000
  0.009784  0.022075  0.000000      4.000000
  0.019568  0.022075  0.000000      4.000000
  0.029353  0.022075  0.000000      4.000000
  0.039137  0.022075  0.000000      4.000000
  0.048921  0.022075  0.000000      4.000000
  0.058705  0.022075  0.000000      4.000000
  0.068489  0.022075  0.000000      4.000000
  0.078273  0.022075  0.000000      4.000000
  0.088058  0.022075  0.000000      4.000000
  0.097842  0.022075  0.000000      4.000000
  0.107626  0.022075  0.000000      4.000000
  0.117410  0.022075  0.000000      2.000000
  0.000000  0.033113  0.000000      2.000000
  0.009784  0.033113  0.000000      4.000000
  0.019568  0.033113  0.000000      4.000000
  0.029353  0.033113  0.000000      4.000000
  0.039137  0.033113  0.000000      4.000000
  0.048921  0.033113  0.000000      4.000000
  0.058705  0.033113  0.000000      4.000000
  0.068489  0.033113  0.000000      4.000000
  0.078273  0.033113  0.000000      4.000000
  0.088058  0.033113  0.000000      4.000000
  0.097842  0.033113  0.000000      4.000000
  0.107626  0.033113  0.000000      4.000000
  0.117410  0.033113  0.000000      2.000000
  0.000000  0.044150  0.000000      2.000000
  0.009784  0.044150  0.000000      4.000000
  0.019568  0.044150  0.000000      4.000000
  0.029353  0.044150  0.000000      4.000000
  0.039137  0.044150  0.000000      4.000000
  0.048921  0.044150  0.000000      4.000000
  0.058705  0.044150  0.000000      4.000000
  0.068489  0.044150  0.000000      4.000000
[...]
  0.107626  0.187639  0.000000      4.000000
  0.117410  0.187639  0.000000      2.000000
  0.000000  0.198677  0.000000      1.000000
  0.009784  0.198677  0.000000      2.000000
  0.019568  0.198677  0.000000      2.000000
  0.029353  0.198677  0.000000      2.000000
  0.039137  0.198677  0.000000      2.000000
  0.048921  0.198677  0.000000      2.000000
  0.058705  0.198677  0.000000      2.000000
  0.068489  0.198677  0.000000      2.000000
  0.078273  0.198677  0.000000      2.000000
  0.088058  0.198677  0.000000      2.000000
  0.097842  0.198677  0.000000      2.000000
  0.107626  0.198677  0.000000      2.000000
  0.117410  0.198677  0.000000      1.000000

 I would recommend the setting:
   dimension x,y,z NGX =    62 NGY =   37 NGZ =  287
[...]
 k-point ** :   0.5000 0.2778 0.0000  plane waves:   42770
 k-point ** :   0.0000 0.3056 0.0000  plane waves:   42880
 k-point ** :   0.0417 0.3056 0.0000  plane waves:   42894
 k-point ** :   0.0833 0.3056 0.0000  plane waves:   42878
 k-point ** :   0.1250 0.3056 0.0000  plane waves:   42876
 k-point ** :   0.1667 0.3056 0.0000  plane waves:   42867
 k-point ** :   0.2083 0.3056 0.0000  plane waves:   42856
 k-point ** :   0.2500 0.3056 0.0000  plane waves:   42827
 k-point ** :   0.2917 0.3056 0.0000  plane waves:   42810
 k-point ** :   0.3333 0.3056 0.0000  plane waves:   42823
 k-point ** :   0.3750 0.3056 0.0000  plane waves:   42795
 k-point ** :   0.4167 0.3056 0.0000  plane waves:   42774
 k-point ** :   0.4583 0.3056 0.0000  plane waves:   42772
 k-point ** :   0.5000 0.3056 0.0000  plane waves:   42760
 k-point ** :   0.0000 0.3333 0.0000  plane waves:   42908
 k-point ** :   0.0417 0.3333 0.0000  plane waves:   42907
 k-point ** :   0.0833 0.3333 0.0000  plane waves:   42907
[...]
 k-point ** :   0.4583 0.4722 0.0000  plane waves:   42814
 k-point ** :   0.5000 0.4722 0.0000  plane waves:   42792
 k-point ** :   0.0000 0.5000 0.0000  plane waves:   42846
 k-point ** :   0.0417 0.5000 0.0000  plane waves:   42860
 k-point ** :   0.0833 0.5000 0.0000  plane waves:   42884
 k-point ** :   0.1250 0.5000 0.0000  plane waves:   42872
 k-point ** :   0.1667 0.5000 0.0000  plane waves:   42858
 k-point ** :   0.2083 0.5000 0.0000  plane waves:   42870
 k-point ** :   0.2500 0.5000 0.0000  plane waves:   42902
 k-point ** :   0.2917 0.5000 0.0000  plane waves:   42906
 k-point ** :   0.3333 0.5000 0.0000  plane waves:   42872
 k-point ** :   0.3750 0.5000 0.0000  plane waves:   42870
 k-point ** :   0.4167 0.5000 0.0000  plane waves:   42810
 k-point ** :   0.4583 0.5000 0.0000  plane waves:   42796
 k-point ** :   0.5000 0.5000 0.0000  plane waves:   42776

 maximum and minimum number of plane-waves per node :     21486    21319

 maximum number of plane-waves:     42934
 maximum index in each direction:
   IXMAX=   15   IYMAX=    9   IZMAX=   71
   IXMIN=  -16   IYMIN=   -9   IZMIN=  -71

 NGX is ok and might be reduce to  64
 NGY is ok and might be reduce to  38
 NGZ is ok and might be reduce to 286

 parallel 3D FFT for wavefunctions:
    minimum data exchange during FFTs selected (reduces bandwidth)
 parallel 3D FFT for charge:
    minimum data exchange during FFTs selected (reduces bandwidth)

 Broyden mixing: mesh for mixing (old mesh)
   NGX = 31   NGY = 19   NGZ =143
  (NGX  =128   NGY  = 80   NGZ  =576)
  gives a total of  84227 points

 initial charge density was supplied:
 charge density of overlapping atoms calculated
 number of electron      16.0000000 magnetization
 keeping initial charge density in first step

 Maximum index for augmentation-charges         5073 (set IRDMAX)

 First call to EWALD:  gamma=   0.298
 Maximum number of real-space cells 4x 6x 1
 Maximum number of reciprocal cells 2x 1x 8

 FEWALD executed in parallel

----------------------------------------- Iteration    1(   1)  ---------------------------------------

 eigenvalue-minimisations  :  5928
 total energy-change (2. order) : 0.1885678E+03  (-0.1059406E+04)
 number of electron      16.0000000 magnetization
 augmentation part       16.0000000 magnetization

 Free energy of the ion-electron system (eV)
  alpha Z        PSCENC =         6.18334092
  Ewald energy   TEWEN  =      2476.78183517
  -Hartree energ DENC   =     -2905.45874488
  -exchange      EXHF   =         0.00000000
  -V(xc)+E(xc)   XCENC  =        54.87351610
  PAW double counting   =       151.32577238     -155.92769107
  entropy T*S    EENTRO =        -0.00216198
  eigenvalues    EBANDS =       -27.83164162
  atomic energy  EATOM  =       588.62352690
  free energy    TOTEN  =       188.56775192 eV

  energy without entropy =      188.56991390  energy(sigma->0) =      188.56883291

[...]

 eigenvalue-minimisations  : 10404
 total energy-change (2. order) :-0.1974296E+03  (-0.1755031E+03)
 number of electron      16.0000000 magnetization
 augmentation part       16.0000000 magnetization

[...]

 Broyden mixing:
  rms(total) = 0.71319E+00    rms(broyden)= 0.71319E+00
  rms(prec ) = 0.77667E+00
  weight for this iteration     100.00

[...]

 eigenvalues of (default mixing * dielectric matrix)
  average eigenvalue GAMMA=   2.3186
  2.3186

[...]

WARNING in EDDRMM: call to ZHEGV failed, returncode =   6  3  1

[...]

 average (electrostatic) potential at core
  the test charge radii are     0.6991
  (the norm of the test charge is              1.0000)
       1 -58.2894       2 -58.2894       3 -58.2894       4 -58.2894

 E-fermi :  -2.8103     XC(G=0):  -2.1729     alpha+bet : -1.9046

 k-point     1 :       0.0000    0.0000    0.0000
  band No.  band energies     occupation
      1     -22.1158      2.00000
      2     -16.7671      2.00000
      3     -15.8851      2.00000
      4     -10.2525      2.00000
      5      -9.4159      2.00000
      6      -5.9553      2.00000
      7      -5.7472      2.00000
      8      -4.9457      2.00000
      9      -1.1269      0.00000
     10       0.5403      0.00000
     11       1.3385      0.00000
     12       1.7276      0.00000

[...]

 soft charge-density along one line, spin component           1
         0         1         2         3         4         5         6         7         8         9
 total charge-density along one line

------------------------ aborting loop because EDIFF is reached ----------------------------------------

  FORCE on cell =-STRESS in cart. coord.  units (eV):
  Direction    XX          YY          ZZ          XY          YZ          ZX
  Alpha Z     6.18334     6.18334     6.18334
  Ewald    3011.13220  3008.63062 -3542.98122     0.00000     0.00000     0.00000
  Hartree  2948.37893  2947.57109 -2924.94986    -0.00000    -0.00000    -0.00000
  E(xc)     -58.05843   -58.03428   -60.37130     0.00000    -0.00000    -0.00000
  Local   -6132.38625 -6129.54349  6262.49807     0.00000     0.00000    -0.00000
  n-local   -13.84895   -13.19474   -12.53842     0.08221     0.00000    -0.00000
  augment    -1.49309    -1.49040    -1.38025    -0.00000    -0.00000     0.00000
  Kinetic   240.09165   235.53822   273.53829    -4.63443    -0.00000     0.00000
  Fock        0.00000     0.00000     0.00000     0.00000     0.00000     0.00000
  Total      -0.00060    -4.33963    -0.00136     0.00000     0.00000     0.00000
  in kB      -0.00459   -32.97727    -0.01032     0.00000     0.00000     0.00000

 VOLUME and BASIS-vectors are now :
  energy-cutoff  :     2000.00
  volume of cell :      210.84
      direct lattice vectors                 reciprocal lattice vectors
     4.258580102  0.000000000  0.000000000     0.234820052  0.000000000  0.000000000
     0.000000000  2.516647718  0.000000000     0.000000000  0.397353985  0.000000000
     0.000000000  0.000000000 19.672585310     0.000000000  0.000000000  0.050832160

[...]

 FORCES acting on ions
    electron-ion (+dipol)            ewald-force                    non-local-force                 convergence-correction
   -.427E+01 -.591E-15 0.756E-09   0.426E+01 0.476E-14 0.652E-19   0.322E-02 -.173E-16 0.620E-24   0.726E-06 0.562E-15 -.818E-13
   0.427E+01 -.182E-12 -.272E-08   -.426E+01 -.617E-14 0.419E-18   -.322E-02 0.173E-16 -.827E-24   -.726E-06 -.198E-14 -.822E-13
   -.427E+01 0.592E-12 0.761E-09   0.426E+01 0.435E-14 -.607E-18   0.322E-02 -.104E-16 0.414E-24   0.726E-06 0.138E-14 -.818E-13
   0.427E+01 -.229E-15 -.269E-08   -.426E+01 -.657E-14 0.123E-18   -.322E-02 0.173E-16 -.362E-24   -.726E-06 -.279E-14 -.821E-13
   -.242E-06 0.410E-12 -.389E-08   -.444E-14 -.363E-14 0.241E-34   -.434E-18 0.694E-17 -.155E-24   0.508E-12 -.283E-14 -.328E-12

 POSITION                                       TOTAL-FORCE (eV/Angst)
      0.00221      0.00000      0.00000        -0.000546      0.000000      0.000000
      0.70755      1.25832      0.00000         0.000546     -0.000000     -0.000000
      2.13150      1.25832      0.00000        -0.000546     -0.000000      0.000000
      2.83684      0.00000      0.00000         0.000546      0.000000     -0.000000
    total drift:                               -0.000000      0.000000     -0.000000

  FREE ENERGIE OF THE ION-ELECTRON SYSTEM (eV)
  free  energy   TOTEN  =       -36.88223853 eV

  energy  without entropy=      -36.88223816  energy(sigma->0) =      -36.88223835

 Quasi-Newton relaxation of ions (Broydens 2nd method)
  g(Force)  = 0.575E-07   g(Stress)= 0.000E+00

 Reset! Starting new Quasi-Newton update for ions

[...]

 d Force =-0.8733950E-07[-0.232E-06, 0.575E-07]  d Energy =-0.8187999E-07-0.546E-08
 d Force =-0.4496039E-03[-0.450E-03,-0.449E-03]  d Ewald  =-0.4496039E-03-0.200E-10

[...]

 retain information from N=  1 steps
 eigenvalues of (default step * inverse Hessian matrix)
  average eigenvalue of G=   0.1986
 eigenvalue spectrum of G is  0.1986

[...]

WARNING in EDDRMM: call to ZHEGV failed, returncode =   6  3  1

[...]

 d Force = 0.9274308E-07[-0.618E-09, 0.186E-06]  d Energy = 0.8936718E-07 0.338E-08
 d Force = 0.3604023E-03[ 0.360E-03, 0.361E-03]  d Ewald  = 0.3604023E-03 0.773E-11

[...]

 eigenvalue-minimisations  :  4592
 total energy-change (2. order) : 0.6097025E-09  ( 0.5984044E-09)
 number of electron      16.0000000 magnetization
 augmentation part        0.3744397 magnetization

[...]

 eigenvalue-minimisations  :  3085
 total energy-change (2. order) :-0.2581828E-09  ( 0.1206075E-12)
 number of electron      16.0000000 magnetization
 augmentation part        0.3744397 magnetization

[...]

 d Force =-0.5316539E-12[-0.311E-11, 0.204E-11]  d Energy =-0.9117684E-10 0.906E-10
 d Force =-0.1191688E-05[-0.119E-05,-0.119E-05]  d Ewald  =-0.1191689E-05 0.455E-12

[...]

 d Force = 0.1061511E-11[ 0.248E-12, 0.187E-11]  d Energy = 0.5275069E-10-0.517E-10
 d Force = 0.7187890E-06[ 0.719E-06, 0.719E-06]  d Ewald  = 0.7187896E-06-0.455E-12

[...]

 d Force = 0.4464038E-13[ 0.514E-13, 0.379E-13]  d Energy =-0.7139533E-10 0.714E-10
 d Force = 0.1096755E-06[ 0.110E-06, 0.110E-06]  d Ewald  = 0.1096760E-06-0.455E-12

[...]

 eigenvalue-minimisations  :   899
 total energy-change (2. order) :-0.1739409E-10  (-0.5296175E-14)
 number of electron      16.0000000 magnetization
 augmentation part        0.3744397 magnetization

[...]

 eigenvalue-minimisations  :   759
 total energy-change (2. order) : 0.2196430E-09  (-0.4506683E-14)
 number of electron      16.0000000 magnetization
 augmentation part        0.3744397 magnetization

[...]

 d Force =-0.3847770E-12[-0.574E-12,-0.195E-12]  d Energy =-0.1172111E-09 0.117E-09
 d Force =-0.4164604E-06[-0.416E-06,-0.416E-06]  d Ewald  =-0.4164613E-06 0.909E-12

[...]

 FEWALD executed in parallel

[...]

 eigenvalue-minimisations  :   371
 total energy-change (2. order) : 0.2762590E-10  ( 0.0000000E+00)
 number of electron      16.0000000 magnetization
 augmentation part        0.3744397 magnetization

[...]

 Broyden mixing:
  rms(total) = 0.71047E-10    rms(broyden)= 0.70976E-10
  rms(prec ) = 0.14449E-09
  weight for this iteration     100.00

 eigenvalues of (default mixing * dielectric matrix)
  average eigenvalue GAMMA=   2.5056
  3.9138  2.6764  2.5598  0.8723

[...]

----------------------------------------- Iteration    8(   6)  ---------------------------------------

 eigenvalue-minimisations  :   215
 total energy-change (2. order) :-0.3012701E-10  ( 0.0000000E+00)
 number of electron      16.0000000 magnetization
 augmentation part        0.3744397 magnetization

 Free energy of the ion-electron system (eV)
  alpha Z        PSCENC =         6.18334092
  Ewald energy   TEWEN  =      2476.78192452
  -Hartree energ DENC   =     -2971.00025383
  -exchange      EXHF   =         0.00000000
  -V(xc)+E(xc)   XCENC  =        57.21827043
  PAW double counting   =       270.45752261     -275.57637950
  entropy T*S    EENTRO =        -0.00000037
  eigenvalues    EBANDS =      -189.57019022
  atomic energy  EATOM  =       588.62352690
  free energy    TOTEN  =       -36.88223854 eV

  energy without entropy =      -36.88223817  energy(sigma->0) =      -36.88223836

 average (electrostatic) potential at core
  the test charge radii are     0.6991
  (the norm of the test charge is              1.0000)
       1 -58.2894       2 -58.2894       3 -58.2894       4 -58.2894

 E-fermi :  -2.8103     XC(G=0):  -2.1701     alpha+bet : -1.9046

[...]

 k-point   247 :       0.5000    0.5000    0.0000
  band No.  band energies     occupation
      1     -17.1027      2.00000
      2     -17.1027      2.00000
      3     -15.8692      2.00000
      4     -15.8692      2.00000
      5      -9.0061      2.00000
      6      -9.0061      2.00000
      7      -5.2047      2.00000
      8      -5.2047      2.00000
      9      -1.1546      0.00000
     10      -1.1546      0.00000
     11       4.5954      0.00000
     12       4.5954      0.00000

 soft charge-density along one line, spin component           1
         0         1         2         3         4         5         6         7         8         9
 total charge-density along one line

------------------------ aborting loop because EDIFF is reached ----------------------------------------

  FORCE on cell =-STRESS in cart. coord.  units (eV):
  Direction    XX          YY          ZZ          XY          YZ          ZX
  Alpha Z     6.18334     6.18334     6.18334
  Ewald    3011.13674  3008.62617 -3542.98122    -0.00000     0.00000     0.00000
  Hartree  2948.37959  2947.57053 -2924.94986     0.00000    -0.00000    -0.00000
  E(xc)     -58.05842   -58.03430   -60.37131    -0.00000    -0.00000    -0.00000
  Local   -6132.39055 -6129.53931  6262.49805     0.00000    -0.00000     0.00000
  n-local   -13.84892   -13.19478   -12.53842     0.08220    -0.00000    -0.00000
  augment    -1.49310    -1.49040    -1.38025     0.00000     0.00000    -0.00000
  Kinetic   240.09100   235.53893   273.53833    -4.63440     0.00000     0.00000
  Fock        0.00000     0.00000     0.00000     0.00000     0.00000     0.00000
  Total      -0.00032    -4.33982    -0.00135     0.00000     0.00000     0.00000
  in kB      -0.00245   -32.97867    -0.01022     0.00000     0.00000     0.00000

 VOLUME and BASIS-vectors are now :
  energy-cutoff  :     2000.00
  volume of cell :      210.84
      direct lattice vectors                 reciprocal lattice vectors
     4.258580102  0.000000000  0.000000000     0.234820052  0.000000000  0.000000000
     0.000000000  2.516647718  0.000000000     0.000000000  0.397353985  0.000000000
     0.000000000  0.000000000 19.672585310     0.000000000  0.000000000  0.050832160

  length of vectors
     4.258580102  2.516647718 19.672585310     0.234820052  0.397353985  0.050832160

 FORCES acting on ions
    electron-ion (+dipol)            ewald-force                    non-local-force                 convergence-correction
   -.427E+01 -.618E-15 0.755E-09   0.426E+01 -.423E-14 -.149E-17   0.341E-02 0.000E+00 0.000E+00   -.931E-11 -.168E-14 0.292E-11
   0.427E+01 0.197E-12 -.272E-08   -.426E+01 0.415E-14 0.149E-17   -.341E-02 0.000E+00 0.000E+00   0.928E-11 -.602E-15 0.292E-11
   -.427E+01 0.703E-12 0.737E-09   0.426E+01 -.596E-14 -.142E-17   0.341E-02 0.000E+00 0.000E+00   -.928E-11 -.651E-15 0.292E-11
   0.427E+01 -.971E-15 -.277E-08   -.426E+01 0.242E-14 0.142E-17   -.341E-02 0.000E+00 0.000E+00   0.931E-11 -.175E-14 0.292E-11
   -.242E-06 0.899E-12 -.400E-08   -.444E-14 -.363E-14 0.000E+00   0.000E+00 0.000E+00 0.000E+00   0.203E-15 -.469E-14 0.117E-10

 POSITION                                       TOTAL-FORCE (eV/Angst)
      0.00221      0.00000     -0.00000         0.000001      0.000000      0.000000
      0.70756      1.25832      0.00000        -0.000001     -0.000000      0.000000
      2.13150      1.25832     -0.00000         0.000001      0.000000      0.000000
      2.83685      0.00000      0.00000        -0.000001     -0.000000      0.000000
    total drift:                               -0.000000      0.000000     -0.000000

  FREE ENERGIE OF THE ION-ELECTRON SYSTEM (eV)
  free  energy   TOTEN  =       -36.88223854 eV

  energy  without entropy=      -36.88223817  energy(sigma->0) =      -36.88223836

 d Force = 0.4828943E-12[ 0.957E-13, 0.870E-12]  d Energy = 0.3252580E-09-0.325E-09
 d Force = 0.6308966E-06[ 0.631E-06, 0.631E-06]  d Ewald  = 0.6308978E-06-0.136E-11

 Quasi-Newton relaxation of ions (Broydens 2nd method)
  g(Force)  = 0.808E-13   g(Stress)= 0.000E+00

 retain information from N=  1 steps
 eigenvalues of (default step * inverse Hessian matrix)
  average eigenvalue of G=   0.1465
 eigenvalue spectrum of G is  0.1465

 reached required accuracy - stopping structural energy minimisation