 vasp.5.3.5 31Mar14 (build Mar 02 2015 18:14:16) complex

 executed on             LinuxIFC date 2018.08.09  14:11:42

 INCAR:
 POTCAR:   PAW_PBE C 08Apr2002
 POTCAR:   PAW_PBE C 08Apr2002
   VRHFIN =C: s2p2

   TITEL  = PAW_PBE C 08Apr2002
   POMASS =   12.011; ZVAL   =    4.000    mass and valenz
   ENMAX  =  400.000; ENMIN  =  300.000 eV
   QCUT   =   -5.516; QGAM   =   11.032    optimization parameters

   Description
     l     E      TYP  RCUT    TYP  RCUT
     0   .000     23  1.200
     0   .000     23  1.200
     1   .000     23  1.500
     1  2.500     23  1.500
     2   .000      7  1.500

 PAW_PBE C 08Apr2002                    :

 POSCAR: MD-kMC export data
  positions in direct lattice
  velocities in cartesian coordinates
 exchange correlation table for  LEXCH =        8
   RHO(1)=    0.500       N(1)  =     2000
   RHO(2)=  100.500       N(2)  =     4000

 ion  position               nearest neighbor table
   1  0.999  0.000  0.000-   2 1.43   2 1.43   4 1.46
   2  0.167  0.500  0.000-   1 1.43   1 1.43   3 1.46
   3  0.499  0.500  0.000-   4 1.43   4 1.43   2 1.46
   4  0.667  0.000  0.000-   3 1.43   3 1.43   1 1.46

  LATTYP: Found a simple orthorhombic cell.
 ALAT       =     2.4571571400
 B/A-ratio  =     1.7826742035
 C/A-ratio  =     7.9721949584

  Lattice vectors:

 A1 = (   0.0000000000,  -2.4571571400,   0.0000000000)
 A2 = (  -4.3803106474,   0.0000000000,   0.0000000000)
 A3 = (   0.0000000000,   0.0000000000, -19.5889357633)

Analysis of symmetry for initial positions (statically):
 Subroutine PRICEL returns following result:

  LATTYP: Found a base centered orthorhombic cell.
 ALAT       =     2.4571571400
 B/A-ratio  =     1.7826742035
 C/A-ratio  =     7.9721949584

[...]

   2 primitive cells build up your supercell.

 Routine SETGRP: Setting up the symmetry group for a
 simple orthorhombic supercell.

 Subroutine GETGRP returns: Found  8 space group operations
 (whereof  4 operations were pure point group operations)
 out of a pool of  8 trial point group operations.

The static configuration has the point symmetry C_2v.
 The point group associated with its full space group is D_2h.

Analysis of symmetry for dynamics (positions and initial velocities):
 Subroutine PRICEL returns following result:

  LATTYP: Found a base centered orthorhombic cell.
 ALAT       =     2.4571571400
 B/A-ratio  =     1.7826742035
 C/A-ratio  =     7.9721949584

  Lattice vectors:

 A1 = (   2.1901553237,  -1.2285785700,   0.0000000000)
 A2 = (  -2.1901553237,  -1.2285785700,   0.0000000000)
 A3 = (   0.0000000000,   0.0000000000, -19.5889357633)

   2 primitive cells build up your supercell.

 Routine SETGRP: Setting up the symmetry group for a
 simple orthorhombic supercell.

 Subroutine GETGRP returns: Found  8 space group operations
 (whereof  4 operations were pure point group operations)
 out of a pool of  8 trial point group operations.

The dynamic configuration has the point symmetry C_2v.
 The point group associated with its full space group is D_2h.

 KPOINTS: Automatic mesh

Automatic generation of k-mesh.
Space group operators:
 irot       det(A)        alpha          n_x          n_y          n_z        tau_x        tau_y        tau_z
    1     1.000000     0.000000     1.000000     0.000000     0.000000     0.000000     0.000000     0.000000
    2    -1.000000   180.000000     0.000000     0.000000     1.000000     0.000000     0.000000     0.000000
    3     1.000000   180.000000     1.000000     0.000000     0.000000     0.000000     0.000000     0.000000
    4    -1.000000   179.999999     0.000000     1.000000     0.000000     0.000000     0.000000     0.000000
    5    -1.000000     0.000000     1.000000     0.000000     0.000000     0.166667    -0.500000     0.000000
    6     1.000000   180.000000     0.000000     0.000000     1.000000     0.166667    -0.500000     0.000000
    7    -1.000000   180.000000     1.000000     0.000000     0.000000     0.166667    -0.500000     0.000000
    8     1.000000   179.999999     0.000000     1.000000     0.000000     0.166667    -0.500000     0.000000

 Subroutine IBZKPT returns following result:

 Found    247 irreducible k-points:

 Following reciprocal coordinates:
            Coordinates               Weight
  0.000000  0.000000  0.000000      1.000000
  0.041667  0.000000  0.000000      2.000000
  0.083333  0.000000  0.000000      2.000000
  0.125000  0.000000  0.000000      2.000000
  0.166667  0.000000  0.000000      2.000000
  0.208333  0.000000  0.000000      2.000000
  0.250000  0.000000  0.000000      2.000000
  0.291667  0.000000  0.000000      2.000000
  0.333333  0.000000  0.000000      2.000000
  0.375000  0.000000  0.000000      2.000000
  0.416667  0.000000  0.000000      2.000000
  0.458333  0.000000  0.000000      2.000000
  0.500000  0.000000  0.000000      1.000000
  0.000000  0.027778  0.000000      2.000000
  0.041667  0.027778  0.000000      4.000000
  0.083333  0.027778  0.000000      4.000000
  0.125000  0.027778  0.000000      4.000000
  0.166667  0.027778  0.000000      4.000000
  0.208333  0.027778  0.000000      4.000000
  0.250000  0.027778  0.000000      4.000000
  0.291667  0.027778  0.000000      4.000000
  0.333333  0.027778  0.000000      4.000000
  0.375000  0.027778  0.000000      4.000000
  0.416667  0.027778  0.000000      4.000000
  0.458333  0.027778  0.000000      4.000000
  0.500000  0.027778  0.000000      2.000000
  0.000000  0.055556  0.000000      2.000000
  0.041667  0.055556  0.000000      4.000000
  0.083333  0.055556  0.000000      4.000000
  0.125000  0.055556  0.000000      4.000000
  0.166667  0.055556  0.000000      4.000000
  0.208333  0.055556  0.000000      4.000000
  0.250000  0.055556  0.000000      4.000000
  0.291667  0.055556  0.000000      4.000000
  0.333333  0.055556  0.000000      4.000000
  0.375000  0.055556  0.000000      4.000000
  0.416667  0.055556  0.000000      4.000000
  0.458333  0.055556  0.000000      4.000000
  0.500000  0.055556  0.000000      2.000000
  0.000000  0.083333  0.000000      2.000000
  0.041667  0.083333  0.000000      4.000000
  0.083333  0.083333  0.000000      4.000000
  0.125000  0.083333  0.000000      4.000000
  0.166667  0.083333  0.000000      4.000000
  0.208333  0.083333  0.000000      4.000000
  0.250000  0.083333  0.000000      4.000000
  0.291667  0.083333  0.000000      4.000000
  0.333333  0.083333  0.000000      4.000000
  0.375000  0.083333  0.000000      4.000000
  0.416667  0.083333  0.000000      4.000000
  0.458333  0.083333  0.000000      4.000000
  0.500000  0.083333  0.000000      2.000000
  0.000000  0.111111  0.000000      2.000000
  0.041667  0.111111  0.000000      4.000000
  0.083333  0.111111  0.000000      4.000000
  0.125000  0.111111  0.000000      4.000000
  0.166667  0.111111  0.000000      4.000000
  0.208333  0.111111  0.000000      4.000000
  0.250000  0.111111  0.000000      4.000000
  0.291667  0.111111  0.000000      4.000000
[...]
  0.458333  0.472222  0.000000      4.000000
  0.500000  0.472222  0.000000      2.000000
  0.000000  0.500000  0.000000      1.000000
  0.041667  0.500000  0.000000      2.000000
  0.083333  0.500000  0.000000      2.000000
  0.125000  0.500000  0.000000      2.000000
  0.166667  0.500000  0.000000      2.000000
  0.208333  0.500000  0.000000      2.000000
  0.250000  0.500000  0.000000      2.000000
  0.291667  0.500000  0.000000      2.000000
  0.333333  0.500000  0.000000      2.000000
  0.375000  0.500000  0.000000      2.000000
  0.416667  0.500000  0.000000      2.000000
  0.458333  0.500000  0.000000      2.000000
  0.500000  0.500000  0.000000      1.000000

 Following cartesian coordinates:
            Coordinates               Weight
  0.000000  0.000000  0.000000      1.000000
  0.009512  0.000000  0.000000      2.000000
  0.019025  0.000000  0.000000      2.000000
  0.028537  0.000000  0.000000      2.000000
  0.038049  0.000000  0.000000      2.000000
  0.047561  0.000000  0.000000      2.000000
  0.057074  0.000000  0.000000      2.000000
  0.066586  0.000000  0.000000      2.000000
  0.076098  0.000000  0.000000      2.000000
  0.085610  0.000000  0.000000      2.000000
  0.095123  0.000000  0.000000      2.000000
  0.104635  0.000000  0.000000      2.000000
  0.114147  0.000000  0.000000      1.000000
  0.000000  0.011305  0.000000      2.000000
  0.009512  0.011305  0.000000      4.000000
  0.019025  0.011305  0.000000      4.000000
  0.028537  0.011305  0.000000      4.000000
  0.038049  0.011305  0.000000      4.000000
  0.047561  0.011305  0.000000      4.000000
  0.057074  0.011305  0.000000      4.000000
  0.066586  0.011305  0.000000      4.000000
  0.076098  0.011305  0.000000      4.000000
  0.085610  0.011305  0.000000      4.000000
  0.095123  0.011305  0.000000      4.000000
  0.104635  0.011305  0.000000      4.000000
  0.114147  0.011305  0.000000      2.000000
  0.000000  0.022610  0.000000      2.000000
  0.009512  0.022610  0.000000      4.000000
  0.019025  0.022610  0.000000      4.000000
  0.028537  0.022610  0.000000      4.000000
  0.038049  0.022610  0.000000      4.000000
  0.047561  0.022610  0.000000      4.000000
  0.057074  0.022610  0.000000      4.000000
  0.066586  0.022610  0.000000      4.000000
  0.076098  0.022610  0.000000      4.000000
  0.085610  0.022610  0.000000      4.000000
  0.095123  0.022610  0.000000      4.000000
  0.104635  0.022610  0.000000      4.000000
  0.114147  0.022610  0.000000      2.000000
  0.000000  0.033915  0.000000      2.000000
  0.009512  0.033915  0.000000      4.000000
  0.019025  0.033915  0.000000      4.000000
  0.028537  0.033915  0.000000      4.000000
  0.038049  0.033915  0.000000      4.000000
  0.047561  0.033915  0.000000      4.000000
  0.057074  0.033915  0.000000      4.000000
  0.066586  0.033915  0.000000      4.000000
  0.076098  0.033915  0.000000      4.000000
  0.085610  0.033915  0.000000      4.000000
  0.095123  0.033915  0.000000      4.000000
  0.104635  0.033915  0.000000      4.000000
  0.114147  0.033915  0.000000      2.000000
  0.000000  0.045219  0.000000      2.000000
  0.009512  0.045219  0.000000      4.000000
  0.019025  0.045219  0.000000      4.000000
  0.028537  0.045219  0.000000      4.000000
  0.038049  0.045219  0.000000      4.000000
  0.047561  0.045219  0.000000      4.000000
  0.057074  0.045219  0.000000      4.000000
  0.066586  0.045219  0.000000      4.000000
[...]
  0.104635  0.192182  0.000000      4.000000
  0.114147  0.192182  0.000000      2.000000
  0.000000  0.203487  0.000000      1.000000
  0.009512  0.203487  0.000000      2.000000
  0.019025  0.203487  0.000000      2.000000
  0.028537  0.203487  0.000000      2.000000
  0.038049  0.203487  0.000000      2.000000
  0.047561  0.203487  0.000000      2.000000
  0.057074  0.203487  0.000000      2.000000
  0.066586  0.203487  0.000000      2.000000
  0.076098  0.203487  0.000000      2.000000
  0.085610  0.203487  0.000000      2.000000
  0.095123  0.203487  0.000000      2.000000
  0.104635  0.203487  0.000000      2.000000
  0.114147  0.203487  0.000000      1.000000

 I would recommend the setting:
   dimension x,y,z NGX =    64 NGY =   36 NGZ =  286
[...]
 k-point ** :   0.4167 0.2500 0.0000  plane waves:   42814
 k-point ** :   0.4583 0.2500 0.0000  plane waves:   42791
 k-point ** :   0.5000 0.2500 0.0000  plane waves:   42814
 k-point ** :   0.0000 0.2778 0.0000  plane waves:   42844
 k-point ** :   0.0417 0.2778 0.0000  plane waves:   42826
 k-point ** :   0.0833 0.2778 0.0000  plane waves:   42821
 k-point ** :   0.1250 0.2778 0.0000  plane waves:   42828
 k-point ** :   0.1667 0.2778 0.0000  plane waves:   42853
 k-point ** :   0.2083 0.2778 0.0000  plane waves:   42856
 k-point ** :   0.2500 0.2778 0.0000  plane waves:   42871
 k-point ** :   0.2917 0.2778 0.0000  plane waves:   42858
 k-point ** :   0.3333 0.2778 0.0000  plane waves:   42852
 k-point ** :   0.3750 0.2778 0.0000  plane waves:   42845
 k-point ** :   0.4167 0.2778 0.0000  plane waves:   42842
 k-point ** :   0.4583 0.2778 0.0000  plane waves:   42855
 k-point ** :   0.5000 0.2778 0.0000  plane waves:   42868
 k-point ** :   0.0000 0.3056 0.0000  plane waves:   42798
 k-point ** :   0.0417 0.3056 0.0000  plane waves:   42821
 k-point ** :   0.0833 0.3056 0.0000  plane waves:   42838
 k-point ** :   0.1250 0.3056 0.0000  plane waves:   42846
 k-point ** :   0.1667 0.3056 0.0000  plane waves:   42865
 k-point ** :   0.2083 0.3056 0.0000  plane waves:   42865
 k-point ** :   0.2500 0.3056 0.0000  plane waves:   42859
 k-point ** :   0.2917 0.3056 0.0000  plane waves:   42871
 k-point ** :   0.3333 0.3056 0.0000  plane waves:   42867
 k-point ** :   0.3750 0.3056 0.0000  plane waves:   42880
 k-point ** :   0.4167 0.3056 0.0000  plane waves:   42886
 k-point ** :   0.4583 0.3056 0.0000  plane waves:   42882
 k-point ** :   0.5000 0.3056 0.0000  plane waves:   42896
 k-point ** :   0.0000 0.3333 0.0000  plane waves:   42814
 k-point ** :   0.0417 0.3333 0.0000  plane waves:   42818
 k-point ** :   0.0833 0.3333 0.0000  plane waves:   42838
[...]
 k-point ** :   0.4583 0.4722 0.0000  plane waves:   42976
 k-point ** :   0.5000 0.4722 0.0000  plane waves:   42940
 k-point ** :   0.0000 0.5000 0.0000  plane waves:   42834
 k-point ** :   0.0417 0.5000 0.0000  plane waves:   42828
 k-point ** :   0.0833 0.5000 0.0000  plane waves:   42824
 k-point ** :   0.1250 0.5000 0.0000  plane waves:   42872
 k-point ** :   0.1667 0.5000 0.0000  plane waves:   42864
 k-point ** :   0.2083 0.5000 0.0000  plane waves:   42890
 k-point ** :   0.2500 0.5000 0.0000  plane waves:   42878
 k-point ** :   0.2917 0.5000 0.0000  plane waves:   42926
 k-point ** :   0.3333 0.5000 0.0000  plane waves:   42920
 k-point ** :   0.3750 0.5000 0.0000  plane waves:   42918
 k-point ** :   0.4167 0.5000 0.0000  plane waves:   42940
 k-point ** :   0.4583 0.5000 0.0000  plane waves:   42948
 k-point ** :   0.5000 0.5000 0.0000  plane waves:   42976

 maximum and minimum number of plane-waves per node :     21502    21317

 maximum number of plane-waves:     42976
 maximum index in each direction:
   IXMAX=   15   IYMAX=    8   IZMAX=   71
   IXMIN=  -16   IYMIN=   -9   IZMIN=  -71

 NGX is ok and might be reduce to  64
 NGY is ok and might be reduce to  36
 NGZ is ok and might be reduce to 286

 parallel 3D FFT for wavefunctions:
    minimum data exchange during FFTs selected (reduces bandwidth)
 parallel 3D FFT for charge:
    minimum data exchange during FFTs selected (reduces bandwidth)

 Broyden mixing: mesh for mixing (old mesh)
   NGX = 31   NGY = 17   NGZ =143
  (NGX  =128   NGY  = 72   NGZ  =576)
  gives a total of  75361 points

 initial charge density was supplied:
 charge density of overlapping atoms calculated
 number of electron      16.0000000 magnetization
 keeping initial charge density in first step

 Maximum index for augmentation-charges         4565 (set IRDMAX)

 First call to EWALD:  gamma=   0.298
 Maximum number of real-space cells 4x 6x 1
 Maximum number of reciprocal cells 2x 1x 8

 FEWALD executed in parallel

----------------------------------------- Iteration    1(   1)  ---------------------------------------

 eigenvalue-minimisations  :  5928
 total energy-change (2. order) : 0.1857428E+03  (-0.1065034E+04)
 number of electron      16.0000000 magnetization
 augmentation part       16.0000000 magnetization

 Free energy of the ion-electron system (eV)
  alpha Z        PSCENC =         6.18334092
  Ewald energy   TEWEN  =      2448.98953116
  -Hartree energ DENC   =     -2878.49738857
  -exchange      EXHF   =         0.00000000
  -V(xc)+E(xc)   XCENC  =        54.81614256
  PAW double counting   =       151.32577238     -155.92769107
  entropy T*S    EENTRO =        -0.00080012
  eigenvalues    EBANDS =       -29.76966005
  atomic energy  EATOM  =       588.62352690
  free energy    TOTEN  =       185.74277411 eV

  energy without entropy =      185.74357424  energy(sigma->0) =      185.74317417

[...]

 eigenvalue-minimisations  : 10272
 total energy-change (2. order) :-0.1954498E+03  (-0.1732405E+03)
 number of electron      16.0000000 magnetization
 augmentation part       16.0000000 magnetization

[...]

 Broyden mixing:
  rms(total) = 0.70948E+00    rms(broyden)= 0.70948E+00
  rms(prec ) = 0.77319E+00
  weight for this iteration     100.00

[...]

 eigenvalues of (default mixing * dielectric matrix)
  average eigenvalue GAMMA=   2.3132
  2.3132

[...]

WARNING in EDDRMM: call to ZHEGV failed, returncode =   6  3  1
WARNING in EDDRMM: call to ZHEGV failed, returncode =   6  3  1
WARNING in EDDRMM: call to ZHEGV failed, returncode =   6  3  1
WARNING in EDDRMM: call to ZHEGV failed, returncode =   6  3  1
WARNING in EDDRMM: call to ZHEGV failed, returncode =   6  3  1
WARNING in EDDRMM: call to ZHEGV failed, returncode =   6  3  1
WARNING in EDDRMM: call to ZHEGV failed, returncode =   6  3  1
WARNING in EDDRMM: call to ZHEGV failed, returncode =   6  3  1
WARNING in EDDRMM: call to ZHEGV failed, returncode =   6  3  1
WARNING in EDDRMM: call to ZHEGV failed, returncode =   6  3  1
WARNING in EDDRMM: call to ZHEGV failed, returncode =   6  3  1
WARNING in EDDRMM: call to ZHEGV failed, returncode =   6  3  1
WARNING in EDDRMM: call to ZHEGV failed, returncode =   6  3  1
WARNING in EDDRMM: call to ZHEGV failed, returncode =   6  3  1
WARNING in EDDRMM: call to ZHEGV failed, returncode =   6  3  1

[...]

 average (electrostatic) potential at core
  the test charge radii are     0.6991
  (the norm of the test charge is              1.0000)
       1 -58.3152       2 -58.3152       3 -58.3152       4 -58.3152

 E-fermi :  -2.8244     XC(G=0):  -2.1781     alpha+bet : -1.9046

 k-point     1 :       0.0000    0.0000    0.0000
  band No.  band energies     occupation
      1     -22.0803      2.00000
      2     -17.2580      2.00000
      3     -15.8323      2.00000
      4     -10.2251      2.00000
      5      -8.8039      2.00000
      6      -6.0071      2.00000
      7      -5.7269      2.00000
      8      -5.3358      2.00000
      9      -1.1863      0.00000
     10       0.5448      0.00000
     11       1.3428      0.00000
     12       1.7347      0.00000

[...]

 soft charge-density along one line, spin component           1
         0         1         2         3         4         5         6         7         8         9
 total charge-density along one line

------------------------ aborting loop because EDIFF is reached ----------------------------------------

  FORCE on cell =-STRESS in cart. coord.  units (eV):
  Direction    XX          YY          ZZ          XY          YZ          ZX
  Alpha Z     6.18334     6.18334     6.18334
  Ewald    2979.23300  2982.67146 -3512.91513    -0.00000     0.00000    -0.00000
  Hartree  2919.56186  2920.73924 -2897.02533    -0.00000    -0.00000    -0.00000
  E(xc)     -57.95693   -57.98491   -60.29228    -0.00000    -0.00000    -0.00000
  Local   -6072.33408 -6076.41192  6204.69215    -0.00000     0.00000     0.00000
  n-local   -13.00791   -13.81728   -12.47974     0.06777     0.00000    -0.00000
  augment    -1.47798    -1.48029    -1.37152     0.00000     0.00000    -0.00000
  Kinetic   234.37437   240.09976   273.20717    -4.45253    -0.00000     0.00000
  Fock        0.00000     0.00000     0.00000     0.00000     0.00000     0.00000
  Total      -5.42432    -0.00059    -0.00134     0.00000     0.00000     0.00000
  in kB     -41.21993    -0.00447    -0.01019     0.00000     0.00000     0.00000

 VOLUME and BASIS-vectors are now :
  energy-cutoff  :     2000.00
  volume of cell :      210.84
      direct lattice vectors                 reciprocal lattice vectors
     4.380310647  0.000000000  0.000000000     0.228294311  0.000000000  0.000000000
     0.000000000  2.457157140  0.000000000     0.000000000  0.406974379  0.000000000
     0.000000000  0.000000000 19.588935763     0.000000000  0.000000000  0.051049226

[...]

 FORCES acting on ions
    electron-ion (+dipol)            ewald-force                    non-local-force                 convergence-correction
   0.536E+01 0.951E-16 -.248E-08   -.535E+01 0.555E-14 -.124E-17   -.482E-02 0.104E-16 -.258E-25   -.107E-06 0.485E-15 -.815E-13
   -.536E+01 -.992E-15 -.109E-07   0.535E+01 0.349E-14 -.226E-34   0.482E-02 0.694E-17 0.000E+00   0.107E-06 -.101E-14 -.823E-13
   0.536E+01 -.158E-12 -.247E-08   -.535E+01 0.346E-14 0.124E-17   -.482E-02 0.104E-16 0.000E+00   -.107E-06 0.399E-15 -.816E-13
   -.536E+01 0.104E-15 -.109E-07   0.535E+01 0.140E-14 0.000E+00   0.482E-02 0.694E-17 0.000E+00   0.107E-06 -.883E-15 -.824E-13
   -.950E-06 -.158E-12 -.268E-07   -.355E-14 0.139E-13 0.000E+00   -.173E-17 0.347E-16 -.258E-25   -.869E-13 -.101E-14 -.328E-12

 POSITION                                       TOTAL-FORCE (eV/Angst)
      4.37794      0.00000      0.00000         0.000353     -0.000000      0.000000
      0.73242      1.22858      0.00000        -0.000353      0.000000      0.000000
      2.18778      1.22858      0.00000         0.000353      0.000000      0.000000
      2.92258      0.00000      0.00000        -0.000353     -0.000000      0.000000
    total drift:                               -0.000001     -0.000000     -0.000000

  FREE ENERGIE OF THE ION-ELECTRON SYSTEM (eV)
  free  energy   TOTEN  =       -36.85813997 eV

  energy  without entropy=      -36.85813995  energy(sigma->0) =      -36.85813996

 Quasi-Newton relaxation of ions (Broydens 2nd method)
  g(Force)  = 0.240E-07   g(Stress)= 0.000E+00

 Reset! Starting new Quasi-Newton update for ions

[...]

 d Force =-0.3228183E-07[-0.886E-07, 0.240E-07]  d Energy =-0.2874162E-07-0.354E-08
 d Force =-0.3645706E-03[-0.365E-03,-0.364E-03]  d Ewald  =-0.3645706E-03 0.364E-11

[...]

 retain information from N=  1 steps
 eigenvalues of (default step * inverse Hessian matrix)
  average eigenvalue of G=   0.2132
 eigenvalue spectrum of G is  0.2132

 FEWALD executed in parallel

[...]

 eigenvalue-minimisations  :  2565
 total energy-change (2. order) : 0.2492015E-09  (-0.2721054E-12)
 number of electron      16.0000000 magnetization
 augmentation part        0.3725455 magnetization

 Broyden mixing:
  rms(total) = 0.42778E-07    rms(broyden)= 0.42778E-07
  rms(prec ) = 0.46590E-07
  weight for this iteration     100.00

 eigenvalues of (default mixing * dielectric matrix)
  average eigenvalue GAMMA=   1.4597
  2.6239  2.6239  1.9532  1.0504  0.9350  1.0050  1.0050  0.4809

[...]

----------------------------------------- Iteration    3(  10)  ---------------------------------------

 eigenvalue-minimisations  :  2344
 total energy-change (2. order) :-0.4229150E-10  (-0.1868999E-12)
 number of electron      16.0000000 magnetization
 augmentation part        0.3725455 magnetization

 Free energy of the ion-electron system (eV)
  alpha Z        PSCENC =         6.18334092
  Ewald energy   TEWEN  =      2448.98960885
  -Hartree energ DENC   =     -2943.27584594
  -exchange      EXHF   =         0.00000000
  -V(xc)+E(xc)   XCENC  =        57.14035711
  PAW double counting   =       268.79261916     -273.90399052
  entropy T*S    EENTRO =        -0.00000002
  eigenvalues    EBANDS =      -189.40775644
  atomic energy  EATOM  =       588.62352690
  free energy    TOTEN  =       -36.85813997 eV

  energy without entropy =      -36.85813995  energy(sigma->0) =      -36.85813996

 average (electrostatic) potential at core
  the test charge radii are     0.6991
  (the norm of the test charge is              1.0000)
       1 -58.3152       2 -58.3152       3 -58.3152       4 -58.3152

 E-fermi :  -2.8244     XC(G=0):  -2.1775     alpha+bet : -1.9046

[...]

 k-point   247 :       0.5000    0.5000    0.0000
  band No.  band energies     occupation
      1     -16.8448      2.00000
      2     -16.8448      2.00000
      3     -15.8572      2.00000
      4     -15.8572      2.00000
      5      -9.3030      2.00000
      6      -9.3030      2.00000
      7      -5.0117      2.00000
      8      -5.0117      2.00000
      9      -1.1521      0.00000
     10      -1.1521      0.00000
     11       3.8939      0.00000
     12       3.8939      0.00000

 soft charge-density along one line, spin component           1
         0         1         2         3         4         5         6         7         8         9
 total charge-density along one line

------------------------ aborting loop because EDIFF is reached ----------------------------------------

  FORCE on cell =-STRESS in cart. coord.  units (eV):
  Direction    XX          YY          ZZ          XY          YZ          ZX
  Alpha Z     6.18334     6.18334     6.18334
  Ewald    2979.22990  2982.67463 -3512.91513    -0.00000     0.00000     0.00000
  Hartree  2919.56145  2920.73973 -2897.02533    -0.00000    -0.00000    -0.00000
  E(xc)     -57.95695   -57.98490   -60.29228    -0.00000    -0.00000    -0.00000
  Local   -6072.33111 -6076.41498  6204.69213    -0.00000    -0.00000     0.00000
  n-local   -13.00793   -13.81725   -12.47974     0.06777    -0.00000    -0.00000
  augment    -1.47797    -1.48030    -1.37152    -0.00000     0.00000    -0.00000
  Kinetic   234.37488   240.09930   273.20720    -4.45255     0.00000     0.00000
  Fock        0.00000     0.00000     0.00000     0.00000     0.00000     0.00000
  Total      -5.42439    -0.00043    -0.00134     0.00000     0.00000     0.00000
  in kB     -41.22049    -0.00327    -0.01018     0.00000     0.00000     0.00000

 VOLUME and BASIS-vectors are now :
  energy-cutoff  :     2000.00
  volume of cell :      210.84
      direct lattice vectors                 reciprocal lattice vectors
     4.380310647  0.000000000  0.000000000     0.228294311  0.000000000  0.000000000
     0.000000000  2.457157140  0.000000000     0.000000000  0.406974379  0.000000000
     0.000000000  0.000000000 19.588935763     0.000000000  0.000000000  0.051049226

  length of vectors
     4.380310647  2.457157140 19.588935763     0.228294311  0.406974379  0.051049226

 FORCES acting on ions
    electron-ion (+dipol)            ewald-force                    non-local-force                 convergence-correction
   0.536E+01 0.140E-15 -.246E-08   -.536E+01 0.518E-14 0.198E-17   -.495E-02 0.104E-16 0.452E-25   -.442E-06 -.123E-14 -.973E-12
   -.536E+01 0.197E-12 -.109E-07   0.536E+01 0.329E-14 -.197E-17   0.495E-02 0.694E-17 -.258E-25   0.442E-06 -.168E-14 -.974E-12
   0.536E+01 -.154E-12 -.247E-08   -.536E+01 0.365E-14 0.321E-17   -.495E-02 0.173E-16 0.388E-25   -.442E-06 -.155E-14 -.970E-12
   -.536E+01 0.111E-14 -.109E-07   0.536E+01 0.177E-14 -.322E-17   0.495E-02 0.694E-17 -.258E-25   0.442E-06 -.143E-14 -.968E-12
   -.950E-06 0.433E-13 -.267E-07   -.355E-14 0.139E-13 0.000E+00   0.000E+00 0.416E-16 0.323E-25   -.999E-13 -.589E-14 -.388E-11

 POSITION                                       TOTAL-FORCE (eV/Angst)
      4.37794     -0.00000      0.00000        -0.000000      0.000000      0.000000
      0.73242      1.22858     -0.00000         0.000000     -0.000000      0.000000
      2.18779      1.22858      0.00000        -0.000000     -0.000000      0.000000
      2.92257     -0.00000     -0.00000         0.000000      0.000000      0.000000
    total drift:                               -0.000001      0.000000     -0.000000

  FREE ENERGIE OF THE ION-ELECTRON SYSTEM (eV)
  free  energy   TOTEN  =       -36.85813997 eV

  energy  without entropy=      -36.85813995  energy(sigma->0) =      -36.85813996

 d Force = 0.3484341E-07[ 0.722E-11, 0.697E-07]  d Energy = 0.3195703E-07 0.289E-08
 d Force = 0.2868793E-03[ 0.287E-03, 0.287E-03]  d Ewald  = 0.2868793E-03-0.136E-11

 Quasi-Newton relaxation of ions (Broydens 2nd method)
  g(Force)  = 0.351E-14   g(Stress)= 0.000E+00

 retain information from N=  1 steps
 eigenvalues of (default step * inverse Hessian matrix)
  average eigenvalue of G=   0.2132
 eigenvalue spectrum of G is  0.2132

 reached required accuracy - stopping structural energy minimisation