 vasp.5.3.5 31Mar14 (build Mar 02 2015 18:14:16) complex

 executed on             LinuxIFC date 2018.08.10  15:18:32

 INCAR:
 POTCAR:   PAW_PBE C 08Apr2002
 POTCAR:   PAW_PBE C 08Apr2002
   VRHFIN =C: s2p2

   TITEL  = PAW_PBE C 08Apr2002
   POMASS =   12.011; ZVAL   =    4.000    mass and valenz
   ENMAX  =  400.000; ENMIN  =  300.000 eV
   QCUT   =   -5.516; QGAM   =   11.032    optimization parameters

   Description
     l     E      TYP  RCUT    TYP  RCUT
     0   .000     23  1.200
     0   .000     23  1.200
     1   .000     23  1.500
     1  2.500     23  1.500
     2   .000      7  1.500

 PAW_PBE C 08Apr2002                    :

 POSCAR: MD-kMC export data
  positions in direct lattice
  velocities in cartesian coordinates
 exchange correlation table for  LEXCH =        8
   RHO(1)=    0.500       N(1)  =     2000
   RHO(2)=  100.500       N(2)  =     4000

 ion  position               nearest neighbor table
   1  0.000  0.000  0.000-   2 1.42   2 1.42   4 1.43
   2  0.167  0.500  0.000-   1 1.42   1 1.42   3 1.43
   3  0.500  0.500  0.000-   4 1.42   4 1.42   2 1.43
   4  0.667  0.000  0.000-   3 1.42   3 1.42   1 1.43

  LATTYP: Found a simple orthorhombic cell.
 ALAT       =     2.4677927493
 B/A-ratio  =     1.7317305149
 C/A-ratio  =     8.1010688533

  Lattice vectors:

 A1 = (   0.0000000000,  -2.4677927493,   0.0000000000)
 A2 = (  -4.2735520084,   0.0000000000,   0.0000000000)
 A3 = (   0.0000000000,   0.0000000000, -19.9917589780)

Analysis of symmetry for initial positions (statically):
 Subroutine PRICEL returns following result:

  LATTYP: Found a base centered orthorhombic cell.
 ALAT       =     2.4677927493
 B/A-ratio  =     1.7317305149
 C/A-ratio  =     8.1010688533

[...]

   2 primitive cells build up your supercell.

 Routine SETGRP: Setting up the symmetry group for a
 simple orthorhombic supercell.

 Subroutine GETGRP returns: Found  8 space group operations
 (whereof  4 operations were pure point group operations)
 out of a pool of  8 trial point group operations.

The static configuration has the point symmetry C_2v.
 The point group associated with its full space group is D_2h.

Analysis of symmetry for dynamics (positions and initial velocities):
 Subroutine PRICEL returns following result:

  LATTYP: Found a base centered orthorhombic cell.
 ALAT       =     2.4677927493
 B/A-ratio  =     1.7317305149
 C/A-ratio  =     8.1010688533

  Lattice vectors:

 A1 = (   2.1367760042,  -1.2338963747,   0.0000000000)
 A2 = (  -2.1367760042,  -1.2338963747,   0.0000000000)
 A3 = (   0.0000000000,   0.0000000000, -19.9917589780)

   2 primitive cells build up your supercell.

 Routine SETGRP: Setting up the symmetry group for a
 simple orthorhombic supercell.

 Subroutine GETGRP returns: Found  8 space group operations
 (whereof  4 operations were pure point group operations)
 out of a pool of  8 trial point group operations.

The dynamic configuration has the point symmetry C_2v.
 The point group associated with its full space group is D_2h.

 KPOINTS: Automatic mesh

Automatic generation of k-mesh.
Space group operators:
 irot       det(A)        alpha          n_x          n_y          n_z        tau_x        tau_y        tau_z
    1     1.000000     0.000000     1.000000     0.000000     0.000000     0.000000     0.000000     0.000000
    2    -1.000000   179.999999     0.000000     0.000000     1.000000     0.000000     0.000000     0.000000
    3     1.000000   180.000000     1.000000     0.000000     0.000000     0.000000     0.000000     0.000000
    4    -1.000000   180.000000     0.000000     1.000000     0.000000     0.000000     0.000000     0.000000
    5    -1.000000     0.000000     1.000000     0.000000     0.000000     0.166667    -0.500000     0.000000
    6     1.000000   179.999999     0.000000     0.000000     1.000000     0.166667    -0.500000     0.000000
    7    -1.000000   180.000000     1.000000     0.000000     0.000000     0.166667    -0.500000     0.000000
    8     1.000000   180.000000     0.000000     1.000000     0.000000     0.166667    -0.500000     0.000000

 Subroutine IBZKPT returns following result:

 Found    247 irreducible k-points:

 Following reciprocal coordinates:
            Coordinates               Weight
  0.000000  0.000000  0.000000      1.000000
  0.041667  0.000000  0.000000      2.000000
  0.083333  0.000000  0.000000      2.000000
  0.125000  0.000000  0.000000      2.000000
  0.166667  0.000000  0.000000      2.000000
  0.208333  0.000000  0.000000      2.000000
  0.250000  0.000000  0.000000      2.000000
  0.291667  0.000000  0.000000      2.000000
  0.333333  0.000000  0.000000      2.000000
  0.375000  0.000000  0.000000      2.000000
  0.416667  0.000000  0.000000      2.000000
  0.458333  0.000000  0.000000      2.000000
  0.500000  0.000000  0.000000      1.000000
  0.000000  0.027778  0.000000      2.000000
  0.041667  0.027778  0.000000      4.000000
  0.083333  0.027778  0.000000      4.000000
  0.125000  0.027778  0.000000      4.000000
  0.166667  0.027778  0.000000      4.000000
  0.208333  0.027778  0.000000      4.000000
  0.250000  0.027778  0.000000      4.000000
  0.291667  0.027778  0.000000      4.000000
  0.333333  0.027778  0.000000      4.000000
  0.375000  0.027778  0.000000      4.000000
  0.416667  0.027778  0.000000      4.000000
  0.458333  0.027778  0.000000      4.000000
  0.500000  0.027778  0.000000      2.000000
  0.000000  0.055556  0.000000      2.000000
  0.041667  0.055556  0.000000      4.000000
  0.083333  0.055556  0.000000      4.000000
  0.125000  0.055556  0.000000      4.000000
  0.166667  0.055556  0.000000      4.000000
  0.208333  0.055556  0.000000      4.000000
  0.250000  0.055556  0.000000      4.000000
  0.291667  0.055556  0.000000      4.000000
  0.333333  0.055556  0.000000      4.000000
  0.375000  0.055556  0.000000      4.000000
  0.416667  0.055556  0.000000      4.000000
  0.458333  0.055556  0.000000      4.000000
  0.500000  0.055556  0.000000      2.000000
  0.000000  0.083333  0.000000      2.000000
  0.041667  0.083333  0.000000      4.000000
  0.083333  0.083333  0.000000      4.000000
  0.125000  0.083333  0.000000      4.000000
  0.166667  0.083333  0.000000      4.000000
  0.208333  0.083333  0.000000      4.000000
  0.250000  0.083333  0.000000      4.000000
  0.291667  0.083333  0.000000      4.000000
  0.333333  0.083333  0.000000      4.000000
  0.375000  0.083333  0.000000      4.000000
  0.416667  0.083333  0.000000      4.000000
  0.458333  0.083333  0.000000      4.000000
  0.500000  0.083333  0.000000      2.000000
  0.000000  0.111111  0.000000      2.000000
  0.041667  0.111111  0.000000      4.000000
  0.083333  0.111111  0.000000      4.000000
  0.125000  0.111111  0.000000      4.000000
  0.166667  0.111111  0.000000      4.000000
  0.208333  0.111111  0.000000      4.000000
  0.250000  0.111111  0.000000      4.000000
  0.291667  0.111111  0.000000      4.000000
[...]
  0.458333  0.472222  0.000000      4.000000
  0.500000  0.472222  0.000000      2.000000
  0.000000  0.500000  0.000000      1.000000
  0.041667  0.500000  0.000000      2.000000
  0.083333  0.500000  0.000000      2.000000
  0.125000  0.500000  0.000000      2.000000
  0.166667  0.500000  0.000000      2.000000
  0.208333  0.500000  0.000000      2.000000
  0.250000  0.500000  0.000000      2.000000
  0.291667  0.500000  0.000000      2.000000
  0.333333  0.500000  0.000000      2.000000
  0.375000  0.500000  0.000000      2.000000
  0.416667  0.500000  0.000000      2.000000
  0.458333  0.500000  0.000000      2.000000
  0.500000  0.500000  0.000000      1.000000

 Following cartesian coordinates:
            Coordinates               Weight
  0.000000  0.000000  0.000000      1.000000
  0.009750  0.000000  0.000000      2.000000
  0.019500  0.000000  0.000000      2.000000
  0.029250  0.000000  0.000000      2.000000
  0.039000  0.000000  0.000000      2.000000
  0.048749  0.000000  0.000000      2.000000
  0.058499  0.000000  0.000000      2.000000
  0.068249  0.000000  0.000000      2.000000
  0.077999  0.000000  0.000000      2.000000
  0.087749  0.000000  0.000000      2.000000
  0.097499  0.000000  0.000000      2.000000
  0.107249  0.000000  0.000000      2.000000
  0.116999  0.000000  0.000000      1.000000
  0.000000  0.011256  0.000000      2.000000
  0.009750  0.011256  0.000000      4.000000
  0.019500  0.011256  0.000000      4.000000
  0.029250  0.011256  0.000000      4.000000
  0.039000  0.011256  0.000000      4.000000
  0.048749  0.011256  0.000000      4.000000
  0.058499  0.011256  0.000000      4.000000
  0.068249  0.011256  0.000000      4.000000
  0.077999  0.011256  0.000000      4.000000
  0.087749  0.011256  0.000000      4.000000
  0.097499  0.011256  0.000000      4.000000
  0.107249  0.011256  0.000000      4.000000
  0.116999  0.011256  0.000000      2.000000
  0.000000  0.022512  0.000000      2.000000
  0.009750  0.022512  0.000000      4.000000
  0.019500  0.022512  0.000000      4.000000
  0.029250  0.022512  0.000000      4.000000
  0.039000  0.022512  0.000000      4.000000
  0.048749  0.022512  0.000000      4.000000
  0.058499  0.022512  0.000000      4.000000
  0.068249  0.022512  0.000000      4.000000
  0.077999  0.022512  0.000000      4.000000
  0.087749  0.022512  0.000000      4.000000
  0.097499  0.022512  0.000000      4.000000
  0.107249  0.022512  0.000000      4.000000
  0.116999  0.022512  0.000000      2.000000
  0.000000  0.033768  0.000000      2.000000
  0.009750  0.033768  0.000000      4.000000
  0.019500  0.033768  0.000000      4.000000
  0.029250  0.033768  0.000000      4.000000
  0.039000  0.033768  0.000000      4.000000
  0.048749  0.033768  0.000000      4.000000
  0.058499  0.033768  0.000000      4.000000
  0.068249  0.033768  0.000000      4.000000
  0.077999  0.033768  0.000000      4.000000
  0.087749  0.033768  0.000000      4.000000
  0.097499  0.033768  0.000000      4.000000
  0.107249  0.033768  0.000000      4.000000
  0.116999  0.033768  0.000000      2.000000
  0.000000  0.045024  0.000000      2.000000
  0.009750  0.045024  0.000000      4.000000
  0.019500  0.045024  0.000000      4.000000
  0.029250  0.045024  0.000000      4.000000
  0.039000  0.045024  0.000000      4.000000
  0.048749  0.045024  0.000000      4.000000
  0.058499  0.045024  0.000000      4.000000
  0.068249  0.045024  0.000000      4.000000
[...]
  0.107249  0.191354  0.000000      4.000000
  0.116999  0.191354  0.000000      2.000000
  0.000000  0.202610  0.000000      1.000000
  0.009750  0.202610  0.000000      2.000000
  0.019500  0.202610  0.000000      2.000000
  0.029250  0.202610  0.000000      2.000000
  0.039000  0.202610  0.000000      2.000000
  0.048749  0.202610  0.000000      2.000000
  0.058499  0.202610  0.000000      2.000000
  0.068249  0.202610  0.000000      2.000000
  0.077999  0.202610  0.000000      2.000000
  0.087749  0.202610  0.000000      2.000000
  0.097499  0.202610  0.000000      2.000000
  0.107249  0.202610  0.000000      2.000000
  0.116999  0.202610  0.000000      1.000000

 I would recommend the setting:
   dimension x,y,z NGX =    62 NGY =   36 NGZ =  292
[...]
 k-point ** :   0.4167 0.2778 0.0000  plane waves:   42808
 k-point ** :   0.4583 0.2778 0.0000  plane waves:   42820
 k-point ** :   0.5000 0.2778 0.0000  plane waves:   42826
 k-point ** :   0.0000 0.3056 0.0000  plane waves:   42886
 k-point ** :   0.0417 0.3056 0.0000  plane waves:   42900
 k-point ** :   0.0833 0.3056 0.0000  plane waves:   42881
 k-point ** :   0.1250 0.3056 0.0000  plane waves:   42847
 k-point ** :   0.1667 0.3056 0.0000  plane waves:   42884
 k-point ** :   0.2083 0.3056 0.0000  plane waves:   42856
 k-point ** :   0.2500 0.3056 0.0000  plane waves:   42845
 k-point ** :   0.2917 0.3056 0.0000  plane waves:   42839
 k-point ** :   0.3333 0.3056 0.0000  plane waves:   42840
 k-point ** :   0.3750 0.3056 0.0000  plane waves:   42834
 k-point ** :   0.4167 0.3056 0.0000  plane waves:   42820
 k-point ** :   0.4583 0.3056 0.0000  plane waves:   42810
 k-point ** :   0.5000 0.3056 0.0000  plane waves:   42848
 k-point ** :   0.0000 0.3333 0.0000  plane waves:   42908
 k-point ** :   0.0417 0.3333 0.0000  plane waves:   42897
 k-point ** :   0.0833 0.3333 0.0000  plane waves:   42881
[...]
 k-point ** :   0.4583 0.4722 0.0000  plane waves:   42807
 k-point ** :   0.5000 0.4722 0.0000  plane waves:   42834
 k-point ** :   0.0000 0.5000 0.0000  plane waves:   42878
 k-point ** :   0.0417 0.5000 0.0000  plane waves:   42944
 k-point ** :   0.0833 0.5000 0.0000  plane waves:   42920
 k-point ** :   0.1250 0.5000 0.0000  plane waves:   42922
 k-point ** :   0.1667 0.5000 0.0000  plane waves:   42910
 k-point ** :   0.2083 0.5000 0.0000  plane waves:   42950
 k-point ** :   0.2500 0.5000 0.0000  plane waves:   42936
 k-point ** :   0.2917 0.5000 0.0000  plane waves:   42888
 k-point ** :   0.3333 0.5000 0.0000  plane waves:   42844
 k-point ** :   0.3750 0.5000 0.0000  plane waves:   42822
 k-point ** :   0.4167 0.5000 0.0000  plane waves:   42792
 k-point ** :   0.4583 0.5000 0.0000  plane waves:   42818
 k-point ** :   0.5000 0.5000 0.0000  plane waves:   42800

 maximum and minimum number of plane-waves per node :     21498    21240

 maximum number of plane-waves:     42950
 maximum index in each direction:
   IXMAX=   15   IYMAX=    8   IZMAX=   72
   IXMIN=  -16   IYMIN=   -9   IZMIN=  -72

 NGX is ok and might be reduce to  64
 NGY is ok and might be reduce to  36
 NGZ is ok and might be reduce to 290

 parallel 3D FFT for wavefunctions:
    minimum data exchange during FFTs selected (reduces bandwidth)
 parallel 3D FFT for charge:
    minimum data exchange during FFTs selected (reduces bandwidth)

 Broyden mixing: mesh for mixing (old mesh)
   NGX = 31   NGY = 17   NGZ =145
  (NGX  =128   NGY  = 72   NGZ  =588)
  gives a total of  76415 points

 initial charge density was supplied:
 charge density of overlapping atoms calculated
 number of electron      16.0000000 magnetization
 keeping initial charge density in first step

 Maximum index for augmentation-charges         4659 (set IRDMAX)

 First call to EWALD:  gamma=   0.298
 Maximum number of real-space cells 4x 6x 1
 Maximum number of reciprocal cells 2x 1x 8

 FEWALD executed in parallel

----------------------------------------- Iteration    1(   1)  ---------------------------------------

 eigenvalue-minimisations  :  5928
 total energy-change (2. order) : 0.1909816E+03  (-0.1063469E+04)
 number of electron      16.0000000 magnetization
 augmentation part       16.0000000 magnetization

 Free energy of the ion-electron system (eV)
  alpha Z        PSCENC =         6.18334092
  Ewald energy   TEWEN  =      2584.06956305
  -Hartree energ DENC   =     -3009.53356342
  -exchange      EXHF   =         0.00000000
  -V(xc)+E(xc)   XCENC  =        55.09203181
  PAW double counting   =       151.32577238     -155.92769107
  entropy T*S    EENTRO =        -0.00170292
  eigenvalues    EBANDS =       -28.84966413
  atomic energy  EATOM  =       588.62352690
  free energy    TOTEN  =       190.98161353 eV

  energy without entropy =      190.98331646  energy(sigma->0) =      190.98246499

[...]

 eigenvalue-minimisations  : 10448
 total energy-change (2. order) :-0.1998829E+03  (-0.1775792E+03)
 number of electron      16.0000000 magnetization
 augmentation part       16.0000000 magnetization

[...]

 Broyden mixing:
  rms(total) = 0.73644E+00    rms(broyden)= 0.73644E+00
  rms(prec ) = 0.80067E+00
  weight for this iteration     100.00

[...]

 eigenvalues of (default mixing * dielectric matrix)
  average eigenvalue GAMMA=   2.3126
  2.3126

[...]

WARNING in EDDRMM: call to ZHEGV failed, returncode =   6  3  1
WARNING in EDDRMM: call to ZHEGV failed, returncode =   6  3  1

[...]

 average (electrostatic) potential at core
  the test charge radii are     0.6991
  (the norm of the test charge is              1.0000)
       1 -58.1916       2 -58.1916       3 -58.1916       4 -58.1916

 E-fermi :  -2.7549     XC(G=0):  -2.1442     alpha+bet : -1.9046

 k-point     1 :       0.0000    0.0000    0.0000
  band No.  band energies     occupation
      1     -22.2509      2.00000
      2     -17.0222      2.00000
      3     -15.9621      2.00000
      4     -10.3568      2.00000
      5      -9.1678      2.00000
      6      -5.8044      2.00000
      7      -5.7700      2.00000
      8      -5.1170      2.00000
      9      -0.4514      0.00000
     10       0.4290      0.00000
     11       1.3242      0.00000
     12       1.7164      0.00000

[...]

 soft charge-density along one line, spin component           1
         0         1         2         3         4         5         6         7         8         9
 total charge-density along one line

------------------------ aborting loop because EDIFF is reached ----------------------------------------

  FORCE on cell =-STRESS in cart. coord.  units (eV):
  Direction    XX          YY          ZZ          XY          YZ          ZX
  Alpha Z     6.18334     6.18334     6.18334
  Ewald    3121.00590  3121.94188 -3658.87848     0.00000     0.00000     0.00000
  Hartree  3055.29124  3055.41615 -3032.68572    -0.00000    -0.00000    -0.00000
  E(xc)     -58.33549   -58.33168   -60.67238    -0.00000    -0.00000    -0.00000
  Local   -6348.84859 -6349.73028  6485.42033     0.00000    -0.00000    -0.00000
  n-local   -13.94629   -13.93328   -12.76275     0.05725    -0.00000    -0.00000
  augment    -1.54006    -1.54151    -1.41371     0.00000     0.00000     0.00000
  Kinetic   240.14905   239.96067   274.80803    -4.60202    -0.00000     0.00000
  Fock        0.00000     0.00000     0.00000     0.00000     0.00000     0.00000
  Total      -0.04090    -0.03472    -0.00133     0.00000     0.00000     0.00000
  in kB      -0.31078    -0.26385    -0.01008     0.00000     0.00000     0.00000

 VOLUME and BASIS-vectors are now :
  energy-cutoff  :     2000.00
  volume of cell :      210.84
      direct lattice vectors                 reciprocal lattice vectors
     4.273552008  0.000000000  0.000000000     0.233997386  0.000000000  0.000000000
     0.000000000  2.467792749  0.000000000     0.000000000  0.405220414  0.000000000
     0.000000000  0.000000000 19.991758978     0.000000000  0.000000000  0.050020611

[...]

 FORCES acting on ions
    electron-ion (+dipol)            ewald-force                    non-local-force                 convergence-correction
   0.123E+00 -.354E-16 0.286E-09   -.159E+00 -.424E-14 -.677E-31   -.202E-01 0.347E-17 -.517E-24   -.137E-06 -.407E-14 0.193E-12
   -.123E+00 0.140E-13 -.454E-08   0.159E+00 -.190E-15 -.130E-18   0.202E-01 -.139E-16 0.827E-24   0.137E-06 0.132E-14 0.195E-12
   0.123E+00 0.586E-12 0.300E-09   -.159E+00 -.202E-14 0.677E-31   -.202E-01 0.347E-17 -.414E-24   -.137E-06 -.394E-14 0.193E-12
   -.123E+00 0.174E-15 -.454E-08   0.159E+00 0.203E-14 0.130E-18   0.202E-01 -.139E-16 0.000E+00   0.137E-06 0.118E-14 0.195E-12
   -.449E-06 0.601E-12 -.849E-08   -.611E-15 -.442E-14 0.481E-34   -.104E-16 -.208E-16 -.103E-24   0.104E-12 -.551E-14 0.776E-12

 POSITION                                       TOTAL-FORCE (eV/Angst)
      0.00056      0.00000      0.00000        -0.056048     -0.000000      0.000000
      0.71170      1.23390      0.00000         0.056048     -0.000000     -0.000000
      2.13734      1.23390      0.00000        -0.056048      0.000000      0.000000
      2.84847      0.00000      0.00000         0.056048      0.000000     -0.000000
    total drift:                               -0.000000      0.000000     -0.000000

  FREE ENERGIE OF THE ION-ELECTRON SYSTEM (eV)
  free  energy   TOTEN  =       -36.92542029 eV

  energy  without entropy=      -36.92529175  energy(sigma->0) =      -36.92535602

 Quasi-Newton relaxation of ions (Broydens 2nd method)
  g(Force)  = 0.606E-03   g(Stress)= 0.000E+00

 Reset! Starting new Quasi-Newton update for ions

[...]

 eigenvalue-minimisations  :  2355
 total energy-change (2. order) : 0.3067271E-09  ( 0.6771731E-13)
 number of electron      16.0000000 magnetization
 augmentation part        0.3817047 magnetization

[...]

 d Force =-0.9201404E-03[-0.245E-02, 0.606E-03]  d Energy =-0.9133713E-03-0.677E-05
 d Force =-0.3502501E-02[-0.872E-02, 0.172E-02]  d Ewald  =-0.3486642E-02-0.159E-04

[...]

 retain information from N=  1 steps
 eigenvalues of (default step * inverse Hessian matrix)
  average eigenvalue of G=   0.1986
 eigenvalue spectrum of G is  0.1986

[...]

 d Force = 0.9781023E-03[-0.445E-05, 0.196E-02]  d Energy = 0.9741160E-03 0.399E-05
 d Force = 0.3631568E-02[ 0.273E-03, 0.699E-02]  d Ewald  = 0.3623401E-02 0.817E-05

[...]

WARNING in EDDRMM: call to ZHEGV failed, returncode =   6  3  1

[...]

 d Force = 0.4993883E-08[-0.111E-09, 0.101E-07]  d Energy = 0.5788593E-08-0.795E-09
 d Force =-0.6363646E-06[-0.653E-06,-0.619E-06]  d Ewald  =-0.6363643E-06-0.455E-12

[...]

 eigenvalue-minimisations  :  1864
 total energy-change (2. order) :-0.4797585E-09  ( 0.1977842E-14)
 number of electron      16.0000000 magnetization
 augmentation part        0.3817004 magnetization

[...]

 d Force = 0.3608427E-12[-0.476E-12, 0.120E-11]  d Energy = 0.7048584E-11-0.669E-11
 d Force = 0.7076637E-08[ 0.707E-08, 0.708E-08]  d Ewald  = 0.7076778E-08 0.000E+00

[...]

 d Force =-0.1305992E-13[-0.162E-12, 0.135E-12]  d Energy =-0.3141167E-09 0.314E-09
 d Force =-0.2012456E-08[-0.201E-08,-0.201E-08]  d Ewald  =-0.2013167E-08 0.909E-12

[...]

 FEWALD executed in parallel

[...]

 eigenvalue-minimisations  :   821
 total energy-change (2. order) : 0.8822099E-10  (-0.1595432E-14)
 number of electron      16.0000000 magnetization
 augmentation part        0.3817004 magnetization

[...]

 eigenvalue-minimisations  :   946
 total energy-change (2. order) :-0.3066134E-09  (-0.7483726E-15)
 number of electron      16.0000000 magnetization
 augmentation part        0.3817004 magnetization

[...]

 eigenvalue-minimisations  :   843
 total energy-change (2. order) :-0.1166427E-09  ( 0.4691720E-14)
 number of electron      16.0000000 magnetization
 augmentation part        0.3817004 magnetization

 Broyden mixing:
  rms(total) = 0.27118E-10    rms(broyden)= 0.26962E-10
  rms(prec ) = 0.42390E-10
  weight for this iteration     100.00

 eigenvalues of (default mixing * dielectric matrix)
  average eigenvalue GAMMA=   1.7173
  2.7661  2.7661  2.5594  0.9844  0.9844  0.2436

[...]

----------------------------------------- Iteration    7(   8)  ---------------------------------------

 eigenvalue-minimisations  :   374
 total energy-change (2. order) : 0.7821654E-10  ( 0.9868649E-15)
 number of electron      16.0000000 magnetization
 augmentation part        0.3817004 magnetization

 Free energy of the ion-electron system (eV)
  alpha Z        PSCENC =         6.18334092
  Ewald energy   TEWEN  =      2584.06942693
  -Hartree energ DENC   =     -3078.02157354
  -exchange      EXHF   =         0.00000000
  -V(xc)+E(xc)   XCENC  =        57.51500434
  PAW double counting   =       276.91285399     -282.06095823
  entropy T*S    EENTRO =        -0.00013055
  eigenvalues    EBANDS =      -190.14697181
  atomic energy  EATOM  =       588.62352690
  free energy    TOTEN  =       -36.92548104 eV

  energy without entropy =      -36.92535049  energy(sigma->0) =      -36.92541577

 average (electrostatic) potential at core
  the test charge radii are     0.6991
  (the norm of the test charge is              1.0000)
       1 -58.1916       2 -58.1916       3 -58.1916       4 -58.1916

 E-fermi :  -2.7549     XC(G=0):  -2.1428     alpha+bet : -1.9046

[...]

 k-point   247 :       0.5000    0.5000    0.0000
  band No.  band energies     occupation
      1     -17.0207      2.00000
      2     -17.0207      2.00000
      3     -15.9711      2.00000
      4     -15.9711      2.00000
      5      -9.1571      2.00000
      6      -9.1571      2.00000
      7      -5.1113      2.00000
      8      -5.1113      2.00000
      9      -1.0767      0.00000
     10      -1.0767      0.00000
     11       4.6044      0.00000
     12       4.6044      0.00000

 soft charge-density along one line, spin component           1
         0         1         2         3         4         5         6         7         8         9
 total charge-density along one line

------------------------ aborting loop because EDIFF is reached ----------------------------------------

  FORCE on cell =-STRESS in cart. coord.  units (eV):
  Direction    XX          YY          ZZ          XY          YZ          ZX
  Alpha Z     6.18334     6.18334     6.18334
  Ewald    3121.48071  3121.46694 -3658.87848    -0.00000     0.00000     0.00000
  Hartree  3055.35656  3055.35072 -3032.68571     0.00000    -0.00000    -0.00000
  E(xc)     -58.33369   -58.33347   -60.67237    -0.00000     0.00000    -0.00000
  Local   -6349.29790 -6349.28089  6485.42037    -0.00000     0.00000    -0.00000
  n-local   -13.94246   -13.93712   -12.76274     0.05662     0.00000     0.00000
  augment    -1.54081    -1.54076    -1.41371    -0.00000     0.00000    -0.00000
  Kinetic   240.07412   240.03547   274.80798    -4.59965    -0.00000    -0.00000
  Fock        0.00000     0.00000     0.00000     0.00000     0.00000     0.00000
  Total      -0.02012    -0.05577    -0.00132     0.00000     0.00000     0.00000
  in kB      -0.15289    -0.42377    -0.01000     0.00000     0.00000     0.00000

 VOLUME and BASIS-vectors are now :
  energy-cutoff  :     2000.00
  volume of cell :      210.84
      direct lattice vectors                 reciprocal lattice vectors
     4.273552008  0.000000000  0.000000000     0.233997386  0.000000000  0.000000000
     0.000000000  2.467792749  0.000000000     0.000000000  0.405220414  0.000000000
     0.000000000  0.000000000 19.991758978     0.000000000  0.000000000  0.050020611

  length of vectors
     4.273552008  2.467792749 19.991758978     0.233997386  0.405220414  0.050020611

 FORCES acting on ions
    electron-ion (+dipol)            ewald-force                    non-local-force                 convergence-correction
   -.331E-01 0.649E-15 0.115E-10   0.332E-01 -.271E-14 -.679E-18   -.993E-04 0.104E-16 0.162E-26   0.295E-09 -.684E-14 0.339E-12
   0.331E-01 0.217E-12 -.515E-08   -.332E-01 -.285E-14 0.644E-19   0.993E-04 -.104E-16 -.808E-27   -.295E-09 0.509E-14 0.349E-12
   -.331E-01 -.204E-12 0.200E-10   0.332E-01 0.639E-15 0.681E-18   -.993E-04 -.104E-16 0.162E-26   0.295E-09 -.729E-14 0.305E-12
   0.331E-01 -.588E-15 -.521E-08   -.332E-01 0.502E-15 -.661E-19   0.993E-04 -.104E-16 -.121E-26   -.295E-09 0.544E-14 0.294E-12
   -.472E-06 0.132E-13 -.103E-07   -.680E-15 -.442E-14 0.120E-34   0.813E-19 -.208E-16 0.121E-26   0.316E-14 -.360E-14 0.129E-11

 POSITION                                       TOTAL-FORCE (eV/Angst)
      0.00002      0.00000      0.00000         0.000000     -0.000000      0.000000
      0.71224      1.23390     -0.00000        -0.000000      0.000000      0.000000
      2.13680      1.23390      0.00000         0.000000      0.000000      0.000000
      2.84901      0.00000     -0.00000        -0.000000     -0.000000     -0.000000
    total drift:                               -0.000000      0.000000     -0.000000

  FREE ENERGIE OF THE ION-ELECTRON SYSTEM (eV)
  free  energy   TOTEN  =       -36.92548104 eV

  energy  without entropy=      -36.92535049  energy(sigma->0) =      -36.92541577

 d Force = 0.5185252E-13[ 0.158E-13, 0.879E-13]  d Energy = 0.1883791E-09-0.188E-09
 d Force = 0.1094767E-08[ 0.109E-08, 0.109E-08]  d Ewald  = 0.1095486E-08-0.909E-12

 Quasi-Newton relaxation of ions (Broydens 2nd method)
  g(Force)  = 0.446E-13   g(Stress)= 0.000E+00

 retain information from N=  1 steps
 eigenvalues of (default step * inverse Hessian matrix)
  average eigenvalue of G=   0.0780
 eigenvalue spectrum of G is  0.0780

 reached required accuracy - stopping structural energy minimisation