 vasp.5.3.5 31Mar14 (build Mar 02 2015 18:14:16) complex

 executed on             LinuxIFC date 2018.08.07  16:36:46

 INCAR:
 POTCAR:   PAW_PBE C 08Apr2002
 POTCAR:   PAW_PBE C 08Apr2002
   VRHFIN =C: s2p2

   TITEL  = PAW_PBE C 08Apr2002
   POMASS =   12.011; ZVAL   =    4.000    mass and valenz
   ENMAX  =  400.000; ENMIN  =  300.000 eV
   QCUT   =   -5.516; QGAM   =   11.032    optimization parameters

   Description
     l     E      TYP  RCUT    TYP  RCUT
     0   .000     23  1.200
     0   .000     23  1.200
     1   .000     23  1.500
     1  2.500     23  1.500
     2   .000      7  1.500

 PAW_PBE C 08Apr2002                    :

 POSCAR: MD-kMC export data
  positions in direct lattice
  velocities in cartesian coordinates
 exchange correlation table for  LEXCH =        8
   RHO(1)=    0.500       N(1)  =     2000
   RHO(2)=  100.500       N(2)  =     4000

 ion  position               nearest neighbor table
   1  1.000  0.000  0.000-   2 1.43   2 1.43   4 1.44
   2  0.167  0.500  0.000-   1 1.43   1 1.43   3 1.44
   3  0.500  0.500  0.000-   4 1.43   4 1.43   2 1.44
   4  0.667  0.000  0.000-   3 1.43   3 1.43   1 1.44

  LATTYP: Found a simple orthorhombic cell.
 ALAT       =     2.4627616649
 B/A-ratio  =     1.7528478404
 C/A-ratio  =     8.0526219867

  Lattice vectors:

 A1 = (   0.0000000000,  -2.4627616649,   0.0000000000)
 A2 = (  -4.3168464657,   0.0000000000,   0.0000000000)
 A3 = (   0.0000000000,   0.0000000000, -19.8316887305)

Analysis of symmetry for initial positions (statically):
 Subroutine PRICEL returns following result:

  LATTYP: Found a base centered orthorhombic cell.
 ALAT       =     2.4627616649
 B/A-ratio  =     1.7528478404
 C/A-ratio  =     8.0526219867

[...]

   2 primitive cells build up your supercell.

 Routine SETGRP: Setting up the symmetry group for a
 simple orthorhombic supercell.

 Subroutine GETGRP returns: Found  8 space group operations
 (whereof  4 operations were pure point group operations)
 out of a pool of  8 trial point group operations.

The static configuration has the point symmetry C_2v.
 The point group associated with its full space group is D_2h.

Analysis of symmetry for dynamics (positions and initial velocities):
 Subroutine PRICEL returns following result:

  LATTYP: Found a base centered orthorhombic cell.
 ALAT       =     2.4627616649
 B/A-ratio  =     1.7528478404
 C/A-ratio  =     8.0526219867

  Lattice vectors:

 A1 = (   2.1584232328,  -1.2313808324,   0.0000000000)
 A2 = (  -2.1584232328,  -1.2313808324,   0.0000000000)
 A3 = (   0.0000000000,   0.0000000000, -19.8316887305)

   2 primitive cells build up your supercell.

 Routine SETGRP: Setting up the symmetry group for a
 simple orthorhombic supercell.

 Subroutine GETGRP returns: Found  8 space group operations
 (whereof  4 operations were pure point group operations)
 out of a pool of  8 trial point group operations.

The dynamic configuration has the point symmetry C_2v.
 The point group associated with its full space group is D_2h.

 KPOINTS: Automatic mesh

Automatic generation of k-mesh.
Space group operators:
 irot       det(A)        alpha          n_x          n_y          n_z        tau_x        tau_y        tau_z
    1     1.000000     0.000000     1.000000     0.000000     0.000000     0.000000     0.000000     0.000000
    2    -1.000000   180.000000     0.000000     0.000000     1.000000     0.000000     0.000000     0.000000
    3     1.000000   180.000000     1.000000     0.000000     0.000000     0.000000     0.000000     0.000000
    4    -1.000000   180.000000     0.000000     1.000000     0.000000     0.000000     0.000000     0.000000
    5    -1.000000     0.000000     1.000000     0.000000     0.000000     0.166667    -0.500000     0.000000
    6     1.000000   180.000000     0.000000     0.000000     1.000000     0.166667    -0.500000     0.000000
    7    -1.000000   180.000000     1.000000     0.000000     0.000000     0.166667    -0.500000     0.000000
    8     1.000000   180.000000     0.000000     1.000000     0.000000     0.166667    -0.500000     0.000000

 Subroutine IBZKPT returns following result:

 Found    247 irreducible k-points:

 Following reciprocal coordinates:
            Coordinates               Weight
  0.000000  0.000000  0.000000      1.000000
  0.041667  0.000000  0.000000      2.000000
  0.083333  0.000000  0.000000      2.000000
  0.125000  0.000000  0.000000      2.000000
  0.166667  0.000000  0.000000      2.000000
  0.208333  0.000000  0.000000      2.000000
  0.250000  0.000000  0.000000      2.000000
  0.291667  0.000000  0.000000      2.000000
  0.333333  0.000000  0.000000      2.000000
  0.375000  0.000000  0.000000      2.000000
  0.416667  0.000000  0.000000      2.000000
  0.458333  0.000000  0.000000      2.000000
  0.500000  0.000000  0.000000      1.000000
  0.000000  0.027778  0.000000      2.000000
  0.041667  0.027778  0.000000      4.000000
  0.083333  0.027778  0.000000      4.000000
  0.125000  0.027778  0.000000      4.000000
  0.166667  0.027778  0.000000      4.000000
  0.208333  0.027778  0.000000      4.000000
  0.250000  0.027778  0.000000      4.000000
  0.291667  0.027778  0.000000      4.000000
  0.333333  0.027778  0.000000      4.000000
  0.375000  0.027778  0.000000      4.000000
  0.416667  0.027778  0.000000      4.000000
  0.458333  0.027778  0.000000      4.000000
  0.500000  0.027778  0.000000      2.000000
  0.000000  0.055556  0.000000      2.000000
  0.041667  0.055556  0.000000      4.000000
  0.083333  0.055556  0.000000      4.000000
  0.125000  0.055556  0.000000      4.000000
  0.166667  0.055556  0.000000      4.000000
  0.208333  0.055556  0.000000      4.000000
  0.250000  0.055556  0.000000      4.000000
  0.291667  0.055556  0.000000      4.000000
  0.333333  0.055556  0.000000      4.000000
  0.375000  0.055556  0.000000      4.000000
  0.416667  0.055556  0.000000      4.000000
  0.458333  0.055556  0.000000      4.000000
  0.500000  0.055556  0.000000      2.000000
  0.000000  0.083333  0.000000      2.000000
  0.041667  0.083333  0.000000      4.000000
  0.083333  0.083333  0.000000      4.000000
  0.125000  0.083333  0.000000      4.000000
  0.166667  0.083333  0.000000      4.000000
  0.208333  0.083333  0.000000      4.000000
  0.250000  0.083333  0.000000      4.000000
  0.291667  0.083333  0.000000      4.000000
  0.333333  0.083333  0.000000      4.000000
  0.375000  0.083333  0.000000      4.000000
  0.416667  0.083333  0.000000      4.000000
  0.458333  0.083333  0.000000      4.000000
  0.500000  0.083333  0.000000      2.000000
  0.000000  0.111111  0.000000      2.000000
  0.041667  0.111111  0.000000      4.000000
  0.083333  0.111111  0.000000      4.000000
  0.125000  0.111111  0.000000      4.000000
  0.166667  0.111111  0.000000      4.000000
  0.208333  0.111111  0.000000      4.000000
  0.250000  0.111111  0.000000      4.000000
  0.291667  0.111111  0.000000      4.000000
[...]
  0.458333  0.472222  0.000000      4.000000
  0.500000  0.472222  0.000000      2.000000
  0.000000  0.500000  0.000000      1.000000
  0.041667  0.500000  0.000000      2.000000
  0.083333  0.500000  0.000000      2.000000
  0.125000  0.500000  0.000000      2.000000
  0.166667  0.500000  0.000000      2.000000
  0.208333  0.500000  0.000000      2.000000
  0.250000  0.500000  0.000000      2.000000
  0.291667  0.500000  0.000000      2.000000
  0.333333  0.500000  0.000000      2.000000
  0.375000  0.500000  0.000000      2.000000
  0.416667  0.500000  0.000000      2.000000
  0.458333  0.500000  0.000000      2.000000
  0.500000  0.500000  0.000000      1.000000

 Following cartesian coordinates:
            Coordinates               Weight
  0.000000  0.000000  0.000000      1.000000
  0.009652  0.000000  0.000000      2.000000
  0.019304  0.000000  0.000000      2.000000
  0.028956  0.000000  0.000000      2.000000
  0.038608  0.000000  0.000000      2.000000
  0.048261  0.000000  0.000000      2.000000
  0.057913  0.000000  0.000000      2.000000
  0.067565  0.000000  0.000000      2.000000
  0.077217  0.000000  0.000000      2.000000
  0.086869  0.000000  0.000000      2.000000
  0.096521  0.000000  0.000000      2.000000
  0.106173  0.000000  0.000000      2.000000
  0.115825  0.000000  0.000000      1.000000
  0.000000  0.011279  0.000000      2.000000
  0.009652  0.011279  0.000000      4.000000
  0.019304  0.011279  0.000000      4.000000
  0.028956  0.011279  0.000000      4.000000
  0.038608  0.011279  0.000000      4.000000
  0.048261  0.011279  0.000000      4.000000
  0.057913  0.011279  0.000000      4.000000
  0.067565  0.011279  0.000000      4.000000
  0.077217  0.011279  0.000000      4.000000
  0.086869  0.011279  0.000000      4.000000
  0.096521  0.011279  0.000000      4.000000
  0.106173  0.011279  0.000000      4.000000
  0.115825  0.011279  0.000000      2.000000
  0.000000  0.022558  0.000000      2.000000
  0.009652  0.022558  0.000000      4.000000
  0.019304  0.022558  0.000000      4.000000
  0.028956  0.022558  0.000000      4.000000
  0.038608  0.022558  0.000000      4.000000
  0.048261  0.022558  0.000000      4.000000
  0.057913  0.022558  0.000000      4.000000
  0.067565  0.022558  0.000000      4.000000
  0.077217  0.022558  0.000000      4.000000
  0.086869  0.022558  0.000000      4.000000
  0.096521  0.022558  0.000000      4.000000
  0.106173  0.022558  0.000000      4.000000
  0.115825  0.022558  0.000000      2.000000
  0.000000  0.033837  0.000000      2.000000
  0.009652  0.033837  0.000000      4.000000
  0.019304  0.033837  0.000000      4.000000
  0.028956  0.033837  0.000000      4.000000
  0.038608  0.033837  0.000000      4.000000
  0.048261  0.033837  0.000000      4.000000
  0.057913  0.033837  0.000000      4.000000
  0.067565  0.033837  0.000000      4.000000
  0.077217  0.033837  0.000000      4.000000
  0.086869  0.033837  0.000000      4.000000
  0.096521  0.033837  0.000000      4.000000
  0.106173  0.033837  0.000000      4.000000
  0.115825  0.033837  0.000000      2.000000
  0.000000  0.045116  0.000000      2.000000
  0.009652  0.045116  0.000000      4.000000
  0.019304  0.045116  0.000000      4.000000
  0.028956  0.045116  0.000000      4.000000
  0.038608  0.045116  0.000000      4.000000
  0.048261  0.045116  0.000000      4.000000
  0.057913  0.045116  0.000000      4.000000
  0.067565  0.045116  0.000000      4.000000
[...]
  0.106173  0.191745  0.000000      4.000000
  0.115825  0.191745  0.000000      2.000000
  0.000000  0.203024  0.000000      1.000000
  0.009652  0.203024  0.000000      2.000000
  0.019304  0.203024  0.000000      2.000000
  0.028956  0.203024  0.000000      2.000000
  0.038608  0.203024  0.000000      2.000000
  0.048261  0.203024  0.000000      2.000000
  0.057913  0.203024  0.000000      2.000000
  0.067565  0.203024  0.000000      2.000000
  0.077217  0.203024  0.000000      2.000000
  0.086869  0.203024  0.000000      2.000000
  0.096521  0.203024  0.000000      2.000000
  0.106173  0.203024  0.000000      2.000000
  0.115825  0.203024  0.000000      1.000000

 I would recommend the setting:
   dimension x,y,z NGX =    63 NGY =   36 NGZ =  289
[...]
 k-point ** :   0.0417 0.2778 0.0000  plane waves:   42874
 k-point ** :   0.0833 0.2778 0.0000  plane waves:   42852
 k-point ** :   0.1250 0.2778 0.0000  plane waves:   42853
 k-point ** :   0.1667 0.2778 0.0000  plane waves:   42843
 k-point ** :   0.2083 0.2778 0.0000  plane waves:   42811
 k-point ** :   0.2500 0.2778 0.0000  plane waves:   42835
 k-point ** :   0.2917 0.2778 0.0000  plane waves:   42825
 k-point ** :   0.3333 0.2778 0.0000  plane waves:   42841
 k-point ** :   0.3750 0.2778 0.0000  plane waves:   42846
 k-point ** :   0.4167 0.2778 0.0000  plane waves:   42857
 k-point ** :   0.4583 0.2778 0.0000  plane waves:   42838
 k-point ** :   0.5000 0.2778 0.0000  plane waves:   42860
 k-point ** :   0.0000 0.3056 0.0000  plane waves:   42888
 k-point ** :   0.0417 0.3056 0.0000  plane waves:   42860
 k-point ** :   0.0833 0.3056 0.0000  plane waves:   42881
 k-point ** :   0.1250 0.3056 0.0000  plane waves:   42866
 k-point ** :   0.1667 0.3056 0.0000  plane waves:   42837
 k-point ** :   0.2083 0.3056 0.0000  plane waves:   42838
 k-point ** :   0.2500 0.3056 0.0000  plane waves:   42845
 k-point ** :   0.2917 0.3056 0.0000  plane waves:   42842
 k-point ** :   0.3333 0.3056 0.0000  plane waves:   42856
 k-point ** :   0.3750 0.3056 0.0000  plane waves:   42856
 k-point ** :   0.4167 0.3056 0.0000  plane waves:   42858
 k-point ** :   0.4583 0.3056 0.0000  plane waves:   42844
 k-point ** :   0.5000 0.3056 0.0000  plane waves:   42852
 k-point ** :   0.0000 0.3333 0.0000  plane waves:   42888
 k-point ** :   0.0417 0.3333 0.0000  plane waves:   42885
 k-point ** :   0.0833 0.3333 0.0000  plane waves:   42901
[...]
 k-point ** :   0.4583 0.4722 0.0000  plane waves:   42857
 k-point ** :   0.5000 0.4722 0.0000  plane waves:   42874
 k-point ** :   0.0000 0.5000 0.0000  plane waves:   42910
 k-point ** :   0.0417 0.5000 0.0000  plane waves:   42902
 k-point ** :   0.0833 0.5000 0.0000  plane waves:   42872
 k-point ** :   0.1250 0.5000 0.0000  plane waves:   42854
 k-point ** :   0.1667 0.5000 0.0000  plane waves:   42912
 k-point ** :   0.2083 0.5000 0.0000  plane waves:   42896
 k-point ** :   0.2500 0.5000 0.0000  plane waves:   42884
 k-point ** :   0.2917 0.5000 0.0000  plane waves:   42878
 k-point ** :   0.3333 0.5000 0.0000  plane waves:   42898
 k-point ** :   0.3750 0.5000 0.0000  plane waves:   42904
 k-point ** :   0.4167 0.5000 0.0000  plane waves:   42918
 k-point ** :   0.4583 0.5000 0.0000  plane waves:   42896
 k-point ** :   0.5000 0.5000 0.0000  plane waves:   42840

 maximum and minimum number of plane-waves per node :     21490    21240

 maximum number of plane-waves:     42924
 maximum index in each direction:
   IXMAX=   15   IYMAX=    8   IZMAX=   72
   IXMIN=  -16   IYMIN=   -9   IZMIN=  -72

 NGX is ok and might be reduce to  64
 NGY is ok and might be reduce to  36
 NGZ is ok and might be reduce to 290

 parallel 3D FFT for wavefunctions:
    minimum data exchange during FFTs selected (reduces bandwidth)
 parallel 3D FFT for charge:
    minimum data exchange during FFTs selected (reduces bandwidth)

 Broyden mixing: mesh for mixing (old mesh)
   NGX = 31   NGY = 17   NGZ =145
  (NGX  =128   NGY  = 72   NGZ  =588)
  gives a total of  76415 points

 initial charge density was supplied:
 charge density of overlapping atoms calculated
 number of electron      16.0000000 magnetization
 keeping initial charge density in first step

 Maximum index for augmentation-charges         4671 (set IRDMAX)

 First call to EWALD:  gamma=   0.298
 Maximum number of real-space cells 4x 6x 1
 Maximum number of reciprocal cells 2x 1x 8

 FEWALD executed in parallel

----------------------------------------- Iteration    1(   1)  ---------------------------------------

 eigenvalue-minimisations  :  5928
 total energy-change (2. order) : 0.1884832E+03  (-0.1062674E+04)
 number of electron      16.0000000 magnetization
 augmentation part       16.0000000 magnetization

 Free energy of the ion-electron system (eV)
  alpha Z        PSCENC =         6.18334092
  Ewald energy   TEWEN  =      2530.02291488
  -Hartree energ DENC   =     -2957.10324778
  -exchange      EXHF   =         0.00000000
  -V(xc)+E(xc)   XCENC  =        54.98267038
  PAW double counting   =       151.32577238     -155.92769107
  entropy T*S    EENTRO =        -0.00193368
  eigenvalues    EBANDS =       -29.62216323
  atomic energy  EATOM  =       588.62352690
  free energy    TOTEN  =       188.48318970 eV

  energy without entropy =      188.48512339  energy(sigma->0) =      188.48415654

[...]

 eigenvalue-minimisations  : 10460
 total energy-change (2. order) :-0.1982821E+03  (-0.1769239E+03)
 number of electron      16.0000000 magnetization
 augmentation part       16.0000000 magnetization

[...]

 Broyden mixing:
  rms(total) = 0.72458E+00    rms(broyden)= 0.72458E+00
  rms(prec ) = 0.78856E+00
  weight for this iteration     100.00

[...]

 eigenvalues of (default mixing * dielectric matrix)
  average eigenvalue GAMMA=   2.3126
  2.3126

[...]

 average (electrostatic) potential at core
  the test charge radii are     0.6991
  (the norm of the test charge is              1.0000)
       1 -58.2404       2 -58.2404       3 -58.2404       4 -58.2404

 E-fermi :  -2.7831     XC(G=0):  -2.1563     alpha+bet : -1.9046

 k-point     1 :       0.0000    0.0000    0.0000
  band No.  band energies     occupation
      1     -22.1833      2.00000
      2     -17.1213      2.00000
      3     -15.9180      2.00000
      4     -10.3046      2.00000
      5      -9.0105      2.00000
      6      -5.8788      2.00000
      7      -5.7610      2.00000
      8      -5.2049      2.00000
      9      -1.1223      0.00000
     10       0.5323      0.00000
     11       1.3327      0.00000
     12       1.7183      0.00000

[...]

 soft charge-density along one line, spin component           1
         0         1         2         3         4         5         6         7         8         9
 total charge-density along one line

------------------------ aborting loop because EDIFF is reached ----------------------------------------

  FORCE on cell =-STRESS in cart. coord.  units (eV):
  Direction    XX          YY          ZZ          XY          YZ          ZX
  Alpha Z     6.18334     6.18334     6.18334
  Ewald    3064.61098  3065.93286 -3600.52116     0.00000     0.00000     0.00000
  Hartree  3001.03501  3001.49383 -2978.41950    -0.00000    -0.00000    -0.00000
  E(xc)     -58.18403   -58.19583   -60.52173    -0.00000    -0.00000    -0.00000
  Local   -6238.54691 -6240.10850  6373.15397     0.00000    -0.00000    -0.00000
  n-local   -13.56012   -13.90127   -12.65072     0.06056     0.00000     0.00000
  augment    -1.51543    -1.51663    -1.39697     0.00000     0.00000     0.00000
  Kinetic   237.73893   240.11305   274.17140    -4.53751    -0.00000    -0.00000
  Fock        0.00000     0.00000     0.00000     0.00000     0.00000     0.00000
  Total      -2.23823     0.00084    -0.00136     0.00000     0.00000     0.00000
  in kB     -17.00855     0.00642    -0.01034     0.00000     0.00000     0.00000

 VOLUME and BASIS-vectors are now :
  energy-cutoff  :     2000.00
  volume of cell :      210.84
      direct lattice vectors                 reciprocal lattice vectors
     4.316846466  0.000000000  0.000000000     0.231650583  0.000000000  0.000000000
     0.000000000  2.462761665  0.000000000     0.000000000  0.406048224  0.000000000
     0.000000000  0.000000000 19.831688730     0.000000000  0.000000000  0.050424349

[...]

 FORCES acting on ions
    electron-ion (+dipol)            ewald-force                    non-local-force                 convergence-correction
   0.222E+01 0.124E-15 -.711E-09   -.222E+01 -.518E-14 -.449E-18   0.124E-02 0.104E-16 -.646E-26   0.208E-05 -.379E-14 0.190E-12
   -.222E+01 -.177E-12 -.694E-08   0.222E+01 0.394E-14 0.695E-18   -.124E-02 0.104E-16 0.646E-26   -.208E-05 0.668E-15 0.190E-12
   0.222E+01 -.206E-12 -.745E-09   -.222E+01 -.868E-14 -.744E-18   0.124E-02 0.104E-16 0.000E+00   0.208E-05 -.373E-14 0.190E-12
   -.222E+01 0.112E-15 -.696E-08   0.222E+01 0.439E-15 0.498E-18   -.124E-02 0.104E-16 0.000E+00   -.208E-05 0.616E-15 0.190E-12
   -.114E-05 -.383E-12 -.154E-07   -.577E-14 -.949E-14 -.963E-34   -.434E-18 0.416E-16 0.000E+00   -.121E-11 -.623E-14 0.760E-12

 POSITION                                       TOTAL-FORCE (eV/Angst)
      4.31579      0.00000      0.00000        -0.001110      0.000000     -0.000000
      0.72054      1.23138      0.00000         0.001110     -0.000000      0.000000
      2.15736      1.23138      0.00000        -0.001110     -0.000000     -0.000000
      2.87896      0.00000      0.00000         0.001110      0.000000      0.000000
    total drift:                               -0.000001     -0.000000     -0.000000

  FREE ENERGIE OF THE ION-ELECTRON SYSTEM (eV)
  free  energy   TOTEN  =       -36.91415801 eV

  energy  without entropy=      -36.91413023  energy(sigma->0) =      -36.91414412

 Quasi-Newton relaxation of ions (Broydens 2nd method)
  g(Force)  = 0.238E-06   g(Stress)= 0.000E+00

 Reset! Starting new Quasi-Newton update for ions

[...]

 d Force =-0.3508454E-06[-0.940E-06, 0.238E-06]  d Energy =-0.3564452E-06 0.560E-08
 d Force = 0.4736127E-03[ 0.472E-03, 0.476E-03]  d Ewald  = 0.4736129E-03-0.127E-09

[...]

 retain information from N=  1 steps
 eigenvalues of (default step * inverse Hessian matrix)
  average eigenvalue of G=   0.2020
 eigenvalue spectrum of G is  0.2020

[...]

 d Force = 0.3751216E-06[ 0.483E-09, 0.750E-06]  d Energy = 0.3795288E-06-0.441E-08
 d Force =-0.3775972E-03[-0.379E-03,-0.376E-03]  d Ewald  =-0.3775973E-03 0.614E-10

[...]

 eigenvalue-minimisations  :  4648
 total energy-change (2. order) : 0.6135679E-09  ( 0.5690848E-09)
 number of electron      16.0000000 magnetization
 augmentation part        0.3780631 magnetization

[...]

 eigenvalue-minimisations  :  1646
 total energy-change (2. order) :-0.7192966E-09  ( 0.2261565E-13)
 number of electron      16.0000000 magnetization
 augmentation part        0.3780631 magnetization

[...]

 d Force = 0.3751356E-13[-0.237E-12, 0.312E-12]  d Energy = 0.2718252E-09-0.272E-09
 d Force =-0.2443366E-06[-0.244E-06,-0.244E-06]  d Ewald  =-0.2443367E-06 0.000E+00

[...]

 FEWALD executed in parallel

[...]

 eigenvalue-minimisations  :  4600
 total energy-change (2. order) : 0.7934204E-09  ( 0.5699872E-09)
 number of electron      16.0000000 magnetization
 augmentation part        0.3780631 magnetization

[...]

 eigenvalue-minimisations  :  1123
 total energy-change (2. order) : 0.3173000E-09  (-0.1472073E-14)
 number of electron      16.0000000 magnetization
 augmentation part        0.3780631 magnetization

[...]

 eigenvalue-minimisations  :  1175
 total energy-change (2. order) :-0.2912657E-09  ( 0.3717191E-14)
 number of electron      16.0000000 magnetization
 augmentation part        0.3780631 magnetization

 Broyden mixing:
  rms(total) = 0.34686E-09    rms(broyden)= 0.34679E-09
  rms(prec ) = 0.41429E-09
  weight for this iteration     100.00

 eigenvalues of (default mixing * dielectric matrix)
  average eigenvalue GAMMA=   2.1286
  5.2208  2.5649  2.5649  0.9470  0.9470  0.5273

[...]

----------------------------------------- Iteration    5(   8)  ---------------------------------------

 eigenvalue-minimisations  :  1136
 total energy-change (2. order) :-0.1261924E-10  (-0.4276415E-14)
 number of electron      16.0000000 magnetization
 augmentation part        0.3780631 magnetization

 Free energy of the ion-electron system (eV)
  alpha Z        PSCENC =         6.18334092
  Ewald energy   TEWEN  =      2530.02281901
  -Hartree energ DENC   =     -3024.10928711
  -exchange      EXHF   =         0.00000000
  -V(xc)+E(xc)   XCENC  =        57.36653528
  PAW double counting   =       273.66152101     -278.79484804
  entropy T*S    EENTRO =        -0.00002798
  eigenvalues    EBANDS =      -189.86773803
  atomic energy  EATOM  =       588.62352690
  free energy    TOTEN  =       -36.91415804 eV

  energy without entropy =      -36.91413005  energy(sigma->0) =      -36.91414405

 average (electrostatic) potential at core
  the test charge radii are     0.6991
  (the norm of the test charge is              1.0000)
       1 -58.2404       2 -58.2404       3 -58.2404       4 -58.2404

 E-fermi :  -2.7831     XC(G=0):  -2.1564     alpha+bet : -1.9046

[...]

 k-point   247 :       0.5000    0.5000    0.0000
  band No.  band energies     occupation
      1     -16.9485      2.00000
      2     -16.9485      2.00000
      3     -15.9255      2.00000
      4     -15.9255      2.00000
      5      -9.2228      2.00000
      6      -9.2228      2.00000
      7      -5.0702      2.00000
      8      -5.0702      2.00000
      9      -1.1051      0.00000
     10      -1.1051      0.00000
     11       4.3115      0.00000
     12       4.3115      0.00000

 soft charge-density along one line, spin component           1
         0         1         2         3         4         5         6         7         8         9
 total charge-density along one line

------------------------ aborting loop because EDIFF is reached ----------------------------------------

  FORCE on cell =-STRESS in cart. coord.  units (eV):
  Direction    XX          YY          ZZ          XY          YZ          ZX
  Alpha Z     6.18334     6.18334     6.18334
  Ewald    3064.62035  3065.92339 -3600.52116    -0.00000     0.00000     0.00000
  Hartree  3001.03631  3001.49250 -2978.41953    -0.00000    -0.00000    -0.00000
  E(xc)     -58.18399   -58.19586   -60.52173     0.00000     0.00000    -0.00000
  Local   -6238.55583 -6240.09952  6373.15402    -0.00000     0.00000    -0.00000
  n-local   -13.56004   -13.90134   -12.65072     0.06055    -0.00000    -0.00000
  augment    -1.51545    -1.51662    -1.39697    -0.00000     0.00000     0.00000
  Kinetic   237.73745   240.11447   274.17139    -4.53746     0.00000     0.00000
  Fock        0.00000     0.00000     0.00000     0.00000     0.00000     0.00000
  Total      -2.23786     0.00037    -0.00133     0.00000     0.00000     0.00000
  in kB     -17.00570     0.00281    -0.01014     0.00000     0.00000     0.00000

 VOLUME and BASIS-vectors are now :
  energy-cutoff  :     2000.00
  volume of cell :      210.84
      direct lattice vectors                 reciprocal lattice vectors
     4.316846466  0.000000000  0.000000000     0.231650583  0.000000000  0.000000000
     0.000000000  2.462761665  0.000000000     0.000000000  0.406048224  0.000000000
     0.000000000  0.000000000 19.831688730     0.000000000  0.000000000  0.050424349

  length of vectors
     4.316846466  2.462761665 19.831688730     0.231650583  0.406048224  0.050424349

 FORCES acting on ions
    electron-ion (+dipol)            ewald-force                    non-local-force                 convergence-correction
   0.221E+01 0.118E-15 -.776E-09   -.222E+01 -.747E-14 0.186E-18   0.163E-02 0.104E-16 0.000E+00   -.171E-08 -.309E-15 0.191E-12
   -.221E+01 -.167E-12 -.696E-08   0.222E+01 0.166E-14 -.259E-18   -.163E-02 0.104E-16 0.000E+00   0.171E-08 -.109E-14 0.198E-12
   0.221E+01 -.197E-12 -.761E-09   -.222E+01 -.641E-14 0.259E-18   0.163E-02 -.104E-16 0.000E+00   -.171E-08 -.326E-14 0.283E-12
   -.221E+01 0.135E-14 -.696E-08   0.222E+01 0.272E-14 -.186E-18   -.163E-02 0.104E-16 0.000E+00   0.171E-08 0.190E-14 0.283E-12
   -.114E-05 -.363E-12 -.155E-07   -.577E-14 -.949E-14 0.000E+00   0.651E-18 0.208E-16 0.000E+00   0.198E-14 -.276E-14 0.955E-12

 POSITION                                       TOTAL-FORCE (eV/Angst)
      4.31577      0.00000     -0.00000        -0.000000     -0.000000      0.000000
      0.72055      1.23138      0.00000         0.000000      0.000000      0.000000
      2.15735      1.23138     -0.00000        -0.000000      0.000000      0.000000
      2.87897      0.00000      0.00000         0.000000      0.000000      0.000000
    total drift:                               -0.000001     -0.000000     -0.000000

  FREE ENERGIE OF THE ION-ELECTRON SYSTEM (eV)
  free  energy   TOTEN  =       -36.91415804 eV

  energy  without entropy=      -36.91413005  energy(sigma->0) =      -36.91414405

 d Force = 0.5646809E-13[ 0.108E-13, 0.102E-12]  d Energy =-0.5945822E-10 0.595E-10
 d Force = 0.1054485E-06[ 0.105E-06, 0.105E-06]  d Ewald  = 0.1054486E-06 0.000E+00

 Quasi-Newton relaxation of ions (Broydens 2nd method)
  g(Force)  = 0.100E-13   g(Stress)= 0.000E+00

 retain information from N=  1 steps
 eigenvalues of (default step * inverse Hessian matrix)
  average eigenvalue of G=   0.1286
 eigenvalue spectrum of G is  0.1286

 reached required accuracy - stopping structural energy minimisation