 vasp.5.3.5 31Mar14 (build Mar 02 2015 18:14:16) complex

 executed on             LinuxIFC date 2018.08.09  14:06:25

 INCAR:
 POTCAR:   PAW_PBE C 08Apr2002
 POTCAR:   PAW_PBE C 08Apr2002
   VRHFIN =C: s2p2

   TITEL  = PAW_PBE C 08Apr2002
   POMASS =   12.011; ZVAL   =    4.000    mass and valenz
   ENMAX  =  400.000; ENMIN  =  300.000 eV
   QCUT   =   -5.516; QGAM   =   11.032    optimization parameters

   Description
     l     E      TYP  RCUT    TYP  RCUT
     0   .000     23  1.200
     0   .000     23  1.200
     1   .000     23  1.500
     1  2.500     23  1.500
     2   .000      7  1.500

 PAW_PBE C 08Apr2002                    :

 POSCAR: MD-kMC export data
  positions in direct lattice
  velocities in cartesian coordinates
 exchange correlation table for  LEXCH =        8
   RHO(1)=    0.500       N(1)  =     2000
   RHO(2)=  100.500       N(2)  =     4000

 ion  position               nearest neighbor table
   1  0.999  0.000  0.000-   2 1.43   2 1.43   4 1.46
   2  0.167  0.500  0.000-   1 1.43   1 1.43   3 1.46
   3  0.499  0.500  0.000-   4 1.43   4 1.43   2 1.46
   4  0.667  0.000  0.000-   3 1.43   3 1.43   1 1.46

  LATTYP: Found a simple orthorhombic cell.
 ALAT       =     2.4572394285
 B/A-ratio  =     1.7822666608
 C/A-ratio  =     7.9732168438

  Lattice vectors:

 A1 = (   0.0000000000,  -2.4572394285,   0.0000000000)
 A2 = (  -4.3794559110,   0.0000000000,   0.0000000000)
 A3 = (   0.0000000000,   0.0000000000, -19.5921028007)

Analysis of symmetry for initial positions (statically):
 Subroutine PRICEL returns following result:

  LATTYP: Found a base centered orthorhombic cell.
 ALAT       =     2.4572394285
 B/A-ratio  =     1.7822666608
 C/A-ratio  =     7.9732168438

[...]

   2 primitive cells build up your supercell.

 Routine SETGRP: Setting up the symmetry group for a
 simple orthorhombic supercell.

 Subroutine GETGRP returns: Found  8 space group operations
 (whereof  4 operations were pure point group operations)
 out of a pool of  8 trial point group operations.

The static configuration has the point symmetry C_2v.
 The point group associated with its full space group is D_2h.

Analysis of symmetry for dynamics (positions and initial velocities):
 Subroutine PRICEL returns following result:

  LATTYP: Found a base centered orthorhombic cell.
 ALAT       =     2.4572394285
 B/A-ratio  =     1.7822666608
 C/A-ratio  =     7.9732168438

  Lattice vectors:

 A1 = (   2.1897279555,  -1.2286197143,   0.0000000000)
 A2 = (  -2.1897279555,  -1.2286197143,   0.0000000000)
 A3 = (   0.0000000000,   0.0000000000, -19.5921028007)

   2 primitive cells build up your supercell.

 Routine SETGRP: Setting up the symmetry group for a
 simple orthorhombic supercell.

 Subroutine GETGRP returns: Found  8 space group operations
 (whereof  4 operations were pure point group operations)
 out of a pool of  8 trial point group operations.

The dynamic configuration has the point symmetry C_2v.
 The point group associated with its full space group is D_2h.

 KPOINTS: Automatic mesh

Automatic generation of k-mesh.
Space group operators:
 irot       det(A)        alpha          n_x          n_y          n_z        tau_x        tau_y        tau_z
    1     1.000000     0.000001     1.000000     0.000000     0.000000     0.000000     0.000000     0.000000
    2    -1.000000   180.000000     0.000000     0.000000     1.000000     0.000000     0.000000     0.000000
    3     1.000000   179.999999     1.000000     0.000000     0.000000     0.000000     0.000000     0.000000
    4    -1.000000   179.999999     0.000000     1.000000     0.000000     0.000000     0.000000     0.000000
    5    -1.000000     0.000001     1.000000     0.000000     0.000000     0.166667    -0.500000     0.000000
    6     1.000000   180.000000     0.000000     0.000000     1.000000     0.166667    -0.500000     0.000000
    7    -1.000000   179.999999     1.000000     0.000000     0.000000     0.166667    -0.500000     0.000000
    8     1.000000   179.999999     0.000000     1.000000     0.000000     0.166667    -0.500000     0.000000

 Subroutine IBZKPT returns following result:

 Found    247 irreducible k-points:

 Following reciprocal coordinates:
            Coordinates               Weight
  0.000000  0.000000  0.000000      1.000000
  0.041667  0.000000  0.000000      2.000000
  0.083333  0.000000  0.000000      2.000000
  0.125000  0.000000  0.000000      2.000000
  0.166667  0.000000  0.000000      2.000000
  0.208333  0.000000  0.000000      2.000000
  0.250000  0.000000  0.000000      2.000000
  0.291667  0.000000  0.000000      2.000000
  0.333333  0.000000  0.000000      2.000000
  0.375000  0.000000  0.000000      2.000000
  0.416667  0.000000  0.000000      2.000000
  0.458333  0.000000  0.000000      2.000000
  0.500000  0.000000  0.000000      1.000000
  0.000000  0.027778  0.000000      2.000000
  0.041667  0.027778  0.000000      4.000000
  0.083333  0.027778  0.000000      4.000000
  0.125000  0.027778  0.000000      4.000000
  0.166667  0.027778  0.000000      4.000000
  0.208333  0.027778  0.000000      4.000000
  0.250000  0.027778  0.000000      4.000000
  0.291667  0.027778  0.000000      4.000000
  0.333333  0.027778  0.000000      4.000000
  0.375000  0.027778  0.000000      4.000000
  0.416667  0.027778  0.000000      4.000000
  0.458333  0.027778  0.000000      4.000000
  0.500000  0.027778  0.000000      2.000000
  0.000000  0.055556  0.000000      2.000000
  0.041667  0.055556  0.000000      4.000000
  0.083333  0.055556  0.000000      4.000000
  0.125000  0.055556  0.000000      4.000000
  0.166667  0.055556  0.000000      4.000000
  0.208333  0.055556  0.000000      4.000000
  0.250000  0.055556  0.000000      4.000000
  0.291667  0.055556  0.000000      4.000000
  0.333333  0.055556  0.000000      4.000000
  0.375000  0.055556  0.000000      4.000000
  0.416667  0.055556  0.000000      4.000000
  0.458333  0.055556  0.000000      4.000000
  0.500000  0.055556  0.000000      2.000000
  0.000000  0.083333  0.000000      2.000000
  0.041667  0.083333  0.000000      4.000000
  0.083333  0.083333  0.000000      4.000000
  0.125000  0.083333  0.000000      4.000000
  0.166667  0.083333  0.000000      4.000000
  0.208333  0.083333  0.000000      4.000000
  0.250000  0.083333  0.000000      4.000000
  0.291667  0.083333  0.000000      4.000000
  0.333333  0.083333  0.000000      4.000000
  0.375000  0.083333  0.000000      4.000000
  0.416667  0.083333  0.000000      4.000000
  0.458333  0.083333  0.000000      4.000000
  0.500000  0.083333  0.000000      2.000000
  0.000000  0.111111  0.000000      2.000000
  0.041667  0.111111  0.000000      4.000000
  0.083333  0.111111  0.000000      4.000000
  0.125000  0.111111  0.000000      4.000000
  0.166667  0.111111  0.000000      4.000000
  0.208333  0.111111  0.000000      4.000000
  0.250000  0.111111  0.000000      4.000000
  0.291667  0.111111  0.000000      4.000000
[...]
  0.458333  0.472222  0.000000      4.000000
  0.500000  0.472222  0.000000      2.000000
  0.000000  0.500000  0.000000      1.000000
  0.041667  0.500000  0.000000      2.000000
  0.083333  0.500000  0.000000      2.000000
  0.125000  0.500000  0.000000      2.000000
  0.166667  0.500000  0.000000      2.000000
  0.208333  0.500000  0.000000      2.000000
  0.250000  0.500000  0.000000      2.000000
  0.291667  0.500000  0.000000      2.000000
  0.333333  0.500000  0.000000      2.000000
  0.375000  0.500000  0.000000      2.000000
  0.416667  0.500000  0.000000      2.000000
  0.458333  0.500000  0.000000      2.000000
  0.500000  0.500000  0.000000      1.000000

 Following cartesian coordinates:
            Coordinates               Weight
  0.000000  0.000000  0.000000      1.000000
  0.009514  0.000000  0.000000      2.000000
  0.019028  0.000000  0.000000      2.000000
  0.028542  0.000000  0.000000      2.000000
  0.038056  0.000000  0.000000      2.000000
  0.047571  0.000000  0.000000      2.000000
  0.057085  0.000000  0.000000      2.000000
  0.066599  0.000000  0.000000      2.000000
  0.076113  0.000000  0.000000      2.000000
  0.085627  0.000000  0.000000      2.000000
  0.095141  0.000000  0.000000      2.000000
  0.104655  0.000000  0.000000      2.000000
  0.114169  0.000000  0.000000      1.000000
  0.000000  0.011304  0.000000      2.000000
  0.009514  0.011304  0.000000      4.000000
  0.019028  0.011304  0.000000      4.000000
  0.028542  0.011304  0.000000      4.000000
  0.038056  0.011304  0.000000      4.000000
  0.047571  0.011304  0.000000      4.000000
  0.057085  0.011304  0.000000      4.000000
  0.066599  0.011304  0.000000      4.000000
  0.076113  0.011304  0.000000      4.000000
  0.085627  0.011304  0.000000      4.000000
  0.095141  0.011304  0.000000      4.000000
  0.104655  0.011304  0.000000      4.000000
  0.114169  0.011304  0.000000      2.000000
  0.000000  0.022609  0.000000      2.000000
  0.009514  0.022609  0.000000      4.000000
  0.019028  0.022609  0.000000      4.000000
  0.028542  0.022609  0.000000      4.000000
  0.038056  0.022609  0.000000      4.000000
  0.047571  0.022609  0.000000      4.000000
  0.057085  0.022609  0.000000      4.000000
  0.066599  0.022609  0.000000      4.000000
  0.076113  0.022609  0.000000      4.000000
  0.085627  0.022609  0.000000      4.000000
  0.095141  0.022609  0.000000      4.000000
  0.104655  0.022609  0.000000      4.000000
  0.114169  0.022609  0.000000      2.000000
  0.000000  0.033913  0.000000      2.000000
  0.009514  0.033913  0.000000      4.000000
  0.019028  0.033913  0.000000      4.000000
  0.028542  0.033913  0.000000      4.000000
  0.038056  0.033913  0.000000      4.000000
  0.047571  0.033913  0.000000      4.000000
  0.057085  0.033913  0.000000      4.000000
  0.066599  0.033913  0.000000      4.000000
  0.076113  0.033913  0.000000      4.000000
  0.085627  0.033913  0.000000      4.000000
  0.095141  0.033913  0.000000      4.000000
  0.104655  0.033913  0.000000      4.000000
  0.114169  0.033913  0.000000      2.000000
  0.000000  0.045218  0.000000      2.000000
  0.009514  0.045218  0.000000      4.000000
  0.019028  0.045218  0.000000      4.000000
  0.028542  0.045218  0.000000      4.000000
  0.038056  0.045218  0.000000      4.000000
  0.047571  0.045218  0.000000      4.000000
  0.057085  0.045218  0.000000      4.000000
  0.066599  0.045218  0.000000      4.000000
[...]
  0.104655  0.192176  0.000000      4.000000
  0.114169  0.192176  0.000000      2.000000
  0.000000  0.203480  0.000000      1.000000
  0.009514  0.203480  0.000000      2.000000
  0.019028  0.203480  0.000000      2.000000
  0.028542  0.203480  0.000000      2.000000
  0.038056  0.203480  0.000000      2.000000
  0.047571  0.203480  0.000000      2.000000
  0.057085  0.203480  0.000000      2.000000
  0.066599  0.203480  0.000000      2.000000
  0.076113  0.203480  0.000000      2.000000
  0.085627  0.203480  0.000000      2.000000
  0.095141  0.203480  0.000000      2.000000
  0.104655  0.203480  0.000000      2.000000
  0.114169  0.203480  0.000000      1.000000

 I would recommend the setting:
   dimension x,y,z NGX =    64 NGY =   36 NGZ =  286
[...]
 k-point ** :   0.5000 0.2778 0.0000  plane waves:   42860
 k-point ** :   0.0000 0.3056 0.0000  plane waves:   42798
 k-point ** :   0.0417 0.3056 0.0000  plane waves:   42819
 k-point ** :   0.0833 0.3056 0.0000  plane waves:   42832
 k-point ** :   0.1250 0.3056 0.0000  plane waves:   42840
 k-point ** :   0.1667 0.3056 0.0000  plane waves:   42861
 k-point ** :   0.2083 0.3056 0.0000  plane waves:   42863
 k-point ** :   0.2500 0.3056 0.0000  plane waves:   42857
 k-point ** :   0.2917 0.3056 0.0000  plane waves:   42869
 k-point ** :   0.3333 0.3056 0.0000  plane waves:   42873
 k-point ** :   0.3750 0.3056 0.0000  plane waves:   42878
 k-point ** :   0.4167 0.3056 0.0000  plane waves:   42886
 k-point ** :   0.4583 0.3056 0.0000  plane waves:   42888
 k-point ** :   0.5000 0.3056 0.0000  plane waves:   42896
 k-point ** :   0.0000 0.3333 0.0000  plane waves:   42810
 k-point ** :   0.0417 0.3333 0.0000  plane waves:   42820
 k-point ** :   0.0833 0.3333 0.0000  plane waves:   42840
[...]
 k-point ** :   0.4583 0.4722 0.0000  plane waves:   42976
 k-point ** :   0.5000 0.4722 0.0000  plane waves:   42948
 k-point ** :   0.0000 0.5000 0.0000  plane waves:   42834
 k-point ** :   0.0417 0.5000 0.0000  plane waves:   42828
 k-point ** :   0.0833 0.5000 0.0000  plane waves:   42824
 k-point ** :   0.1250 0.5000 0.0000  plane waves:   42872
 k-point ** :   0.1667 0.5000 0.0000  plane waves:   42864
 k-point ** :   0.2083 0.5000 0.0000  plane waves:   42886
 k-point ** :   0.2500 0.5000 0.0000  plane waves:   42878
 k-point ** :   0.2917 0.5000 0.0000  plane waves:   42934
 k-point ** :   0.3333 0.5000 0.0000  plane waves:   42904
 k-point ** :   0.3750 0.5000 0.0000  plane waves:   42922
 k-point ** :   0.4167 0.5000 0.0000  plane waves:   42944
 k-point ** :   0.4583 0.5000 0.0000  plane waves:   42948
 k-point ** :   0.5000 0.5000 0.0000  plane waves:   42976

 maximum and minimum number of plane-waves per node :     21502    21317

 maximum number of plane-waves:     42976
 maximum index in each direction:
   IXMAX=   15   IYMAX=    8   IZMAX=   71
   IXMIN=  -16   IYMIN=   -9   IZMIN=  -71

 NGX is ok and might be reduce to  64
 NGY is ok and might be reduce to  36
 NGZ is ok and might be reduce to 286

 parallel 3D FFT for wavefunctions:
    minimum data exchange during FFTs selected (reduces bandwidth)
 parallel 3D FFT for charge:
    minimum data exchange during FFTs selected (reduces bandwidth)

 Broyden mixing: mesh for mixing (old mesh)
   NGX = 31   NGY = 17   NGZ =143
  (NGX  =128   NGY  = 72   NGZ  =576)
  gives a total of  75361 points

 initial charge density was supplied:
 charge density of overlapping atoms calculated
 number of electron      16.0000000 magnetization
 keeping initial charge density in first step

 Maximum index for augmentation-charges         4565 (set IRDMAX)

 First call to EWALD:  gamma=   0.298
 Maximum number of real-space cells 4x 6x 1
 Maximum number of reciprocal cells 2x 1x 8

 FEWALD executed in parallel

----------------------------------------- Iteration    1(   1)  ---------------------------------------

 eigenvalue-minimisations  :  5928
 total energy-change (2. order) : 0.1868159E+03  (-0.1062168E+04)
 number of electron      16.0000000 magnetization
 augmentation part       16.0000000 magnetization

 Free energy of the ion-electron system (eV)
  alpha Z        PSCENC =         6.18334092
  Ewald energy   TEWEN  =      2450.03913143
  -Hartree energ DENC   =     -2879.51574942
  -exchange      EXHF   =         0.00000000
  -V(xc)+E(xc)   XCENC  =        54.81831312
  PAW double counting   =       151.32577238     -155.92769107
  entropy T*S    EENTRO =        -0.00222541
  eigenvalues    EBANDS =       -28.72853185
  atomic energy  EATOM  =       588.62352690
  free energy    TOTEN  =       186.81588702 eV

  energy without entropy =      186.81811243  energy(sigma->0) =      186.81699973

[...]

 eigenvalue-minimisations  : 10316
 total energy-change (2. order) :-0.1958640E+03  (-0.1739756E+03)
 number of electron      16.0000000 magnetization
 augmentation part       16.0000000 magnetization

[...]

 Broyden mixing:
  rms(total) = 0.70873E+00    rms(broyden)= 0.70873E+00
  rms(prec ) = 0.77219E+00
  weight for this iteration     100.00

[...]

 eigenvalues of (default mixing * dielectric matrix)
  average eigenvalue GAMMA=   2.3131
  2.3131

[...]

WARNING in EDDRMM: call to ZHEGV failed, returncode =   6  3  1
WARNING in EDDRMM: call to ZHEGV failed, returncode =   6  3  1
WARNING in EDDRMM: call to ZHEGV failed, returncode =   6  3  1
WARNING in EDDRMM: call to ZHEGV failed, returncode =   6  3  1

[...]

 average (electrostatic) potential at core
  the test charge radii are     0.6991
  (the norm of the test charge is              1.0000)
       1 -58.3142       2 -58.3142       3 -58.3142       4 -58.3142

 E-fermi :  -2.8239     XC(G=0):  -2.1798     alpha+bet : -1.9046

 k-point     1 :       0.0000    0.0000    0.0000
  band No.  band energies     occupation
      1     -22.0816      2.00000
      2     -17.2560      2.00000
      3     -15.8337      2.00000
      4     -10.2261      2.00000
      5      -8.8065      2.00000
      6      -6.0059      2.00000
      7      -5.7270      2.00000
      8      -5.3338      2.00000
      9      -1.1858      0.00000
     10       0.5445      0.00000
     11       1.3421      0.00000
     12       1.7301      0.00000

[...]

 soft charge-density along one line, spin component           1
         0         1         2         3         4         5         6         7         8         9
 total charge-density along one line

------------------------ aborting loop because EDIFF is reached ----------------------------------------

  FORCE on cell =-STRESS in cart. coord.  units (eV):
  Direction    XX          YY          ZZ          XY          YZ          ZX
  Alpha Z     6.18334     6.18334     6.18334
  Ewald    2980.35472  2983.73532 -3514.05113     0.00000     0.00000     0.00000
  Hartree  2920.62000  2921.78308 -2898.08024    -0.00000    -0.00000    -0.00000
  E(xc)     -57.95983   -57.98770   -60.29526     0.00000    -0.00000    -0.00000
  Local   -6074.50336 -6078.51824  6206.87614    -0.00000    -0.00000     0.00000
  n-local   -13.01508   -13.81841   -12.48197     0.06766    -0.00000    -0.00000
  augment    -1.47847    -1.48074    -1.37185    -0.00000     0.00000    -0.00000
  Kinetic   234.41648   240.10110   273.21961    -4.45357     0.00000     0.00000
  Fock        0.00000     0.00000     0.00000     0.00000     0.00000     0.00000
  Total      -5.38220    -0.00224    -0.00137     0.00000     0.00000     0.00000
  in kB     -40.89985    -0.01704    -0.01038     0.00000     0.00000     0.00000

 VOLUME and BASIS-vectors are now :
  energy-cutoff  :     2000.00
  volume of cell :      210.84
      direct lattice vectors                 reciprocal lattice vectors
     4.379455911  0.000000000  0.000000000     0.228338867  0.000000000  0.000000000
     0.000000000  2.457239429  0.000000000     0.000000000  0.406960750  0.000000000
     0.000000000  0.000000000 19.592102801     0.000000000  0.000000000  0.051040974

[...]

 FORCES acting on ions
    electron-ion (+dipol)            ewald-force                    non-local-force                 convergence-correction
   0.531E+01 0.109E-15 -.248E-08   -.531E+01 0.698E-14 0.508E-19   -.417E-02 0.694E-17 0.000E+00   -.322E-06 0.872E-15 -.814E-13
   -.531E+01 -.403E-14 -.109E-07   0.531E+01 -.332E-14 -.542E-33   0.417E-02 -.139E-16 0.827E-24   0.322E-06 -.704E-15 -.811E-13
   0.531E+01 -.156E-12 -.246E-08   -.531E+01 0.487E-14 -.508E-19   -.417E-02 0.694E-17 0.000E+00   -.322E-06 0.685E-15 -.814E-13
   -.531E+01 0.128E-15 -.109E-07   0.531E+01 -.543E-14 0.578E-33   0.417E-02 -.139E-16 0.827E-24   0.322E-06 -.516E-15 -.812E-13
   -.958E-06 -.160E-12 -.267E-07   -.178E-14 0.310E-14 0.361E-34   0.867E-18 -.139E-16 0.165E-23   -.944E-13 0.337E-15 -.325E-12

 POSITION                                       TOTAL-FORCE (eV/Angst)
      4.37709      0.00000      0.00000         0.001717      0.000000      0.000000
      0.73228      1.22862      0.00000        -0.001717     -0.000000     -0.000000
      2.18736      1.22862      0.00000         0.001717      0.000000      0.000000
      2.92201      0.00000      0.00000        -0.001717     -0.000000     -0.000000
    total drift:                               -0.000001     -0.000000     -0.000000

  FREE ENERGIE OF THE ION-ELECTRON SYSTEM (eV)
  free  energy   TOTEN  =       -36.85919438 eV

  energy  without entropy=      -36.85919436  energy(sigma->0) =      -36.85919437

 Quasi-Newton relaxation of ions (Broydens 2nd method)
  g(Force)  = 0.569E-06   g(Stress)= 0.000E+00

 Reset! Starting new Quasi-Newton update for ions

[...]

 d Force =-0.7664185E-06[-0.210E-05, 0.569E-06]  d Energy =-0.7471803E-06-0.192E-07
 d Force =-0.1762516E-02[-0.177E-02,-0.176E-02]  d Ewald  =-0.1762516E-02 0.428E-09

[...]

 retain information from N=  1 steps
 eigenvalues of (default step * inverse Hessian matrix)
  average eigenvalue of G=   0.2130
 eigenvalue spectrum of G is  0.2130

[...]

WARNING in EDDRMM: call to ZHEGV failed, returncode =   6  3  1

[...]

 d Force = 0.8273291E-06[ 0.736E-09, 0.165E-05]  d Energy = 0.8122062E-06 0.151E-07
 d Force = 0.1387968E-02[ 0.139E-02, 0.139E-02]  d Ewald  = 0.1387969E-02-0.209E-09

[...]

 eigenvalue-minimisations  :  4628
 total energy-change (2. order) : 0.7007657E-09  ( 0.5355770E-09)
 number of electron      16.0000000 magnetization
 augmentation part        0.3726174 magnetization

[...]

 d Force = 0.3570424E-13[-0.256E-12, 0.328E-12]  d Energy =-0.6684786E-10 0.669E-10
 d Force = 0.6168427E-06[ 0.617E-06, 0.617E-06]  d Ewald  = 0.6168425E-06 0.000E+00

[...]

 eigenvalue-minimisations  :  1139
 total energy-change (2. order) : 0.2034994E-10  (-0.2333936E-13)
 number of electron      16.0000000 magnetization
 augmentation part        0.3726174 magnetization

[...]

 d Force = 0.1017633E-12[ 0.910E-13, 0.113E-12]  d Energy = 0.1747367E-09-0.175E-09
 d Force =-0.2707340E-06[-0.271E-06,-0.271E-06]  d Ewald  =-0.2707347E-06 0.909E-12

[...]

 eigenvalue-minimisations  :   804
 total energy-change (2. order) :-0.5420588E-09  ( 0.2138207E-15)
 number of electron      16.0000000 magnetization
 augmentation part        0.3726174 magnetization

[...]

 d Force =-0.2051692E-12[-0.793E-12, 0.383E-12]  d Energy =-0.6934897E-11 0.673E-11
 d Force =-0.1138915E-05[-0.114E-05,-0.114E-05]  d Ewald  =-0.1138915E-05 0.000E+00

[...]

 FEWALD executed in parallel

[...]

 eigenvalue-minimisations  :   444
 total energy-change (2. order) :-0.5321681E-09  ( 0.2105312E-14)
 number of electron      16.0000000 magnetization
 augmentation part        0.3726174 magnetization

[...]

 eigenvalue-minimisations  :   507
 total energy-change (2. order) : 0.1136868E-11  ( 0.1842148E-14)
 number of electron      16.0000000 magnetization
 augmentation part        0.3726174 magnetization

[...]

 Broyden mixing:
  rms(total) = 0.28448E-09    rms(broyden)= 0.28445E-09
  rms(prec ) = 0.32041E-09
  weight for this iteration     100.00

 eigenvalues of (default mixing * dielectric matrix)
  average eigenvalue GAMMA=   2.0222
  2.6931  2.5555  0.8180

[...]

----------------------------------------- Iteration    7(   5)  ---------------------------------------

 eigenvalue-minimisations  :   434
 total energy-change (2. order) :-0.5798029E-11  (-0.3881669E-14)
 number of electron      16.0000000 magnetization
 augmentation part        0.3726174 magnetization

 Free energy of the ion-electron system (eV)
  alpha Z        PSCENC =         6.18334092
  Ewald energy   TEWEN  =      2450.03950600
  -Hartree energ DENC   =     -2944.32317157
  -exchange      EXHF   =         0.00000000
  -V(xc)+E(xc)   XCENC  =        57.14331340
  PAW double counting   =       268.85555984     -273.96721348
  entropy T*S    EENTRO =        -0.00000002
  eigenvalues    EBANDS =      -189.41405644
  atomic energy  EATOM  =       588.62352690
  free energy    TOTEN  =       -36.85919444 eV

  energy without entropy =      -36.85919442  energy(sigma->0) =      -36.85919443

 average (electrostatic) potential at core
  the test charge radii are     0.6991
  (the norm of the test charge is              1.0000)
       1 -58.3142       2 -58.3142       3 -58.3142       4 -58.3142

 E-fermi :  -2.8238     XC(G=0):  -2.1771     alpha+bet : -1.9046

[...]

 k-point   247 :       0.5000    0.5000    0.0000
  band No.  band energies     occupation
      1     -16.8462      2.00000
      2     -16.8462      2.00000
      3     -15.8581      2.00000
      4     -15.8581      2.00000
      5      -9.3020      2.00000
      6      -9.3020      2.00000
      7      -5.0125      2.00000
      8      -5.0125      2.00000
      9      -1.1514      0.00000
     10      -1.1514      0.00000
     11       3.8994      0.00000
     12       3.8994      0.00000

 soft charge-density along one line, spin component           1
         0         1         2         3         4         5         6         7         8         9
 total charge-density along one line

------------------------ aborting loop because EDIFF is reached ----------------------------------------

  FORCE on cell =-STRESS in cart. coord.  units (eV):
  Direction    XX          YY          ZZ          XY          YZ          ZX
  Alpha Z     6.18334     6.18334     6.18334
  Ewald    2980.33969  2983.75074 -3514.05113    -0.00000     0.00000    -0.00000
  Hartree  2920.61797  2921.78543 -2898.08023     0.00000    -0.00000    -0.00000
  E(xc)     -57.95991   -57.98766   -60.29528     0.00000    -0.00000    -0.00000
  Local   -6074.48896 -6078.53313  6206.87605    -0.00000    -0.00000    -0.00000
  n-local   -13.01521   -13.81829   -12.48198     0.06767    -0.00000    -0.00000
  augment    -1.47846    -1.48077    -1.37185    -0.00000    -0.00000    -0.00000
  Kinetic   234.41897   240.09884   273.21975    -4.45364     0.00000     0.00000
  Fock        0.00000     0.00000     0.00000     0.00000     0.00000     0.00000
  Total      -5.38256    -0.00149    -0.00134     0.00000     0.00000     0.00000
  in kB     -40.90262    -0.01134    -0.01021     0.00000     0.00000     0.00000

 VOLUME and BASIS-vectors are now :
  energy-cutoff  :     2000.00
  volume of cell :      210.84
      direct lattice vectors                 reciprocal lattice vectors
     4.379455911  0.000000000  0.000000000     0.228338867  0.000000000  0.000000000
     0.000000000  2.457239429  0.000000000     0.000000000  0.406960750  0.000000000
     0.000000000  0.000000000 19.592102801     0.000000000  0.000000000  0.051040974

  length of vectors
     4.379455911  2.457239429 19.592102801     0.228338867  0.406960750  0.051040974

 FORCES acting on ions
    electron-ion (+dipol)            ewald-force                    non-local-force                 convergence-correction
   0.532E+01 0.242E-15 -.242E-08   -.531E+01 0.601E-14 0.224E-17   -.478E-02 0.104E-16 0.202E-27   -.184E-09 -.444E-15 -.939E-12
   -.532E+01 0.188E-13 -.109E-07   0.531E+01 -.247E-14 -.808E-18   0.478E-02 -.347E-17 0.000E+00   0.184E-09 -.308E-15 -.939E-12
   0.532E+01 -.161E-12 -.243E-08   -.531E+01 0.401E-14 0.808E-18   -.478E-02 0.347E-17 0.000E+00   -.184E-09 -.506E-15 -.897E-12
   -.532E+01 0.942E-16 -.108E-07   0.531E+01 -.446E-14 -.224E-17   0.478E-02 -.347E-17 0.000E+00   0.184E-09 -.242E-15 -.897E-12
   -.960E-06 -.142E-12 -.265E-07   -.178E-14 0.310E-14 0.000E+00   0.000E+00 0.694E-17 0.202E-27   0.463E-14 -.150E-14 -.367E-11

 POSITION                                       TOTAL-FORCE (eV/Angst)
      4.37710      0.00000      0.00000         0.000001      0.000000      0.000000
      0.73226      1.22862     -0.00000        -0.000001      0.000000     -0.000000
      2.18737      1.22862      0.00000         0.000001      0.000000      0.000000
      2.92199      0.00000     -0.00000        -0.000001     -0.000000     -0.000000
    total drift:                               -0.000001     -0.000000     -0.000000

  FREE ENERGIE OF THE ION-ELECTRON SYSTEM (eV)
  free  energy   TOTEN  =       -36.85919444 eV

  energy  without entropy=      -36.85919442  energy(sigma->0) =      -36.85919443

 d Force = 0.1953572E-12[-0.144E-12, 0.535E-12]  d Energy = 0.2614797E-11-0.242E-11
 d Force = 0.7682293E-06[ 0.768E-06, 0.768E-06]  d Ewald  = 0.7682293E-06 0.000E+00

 Quasi-Newton relaxation of ions (Broydens 2nd method)
  g(Force)  = 0.192E-12   g(Stress)= 0.000E+00

 retain information from N=  1 steps
 eigenvalues of (default step * inverse Hessian matrix)
  average eigenvalue of G=   0.1596
 eigenvalue spectrum of G is  0.1596

 reached required accuracy - stopping structural energy minimisation