 vasp.5.3.5 31Mar14 (build Mar 02 2015 18:14:16) complex

 executed on             LinuxIFC date 2018.08.10  14:34:35

 INCAR:
 POTCAR:   PAW_PBE C 08Apr2002
 POTCAR:   PAW_PBE C 08Apr2002
   VRHFIN =C: s2p2

   TITEL  = PAW_PBE C 08Apr2002
   POMASS =   12.011; ZVAL   =    4.000    mass and valenz
   ENMAX  =  400.000; ENMIN  =  300.000 eV
   QCUT   =   -5.516; QGAM   =   11.032    optimization parameters

   Description
     l     E      TYP  RCUT    TYP  RCUT
     0   .000     23  1.200
     0   .000     23  1.200
     1   .000     23  1.500
     1  2.500     23  1.500
     2   .000      7  1.500

 PAW_PBE C 08Apr2002                    :

 POSCAR: MD-kMC export data
  positions in direct lattice
  velocities in cartesian coordinates
 exchange correlation table for  LEXCH =        8
   RHO(1)=    0.500       N(1)  =     2000
   RHO(2)=  100.500       N(2)  =     4000

 ion  position               nearest neighbor table
   1  0.999  0.000  0.000-   2 1.43   2 1.43   4 1.46
   2  0.167  0.500  0.000-   1 1.43   1 1.43   3 1.46
   3  0.499  0.500  0.000-   4 1.43   4 1.43   2 1.46
   4  0.667  0.000  0.000-   3 1.43   3 1.43   1 1.46

  LATTYP: Found a simple orthorhombic cell.
 ALAT       =     2.4554205472
 B/A-ratio  =     1.7926375438
 C/A-ratio  =     7.9447189764

  Lattice vectors:

 A1 = (   0.0000000000,  -2.4554205472,   0.0000000000)
 A2 = (  -4.4016790588,   0.0000000000,   0.0000000000)
 A3 = (   0.0000000000,   0.0000000000, -19.5076262163)

Analysis of symmetry for initial positions (statically):
 Subroutine PRICEL returns following result:

  LATTYP: Found a base centered orthorhombic cell.
 ALAT       =     2.4554205472
 B/A-ratio  =     1.7926375438
 C/A-ratio  =     7.9447189764

[...]

   2 primitive cells build up your supercell.

 Routine SETGRP: Setting up the symmetry group for a
 simple orthorhombic supercell.

 Subroutine GETGRP returns: Found  8 space group operations
 (whereof  4 operations were pure point group operations)
 out of a pool of  8 trial point group operations.

The static configuration has the point symmetry C_2v.
 The point group associated with its full space group is D_2h.

Analysis of symmetry for dynamics (positions and initial velocities):
 Subroutine PRICEL returns following result:

  LATTYP: Found a base centered orthorhombic cell.
 ALAT       =     2.4554205472
 B/A-ratio  =     1.7926375438
 C/A-ratio  =     7.9447189764

  Lattice vectors:

 A1 = (   2.2008395294,  -1.2277102736,   0.0000000000)
 A2 = (  -2.2008395294,  -1.2277102736,   0.0000000000)
 A3 = (   0.0000000000,   0.0000000000, -19.5076262163)

   2 primitive cells build up your supercell.

 Routine SETGRP: Setting up the symmetry group for a
 simple orthorhombic supercell.

 Subroutine GETGRP returns: Found  8 space group operations
 (whereof  4 operations were pure point group operations)
 out of a pool of  8 trial point group operations.

The dynamic configuration has the point symmetry C_2v.
 The point group associated with its full space group is D_2h.

 KPOINTS: Automatic mesh

Automatic generation of k-mesh.
Space group operators:
 irot       det(A)        alpha          n_x          n_y          n_z        tau_x        tau_y        tau_z
    1     1.000000     0.000001     1.000000     0.000000     0.000000     0.000000     0.000000     0.000000
    2    -1.000000   180.000000     0.000000     0.000000     1.000000     0.000000     0.000000     0.000000
    3     1.000000   180.000000     1.000000     0.000000     0.000000     0.000000     0.000000     0.000000
    4    -1.000000   180.000000     0.000000     1.000000     0.000000     0.000000     0.000000     0.000000
    5    -1.000000     0.000001     1.000000     0.000000     0.000000     0.166667    -0.500000     0.000000
    6     1.000000   180.000000     0.000000     0.000000     1.000000     0.166667    -0.500000     0.000000
    7    -1.000000   180.000000     1.000000     0.000000     0.000000     0.166667    -0.500000     0.000000
    8     1.000000   180.000000     0.000000     1.000000     0.000000     0.166667    -0.500000     0.000000

 Subroutine IBZKPT returns following result:

 Found    247 irreducible k-points:

 Following reciprocal coordinates:
            Coordinates               Weight
  0.000000  0.000000  0.000000      1.000000
  0.041667  0.000000  0.000000      2.000000
  0.083333  0.000000  0.000000      2.000000
  0.125000  0.000000  0.000000      2.000000
  0.166667  0.000000  0.000000      2.000000
  0.208333  0.000000  0.000000      2.000000
  0.250000  0.000000  0.000000      2.000000
  0.291667  0.000000  0.000000      2.000000
  0.333333  0.000000  0.000000      2.000000
  0.375000  0.000000  0.000000      2.000000
  0.416667  0.000000  0.000000      2.000000
  0.458333  0.000000  0.000000      2.000000
  0.500000  0.000000  0.000000      1.000000
  0.000000  0.027778  0.000000      2.000000
  0.041667  0.027778  0.000000      4.000000
  0.083333  0.027778  0.000000      4.000000
  0.125000  0.027778  0.000000      4.000000
  0.166667  0.027778  0.000000      4.000000
  0.208333  0.027778  0.000000      4.000000
  0.250000  0.027778  0.000000      4.000000
  0.291667  0.027778  0.000000      4.000000
  0.333333  0.027778  0.000000      4.000000
  0.375000  0.027778  0.000000      4.000000
  0.416667  0.027778  0.000000      4.000000
  0.458333  0.027778  0.000000      4.000000
  0.500000  0.027778  0.000000      2.000000
  0.000000  0.055556  0.000000      2.000000
  0.041667  0.055556  0.000000      4.000000
  0.083333  0.055556  0.000000      4.000000
  0.125000  0.055556  0.000000      4.000000
  0.166667  0.055556  0.000000      4.000000
  0.208333  0.055556  0.000000      4.000000
  0.250000  0.055556  0.000000      4.000000
  0.291667  0.055556  0.000000      4.000000
  0.333333  0.055556  0.000000      4.000000
  0.375000  0.055556  0.000000      4.000000
  0.416667  0.055556  0.000000      4.000000
  0.458333  0.055556  0.000000      4.000000
  0.500000  0.055556  0.000000      2.000000
  0.000000  0.083333  0.000000      2.000000
  0.041667  0.083333  0.000000      4.000000
  0.083333  0.083333  0.000000      4.000000
  0.125000  0.083333  0.000000      4.000000
  0.166667  0.083333  0.000000      4.000000
  0.208333  0.083333  0.000000      4.000000
  0.250000  0.083333  0.000000      4.000000
  0.291667  0.083333  0.000000      4.000000
  0.333333  0.083333  0.000000      4.000000
  0.375000  0.083333  0.000000      4.000000
  0.416667  0.083333  0.000000      4.000000
  0.458333  0.083333  0.000000      4.000000
  0.500000  0.083333  0.000000      2.000000
  0.000000  0.111111  0.000000      2.000000
  0.041667  0.111111  0.000000      4.000000
  0.083333  0.111111  0.000000      4.000000
  0.125000  0.111111  0.000000      4.000000
  0.166667  0.111111  0.000000      4.000000
  0.208333  0.111111  0.000000      4.000000
  0.250000  0.111111  0.000000      4.000000
  0.291667  0.111111  0.000000      4.000000
[...]
  0.458333  0.472222  0.000000      4.000000
  0.500000  0.472222  0.000000      2.000000
  0.000000  0.500000  0.000000      1.000000
  0.041667  0.500000  0.000000      2.000000
  0.083333  0.500000  0.000000      2.000000
  0.125000  0.500000  0.000000      2.000000
  0.166667  0.500000  0.000000      2.000000
  0.208333  0.500000  0.000000      2.000000
  0.250000  0.500000  0.000000      2.000000
  0.291667  0.500000  0.000000      2.000000
  0.333333  0.500000  0.000000      2.000000
  0.375000  0.500000  0.000000      2.000000
  0.416667  0.500000  0.000000      2.000000
  0.458333  0.500000  0.000000      2.000000
  0.500000  0.500000  0.000000      1.000000

 Following cartesian coordinates:
            Coordinates               Weight
  0.000000  0.000000  0.000000      1.000000
  0.009466  0.000000  0.000000      2.000000
  0.018932  0.000000  0.000000      2.000000
  0.028398  0.000000  0.000000      2.000000
  0.037864  0.000000  0.000000      2.000000
  0.047330  0.000000  0.000000      2.000000
  0.056797  0.000000  0.000000      2.000000
  0.066263  0.000000  0.000000      2.000000
  0.075729  0.000000  0.000000      2.000000
  0.085195  0.000000  0.000000      2.000000
  0.094661  0.000000  0.000000      2.000000
  0.104127  0.000000  0.000000      2.000000
  0.113593  0.000000  0.000000      1.000000
  0.000000  0.011313  0.000000      2.000000
  0.009466  0.011313  0.000000      4.000000
  0.018932  0.011313  0.000000      4.000000
  0.028398  0.011313  0.000000      4.000000
  0.037864  0.011313  0.000000      4.000000
  0.047330  0.011313  0.000000      4.000000
  0.056797  0.011313  0.000000      4.000000
  0.066263  0.011313  0.000000      4.000000
  0.075729  0.011313  0.000000      4.000000
  0.085195  0.011313  0.000000      4.000000
  0.094661  0.011313  0.000000      4.000000
  0.104127  0.011313  0.000000      4.000000
  0.113593  0.011313  0.000000      2.000000
  0.000000  0.022626  0.000000      2.000000
  0.009466  0.022626  0.000000      4.000000
  0.018932  0.022626  0.000000      4.000000
  0.028398  0.022626  0.000000      4.000000
  0.037864  0.022626  0.000000      4.000000
  0.047330  0.022626  0.000000      4.000000
  0.056797  0.022626  0.000000      4.000000
  0.066263  0.022626  0.000000      4.000000
  0.075729  0.022626  0.000000      4.000000
  0.085195  0.022626  0.000000      4.000000
  0.094661  0.022626  0.000000      4.000000
  0.104127  0.022626  0.000000      4.000000
  0.113593  0.022626  0.000000      2.000000
  0.000000  0.033939  0.000000      2.000000
  0.009466  0.033939  0.000000      4.000000
  0.018932  0.033939  0.000000      4.000000
  0.028398  0.033939  0.000000      4.000000
  0.037864  0.033939  0.000000      4.000000
  0.047330  0.033939  0.000000      4.000000
  0.056797  0.033939  0.000000      4.000000
  0.066263  0.033939  0.000000      4.000000
  0.075729  0.033939  0.000000      4.000000
  0.085195  0.033939  0.000000      4.000000
  0.094661  0.033939  0.000000      4.000000
  0.104127  0.033939  0.000000      4.000000
  0.113593  0.033939  0.000000      2.000000
  0.000000  0.045251  0.000000      2.000000
  0.009466  0.045251  0.000000      4.000000
  0.018932  0.045251  0.000000      4.000000
  0.028398  0.045251  0.000000      4.000000
  0.037864  0.045251  0.000000      4.000000
  0.047330  0.045251  0.000000      4.000000
  0.056797  0.045251  0.000000      4.000000
  0.066263  0.045251  0.000000      4.000000
[...]
  0.104127  0.192318  0.000000      4.000000
  0.113593  0.192318  0.000000      2.000000
  0.000000  0.203631  0.000000      1.000000
  0.009466  0.203631  0.000000      2.000000
  0.018932  0.203631  0.000000      2.000000
  0.028398  0.203631  0.000000      2.000000
  0.037864  0.203631  0.000000      2.000000
  0.047330  0.203631  0.000000      2.000000
  0.056797  0.203631  0.000000      2.000000
  0.066263  0.203631  0.000000      2.000000
  0.075729  0.203631  0.000000      2.000000
  0.085195  0.203631  0.000000      2.000000
  0.094661  0.203631  0.000000      2.000000
  0.104127  0.203631  0.000000      2.000000
  0.113593  0.203631  0.000000      1.000000

 I would recommend the setting:
   dimension x,y,z NGX =    64 NGY =   36 NGZ =  285
[...]
 k-point ** :   0.4167 0.2778 0.0000  plane waves:   42856
 k-point ** :   0.4583 0.2778 0.0000  plane waves:   42863
 k-point ** :   0.5000 0.2778 0.0000  plane waves:   42874
 k-point ** :   0.0000 0.3056 0.0000  plane waves:   42816
 k-point ** :   0.0417 0.3056 0.0000  plane waves:   42817
 k-point ** :   0.0833 0.3056 0.0000  plane waves:   42825
 k-point ** :   0.1250 0.3056 0.0000  plane waves:   42859
 k-point ** :   0.1667 0.3056 0.0000  plane waves:   42870
 k-point ** :   0.2083 0.3056 0.0000  plane waves:   42875
 k-point ** :   0.2500 0.3056 0.0000  plane waves:   42844
 k-point ** :   0.2917 0.3056 0.0000  plane waves:   42857
 k-point ** :   0.3333 0.3056 0.0000  plane waves:   42853
 k-point ** :   0.3750 0.3056 0.0000  plane waves:   42864
 k-point ** :   0.4167 0.3056 0.0000  plane waves:   42865
 k-point ** :   0.4583 0.3056 0.0000  plane waves:   42877
 k-point ** :   0.5000 0.3056 0.0000  plane waves:   42898
 k-point ** :   0.0000 0.3333 0.0000  plane waves:   42824
 k-point ** :   0.0417 0.3333 0.0000  plane waves:   42827
 k-point ** :   0.0833 0.3333 0.0000  plane waves:   42824
[...]
 k-point ** :   0.4583 0.4722 0.0000  plane waves:   42954
 k-point ** :   0.5000 0.4722 0.0000  plane waves:   42960
 k-point ** :   0.0000 0.5000 0.0000  plane waves:   42738
 k-point ** :   0.0417 0.5000 0.0000  plane waves:   42750
 k-point ** :   0.0833 0.5000 0.0000  plane waves:   42796
 k-point ** :   0.1250 0.5000 0.0000  plane waves:   42810
 k-point ** :   0.1667 0.5000 0.0000  plane waves:   42834
 k-point ** :   0.2083 0.5000 0.0000  plane waves:   42872
 k-point ** :   0.2500 0.5000 0.0000  plane waves:   42904
 k-point ** :   0.2917 0.5000 0.0000  plane waves:   42960
 k-point ** :   0.3333 0.5000 0.0000  plane waves:   42956
 k-point ** :   0.3750 0.5000 0.0000  plane waves:   42978
 k-point ** :   0.4167 0.5000 0.0000  plane waves:   42932
 k-point ** :   0.4583 0.5000 0.0000  plane waves:   42952
 k-point ** :   0.5000 0.5000 0.0000  plane waves:   43008

 maximum and minimum number of plane-waves per node :     21504    21274

 maximum number of plane-waves:     43008
 maximum index in each direction:
   IXMAX=   16   IYMAX=    8   IZMAX=   71
   IXMIN=  -16   IYMIN=   -9   IZMIN=  -71

 WARNING: aliasing errors must be expected set NGX to  66 to avoid them
 NGY is ok and might be reduce to  36
 NGZ is ok and might be reduce to 286
 aliasing errors are usually negligible using standard VASP settings
 and one can safely disregard these warnings

 parallel 3D FFT for wavefunctions:
    minimum data exchange during FFTs selected (reduces bandwidth)
 parallel 3D FFT for charge:
    minimum data exchange during FFTs selected (reduces bandwidth)

 Broyden mixing: mesh for mixing (old mesh)
   NGX = 33   NGY = 17   NGZ =143
  (NGX  =128   NGY  = 72   NGZ  =576)
  gives a total of  80223 points

 initial charge density was supplied:
 charge density of overlapping atoms calculated
 number of electron      16.0000000 magnetization
 keeping initial charge density in first step

 Maximum index for augmentation-charges         4575 (set IRDMAX)

 First call to EWALD:  gamma=   0.298
 Maximum number of real-space cells 4x 6x 1
 Maximum number of reciprocal cells 2x 1x 8

 FEWALD executed in parallel

----------------------------------------- Iteration    1(   1)  ---------------------------------------

 eigenvalue-minimisations  :  5928
 total energy-change (2. order) : 0.1870778E+03  (-0.1067199E+04)
 number of electron      16.0000000 magnetization
 augmentation part       16.0000000 magnetization

 Free energy of the ion-electron system (eV)
  alpha Z        PSCENC =         6.18334092
  Ewald energy   TEWEN  =      2422.10136290
  -Hartree energ DENC   =     -2852.41398080
  -exchange      EXHF   =         0.00000000
  -V(xc)+E(xc)   XCENC  =        54.76024864
  PAW double counting   =       151.32577238     -155.92769107
  entropy T*S    EENTRO =        -0.00190444
  eigenvalues    EBANDS =       -27.57288224
  atomic energy  EATOM  =       588.62352690
  free energy    TOTEN  =       187.07779320 eV

  energy without entropy =      187.07969764  energy(sigma->0) =      187.07874542

[...]

 eigenvalue-minimisations  : 10292
 total energy-change (2. order) :-0.1958459E+03  (-0.1733562E+03)
 number of electron      16.0000000 magnetization
 augmentation part       16.0000000 magnetization

[...]

 Broyden mixing:
  rms(total) = 0.70368E+00    rms(broyden)= 0.70368E+00
  rms(prec ) = 0.76719E+00
  weight for this iteration     100.00

[...]

 eigenvalues of (default mixing * dielectric matrix)
  average eigenvalue GAMMA=   2.3071
  2.3071

[...]

WARNING in EDDRMM: call to ZHEGV failed, returncode =   6  3  1
WARNING in EDDRMM: call to ZHEGV failed, returncode =   6  3  1
WARNING in EDDRMM: call to ZHEGV failed, returncode =   6  3  1
WARNING in EDDRMM: call to ZHEGV failed, returncode =   6  3  1
WARNING in EDDRMM: call to ZHEGV failed, returncode =   6  3  1
WARNING in EDDRMM: call to ZHEGV failed, returncode =   6  3  1

[...]

 average (electrostatic) potential at core
  the test charge radii are     0.6991
  (the norm of the test charge is              1.0000)
       1 -58.3404       2 -58.3404       3 -58.3404       4 -58.3404

 E-fermi :  -2.8374     XC(G=0):  -2.1871     alpha+bet : -1.9046

 k-point     1 :       0.0000    0.0000    0.0000
  band No.  band energies     occupation
      1     -22.0457      2.00000
      2     -17.3021      2.00000
      3     -15.8012      2.00000
      4     -10.1984      2.00000
      5      -8.7372      2.00000
      6      -6.0465      2.00000
      7      -5.7177      2.00000
      8      -5.3792      2.00000
      9      -1.2051      0.00000
     10       0.5490      0.00000
     11       1.3460      0.00000
     12       1.7378      0.00000

[...]

 soft charge-density along one line, spin component           1
         0         1         2         3         4         5         6         7         8         9
 total charge-density along one line

------------------------ aborting loop because EDIFF is reached ----------------------------------------

  FORCE on cell =-STRESS in cart. coord.  units (eV):
  Direction    XX          YY          ZZ          XY          YZ          ZX
  Alpha Z     6.18334     6.18334     6.18334
  Ewald    2950.79775  2955.11633 -3483.81291     0.00000     0.00000    -0.00000
  Hartree  2892.50280  2893.95594 -2870.00573    -0.00000    -0.00000    -0.00000
  E(xc)     -57.88109   -57.91372   -60.21530    -0.00000    -0.00000    -0.00000
  Local   -6017.05535 -6022.16605  6148.74902    -0.00000     0.00000     0.00000
  n-local   -12.82565   -13.78579   -12.42217     0.07044    -0.00000    -0.00000
  augment    -1.46565    -1.46829    -1.36300     0.00000    -0.00000     0.00000
  Kinetic   233.27875   240.07767   272.88539    -4.42583     0.00000     0.00000
  Fock        0.00000     0.00000     0.00000     0.00000     0.00000     0.00000
  Total      -6.46510    -0.00057    -0.00136     0.00000     0.00000     0.00000
  in kB     -49.12894    -0.00435    -0.01033     0.00000     0.00000     0.00000

 VOLUME and BASIS-vectors are now :
  energy-cutoff  :     2000.00
  volume of cell :      210.84
      direct lattice vectors                 reciprocal lattice vectors
     4.401679059  0.000000000  0.000000000     0.227186032  0.000000000  0.000000000
     0.000000000  2.455420547  0.000000000     0.000000000  0.407262211  0.000000000
     0.000000000  0.000000000 19.507626216     0.000000000  0.000000000  0.051262003

[...]

 FORCES acting on ions
    electron-ion (+dipol)            ewald-force                    non-local-force                 convergence-correction
   0.642E+01 0.193E-15 -.303E-08   -.641E+01 0.112E-13 0.324E-18   -.983E-02 -.347E-17 -.103E-24   -.268E-06 -.242E-14 -.842E-13
   -.642E+01 0.704E-14 -.120E-07   0.641E+01 -.151E-14 -.225E-17   0.983E-02 0.000E+00 0.000E+00   0.268E-06 -.444E-15 -.835E-13
   0.642E+01 -.215E-12 -.306E-08   -.641E+01 0.788E-14 0.317E-17   -.983E-02 -.104E-16 0.414E-24   -.268E-06 -.230E-14 -.842E-13
   -.642E+01 0.495E-15 -.120E-07   0.641E+01 -.487E-14 -.125E-17   0.983E-02 0.139E-16 -.414E-24   0.268E-06 -.551E-15 -.835E-13
   -.741E-06 -.208E-12 -.302E-07   -.888E-15 0.127E-13 0.000E+00   0.347E-17 0.000E+00 -.103E-24   -.237E-12 -.571E-14 -.335E-12

 POSITION                                       TOTAL-FORCE (eV/Angst)
      4.39899      0.00000      0.00000         0.000265      0.000000     -0.000000
      0.73630      1.22771      0.00000        -0.000265      0.000000      0.000000
      2.19815      1.22771      0.00000         0.000265      0.000000     -0.000000
      2.93714      0.00000      0.00000        -0.000265     -0.000000      0.000000
    total drift:                               -0.000001     -0.000000     -0.000000

  FREE ENERGIE OF THE ION-ELECTRON SYSTEM (eV)
  free  energy   TOTEN  =       -36.82920563 eV

  energy  without entropy=      -36.82920563  energy(sigma->0) =      -36.82920563

 Quasi-Newton relaxation of ions (Broydens 2nd method)
  g(Force)  = 0.135E-07   g(Stress)= 0.000E+00

 Reset! Starting new Quasi-Newton update for ions

[...]

 d Force =-0.1748220E-07[-0.485E-07, 0.135E-07]  d Energy =-0.1382421E-07-0.366E-08
 d Force =-0.3274214E-03[-0.328E-03,-0.327E-03]  d Ewald  =-0.3274214E-03 0.136E-11

[...]

 retain information from N=  1 steps
 eigenvalues of (default step * inverse Hessian matrix)
  average eigenvalue of G=   0.2179
 eigenvalue spectrum of G is  0.2179

[...]

 d Force = 0.1889904E-07[-0.110E-09, 0.379E-07]  d Energy = 0.1642604E-07 0.247E-08
 d Force = 0.2560852E-03[ 0.256E-03, 0.256E-03]  d Ewald  = 0.2560852E-03-0.909E-12

[...]

 eigenvalue-minimisations  :  4676
 total energy-change (2. order) : 0.7908056E-09  ( 0.5285539E-09)
 number of electron      16.0000000 magnetization
 augmentation part        0.3706994 magnetization

[...]

 eigenvalue-minimisations  :  1686
 total energy-change (2. order) :-0.2410161E-10  ( 0.2307208E-13)
 number of electron      16.0000000 magnetization
 augmentation part        0.3706994 magnetization

[...]

 d Force =-0.3585291E-13[-0.389E-12, 0.318E-12]  d Energy =-0.2409024E-09 0.241E-09
 d Force =-0.7400396E-06[-0.740E-06,-0.740E-06]  d Ewald  =-0.7400395E-06 0.000E+00

[...]

 FEWALD executed in parallel

[...]

 eigenvalue-minimisations  :  4432
 total energy-change (2. order) : 0.5558149E-09  ( 0.5300206E-09)
 number of electron      16.0000000 magnetization
 augmentation part        0.3706994 magnetization

[...]

 eigenvalue-minimisations  :  1309
 total energy-change (2. order) :-0.5264837E-09  ( 0.3811766E-14)
 number of electron      16.0000000 magnetization
 augmentation part        0.3706994 magnetization

[...]

 eigenvalue-minimisations  :  1289
 total energy-change (2. order) :-0.3751666E-11  (-0.6353765E-13)
 number of electron      16.0000000 magnetization
 augmentation part        0.3706994 magnetization

[...]

 Broyden mixing:
  rms(total) = 0.66844E-09    rms(broyden)= 0.66844E-09
  rms(prec ) = 0.98374E-09
  weight for this iteration     100.00

 eigenvalues of (default mixing * dielectric matrix)
  average eigenvalue GAMMA=   1.6003
  2.5941  1.1034  1.1034

[...]

----------------------------------------- Iteration    5(   5)  ---------------------------------------

 eigenvalue-minimisations  :  1254
 total energy-change (2. order) : 0.6025402E-11  (-0.7989494E-14)
 number of electron      16.0000000 magnetization
 augmentation part        0.3706994 magnetization

 Free energy of the ion-electron system (eV)
  alpha Z        PSCENC =         6.18334092
  Ewald energy   TEWEN  =      2422.10143457
  -Hartree energ DENC   =     -2916.45309884
  -exchange      EXHF   =         0.00000000
  -V(xc)+E(xc)   XCENC  =        57.06445171
  PAW double counting   =       267.18330357     -272.28746047
  entropy T*S    EENTRO =        -0.00000000
  eigenvalues    EBANDS =      -189.24470400
  atomic energy  EATOM  =       588.62352690
  free energy    TOTEN  =       -36.82920563 eV

  energy without entropy =      -36.82920563  energy(sigma->0) =      -36.82920563

 average (electrostatic) potential at core
  the test charge radii are     0.6991
  (the norm of the test charge is              1.0000)
       1 -58.3404       2 -58.3404       3 -58.3404       4 -58.3404

 E-fermi :  -2.8378     XC(G=0):  -2.1844     alpha+bet : -1.9046

[...]

 k-point   247 :       0.5000    0.5000    0.0000
  band No.  band energies     occupation
      1     -16.8100      2.00000
      2     -16.8100      2.00000
      3     -15.8350      2.00000
      4     -15.8350      2.00000
      5      -9.3263      2.00000
      6      -9.3263      2.00000
      7      -4.9916      2.00000
      8      -4.9916      2.00000
      9      -1.1692      0.00000
     10      -1.1692      0.00000
     11       3.7573      0.00000
     12       3.7573      0.00000

 soft charge-density along one line, spin component           1
         0         1         2         3         4         5         6         7         8         9
 total charge-density along one line

------------------------ aborting loop because EDIFF is reached ----------------------------------------

  FORCE on cell =-STRESS in cart. coord.  units (eV):
  Direction    XX          YY          ZZ          XY          YZ          ZX
  Alpha Z     6.18334     6.18334     6.18334
  Ewald    2950.79538  2955.11877 -3483.81291     0.00000     0.00000    -0.00000
  Hartree  2892.50250  2893.95634 -2870.00574    -0.00000    -0.00000    -0.00000
  E(xc)     -57.88111   -57.91371   -60.21530     0.00000    -0.00000    -0.00000
  Local   -6017.05309 -6022.16844  6148.74902    -0.00000    -0.00000    -0.00000
  n-local   -12.82567   -13.78578   -12.42217     0.07044    -0.00000    -0.00000
  augment    -1.46565    -1.46830    -1.36300    -0.00000    -0.00000     0.00000
  Kinetic   233.27915   240.07732   272.88543    -4.42584     0.00000     0.00000
  Fock        0.00000     0.00000     0.00000     0.00000     0.00000     0.00000
  Total      -6.46514    -0.00045    -0.00133     0.00000     0.00000     0.00000
  in kB     -49.12925    -0.00346    -0.01012     0.00000     0.00000     0.00000

 VOLUME and BASIS-vectors are now :
  energy-cutoff  :     2000.00
  volume of cell :      210.84
      direct lattice vectors                 reciprocal lattice vectors
     4.401679059  0.000000000  0.000000000     0.227186032  0.000000000  0.000000000
     0.000000000  2.455420547  0.000000000     0.000000000  0.407262211  0.000000000
     0.000000000  0.000000000 19.507626216     0.000000000  0.000000000  0.051262003

  length of vectors
     4.401679059  2.455420547 19.507626216     0.227186032  0.407262211  0.051262003

 FORCES acting on ions
    electron-ion (+dipol)            ewald-force                    non-local-force                 convergence-correction
   0.642E+01 -.140E-15 -.304E-08   -.641E+01 0.462E-15 -.817E-18   -.992E-02 0.104E-16 -.646E-26   -.620E-09 -.636E-15 0.388E-11
   -.642E+01 0.338E-13 -.120E-07   0.641E+01 0.437E-14 0.508E-19   0.992E-02 -.139E-16 0.646E-26   0.620E-09 -.117E-14 0.386E-11
   0.642E+01 -.257E-12 -.303E-08   -.641E+01 0.200E-14 -.508E-19   -.992E-02 0.347E-17 -.889E-26   -.620E-09 0.674E-16 0.384E-11
   -.642E+01 0.614E-15 -.121E-07   0.641E+01 0.591E-14 0.817E-18   0.992E-02 0.000E+00 0.646E-26   0.620E-09 -.186E-14 0.386E-11
   -.741E-06 -.223E-12 -.302E-07   -.888E-15 0.127E-13 0.000E+00   0.867E-17 0.000E+00 -.242E-26   0.471E-14 -.360E-14 0.154E-10

 POSITION                                       TOTAL-FORCE (eV/Angst)
      4.39900     -0.00000     -0.00000         0.000000     -0.000000     -0.000000
      0.73630      1.22771      0.00000        -0.000000     -0.000000      0.000000
      2.19816      1.22771     -0.00000         0.000000     -0.000000     -0.000000
      2.93714      0.00000      0.00000        -0.000000      0.000000      0.000000
    total drift:                               -0.000001     -0.000000     -0.000000

  FREE ENERGIE OF THE ION-ELECTRON SYSTEM (eV)
  free  energy   TOTEN  =       -36.82920563 eV

  energy  without entropy=      -36.82920563  energy(sigma->0) =      -36.82920563

 d Force = 0.9172289E-13[-0.310E-13, 0.214E-12]  d Energy =-0.1966782E-10 0.198E-10
 d Force = 0.4075473E-06[ 0.408E-06, 0.408E-06]  d Ewald  = 0.4075468E-06 0.455E-12

 Quasi-Newton relaxation of ions (Broydens 2nd method)
  g(Force)  = 0.458E-13   g(Stress)= 0.000E+00

 retain information from N=  1 steps
 eigenvalues of (default step * inverse Hessian matrix)
  average eigenvalue of G=   0.0853
 eigenvalue spectrum of G is  0.0853

 reached required accuracy - stopping structural energy minimisation