 vasp.5.3.5 31Mar14 (build Mar 02 2015 18:14:16) complex

 executed on             LinuxIFC date 2018.08.08  18:29:48

 INCAR:
 POTCAR:   PAW_PBE C 08Apr2002
 POTCAR:   PAW_PBE C 08Apr2002
   VRHFIN =C: s2p2

   TITEL  = PAW_PBE C 08Apr2002
   POMASS =   12.011; ZVAL   =    4.000    mass and valenz
   ENMAX  =  400.000; ENMIN  =  300.000 eV
   QCUT   =   -5.516; QGAM   =   11.032    optimization parameters

   Description
     l     E      TYP  RCUT    TYP  RCUT
     0   .000     23  1.200
     0   .000     23  1.200
     1   .000     23  1.500
     1  2.500     23  1.500
     2   .000      7  1.500

 PAW_PBE C 08Apr2002                    :

 POSCAR: MD-kMC export data
  positions in direct lattice
  velocities in cartesian coordinates
 exchange correlation table for  LEXCH =        8
   RHO(1)=    0.500       N(1)  =     2000
   RHO(2)=  100.500       N(2)  =     4000

 ion  position               nearest neighbor table
   1  1.000  0.000  0.000-   2 1.43   2 1.43   4 1.44
   2  0.167  0.500  0.000-   1 1.43   1 1.43   3 1.44
   3  0.500  0.500  0.000-   4 1.43   4 1.43   2 1.44
   4  0.667  0.000  0.000-   3 1.43   3 1.43   1 1.44

  LATTYP: Found a simple orthorhombic cell.
 ALAT       =     2.4608517862
 B/A-ratio  =     1.7626310731
 C/A-ratio  =     8.0265864990

  Lattice vectors:

 A1 = (   0.0000000000,  -2.4608517862,   0.0000000000)
 A2 = (  -4.3375738247,   0.0000000000,   0.0000000000)
 A3 = (   0.0000000000,   0.0000000000, -19.7522397234)

Analysis of symmetry for initial positions (statically):
 Subroutine PRICEL returns following result:

  LATTYP: Found a base centered orthorhombic cell.
 ALAT       =     2.4608517862
 B/A-ratio  =     1.7626310731
 C/A-ratio  =     8.0265864990

[...]

   2 primitive cells build up your supercell.

 Routine SETGRP: Setting up the symmetry group for a
 simple orthorhombic supercell.

 Subroutine GETGRP returns: Found  8 space group operations
 (whereof  4 operations were pure point group operations)
 out of a pool of  8 trial point group operations.

The static configuration has the point symmetry C_2v.
 The point group associated with its full space group is D_2h.

Analysis of symmetry for dynamics (positions and initial velocities):
 Subroutine PRICEL returns following result:

  LATTYP: Found a base centered orthorhombic cell.
 ALAT       =     2.4608517862
 B/A-ratio  =     1.7626310731
 C/A-ratio  =     8.0265864990

  Lattice vectors:

 A1 = (   2.1687869123,  -1.2304258931,   0.0000000000)
 A2 = (  -2.1687869123,  -1.2304258931,   0.0000000000)
 A3 = (   0.0000000000,   0.0000000000, -19.7522397234)

   2 primitive cells build up your supercell.

 Routine SETGRP: Setting up the symmetry group for a
 simple orthorhombic supercell.

 Subroutine GETGRP returns: Found  8 space group operations
 (whereof  4 operations were pure point group operations)
 out of a pool of  8 trial point group operations.

The dynamic configuration has the point symmetry C_2v.
 The point group associated with its full space group is D_2h.

 KPOINTS: Automatic mesh

Automatic generation of k-mesh.
Space group operators:
 irot       det(A)        alpha          n_x          n_y          n_z        tau_x        tau_y        tau_z
    1     1.000000     0.000001     1.000000     0.000000     0.000000     0.000000     0.000000     0.000000
    2    -1.000000   179.999999     0.000000     0.000000     1.000000     0.000000     0.000000     0.000000
    3     1.000000   180.000000     1.000000     0.000000     0.000000     0.000000     0.000000     0.000000
    4    -1.000000   180.000000     0.000000     1.000000     0.000000     0.000000     0.000000     0.000000
    5    -1.000000     0.000001     1.000000     0.000000     0.000000     0.166667    -0.500000     0.000000
    6     1.000000   179.999999     0.000000     0.000000     1.000000     0.166667    -0.500000     0.000000
    7    -1.000000   180.000000     1.000000     0.000000     0.000000     0.166667    -0.500000     0.000000
    8     1.000000   180.000000     0.000000     1.000000     0.000000     0.166667    -0.500000     0.000000

 Subroutine IBZKPT returns following result:

 Found    247 irreducible k-points:

 Following reciprocal coordinates:
            Coordinates               Weight
  0.000000  0.000000  0.000000      1.000000
  0.041667  0.000000  0.000000      2.000000
  0.083333  0.000000  0.000000      2.000000
  0.125000  0.000000  0.000000      2.000000
  0.166667  0.000000  0.000000      2.000000
  0.208333  0.000000  0.000000      2.000000
  0.250000  0.000000  0.000000      2.000000
  0.291667  0.000000  0.000000      2.000000
  0.333333  0.000000  0.000000      2.000000
  0.375000  0.000000  0.000000      2.000000
  0.416667  0.000000  0.000000      2.000000
  0.458333  0.000000  0.000000      2.000000
  0.500000  0.000000  0.000000      1.000000
  0.000000  0.027778  0.000000      2.000000
  0.041667  0.027778  0.000000      4.000000
  0.083333  0.027778  0.000000      4.000000
  0.125000  0.027778  0.000000      4.000000
  0.166667  0.027778  0.000000      4.000000
  0.208333  0.027778  0.000000      4.000000
  0.250000  0.027778  0.000000      4.000000
  0.291667  0.027778  0.000000      4.000000
  0.333333  0.027778  0.000000      4.000000
  0.375000  0.027778  0.000000      4.000000
  0.416667  0.027778  0.000000      4.000000
  0.458333  0.027778  0.000000      4.000000
  0.500000  0.027778  0.000000      2.000000
  0.000000  0.055556  0.000000      2.000000
  0.041667  0.055556  0.000000      4.000000
  0.083333  0.055556  0.000000      4.000000
  0.125000  0.055556  0.000000      4.000000
  0.166667  0.055556  0.000000      4.000000
  0.208333  0.055556  0.000000      4.000000
  0.250000  0.055556  0.000000      4.000000
  0.291667  0.055556  0.000000      4.000000
  0.333333  0.055556  0.000000      4.000000
  0.375000  0.055556  0.000000      4.000000
  0.416667  0.055556  0.000000      4.000000
  0.458333  0.055556  0.000000      4.000000
  0.500000  0.055556  0.000000      2.000000
  0.000000  0.083333  0.000000      2.000000
  0.041667  0.083333  0.000000      4.000000
  0.083333  0.083333  0.000000      4.000000
  0.125000  0.083333  0.000000      4.000000
  0.166667  0.083333  0.000000      4.000000
  0.208333  0.083333  0.000000      4.000000
  0.250000  0.083333  0.000000      4.000000
  0.291667  0.083333  0.000000      4.000000
  0.333333  0.083333  0.000000      4.000000
  0.375000  0.083333  0.000000      4.000000
  0.416667  0.083333  0.000000      4.000000
  0.458333  0.083333  0.000000      4.000000
  0.500000  0.083333  0.000000      2.000000
  0.000000  0.111111  0.000000      2.000000
  0.041667  0.111111  0.000000      4.000000
  0.083333  0.111111  0.000000      4.000000
  0.125000  0.111111  0.000000      4.000000
  0.166667  0.111111  0.000000      4.000000
  0.208333  0.111111  0.000000      4.000000
  0.250000  0.111111  0.000000      4.000000
  0.291667  0.111111  0.000000      4.000000
[...]
  0.458333  0.472222  0.000000      4.000000
  0.500000  0.472222  0.000000      2.000000
  0.000000  0.500000  0.000000      1.000000
  0.041667  0.500000  0.000000      2.000000
  0.083333  0.500000  0.000000      2.000000
  0.125000  0.500000  0.000000      2.000000
  0.166667  0.500000  0.000000      2.000000
  0.208333  0.500000  0.000000      2.000000
  0.250000  0.500000  0.000000      2.000000
  0.291667  0.500000  0.000000      2.000000
  0.333333  0.500000  0.000000      2.000000
  0.375000  0.500000  0.000000      2.000000
  0.416667  0.500000  0.000000      2.000000
  0.458333  0.500000  0.000000      2.000000
  0.500000  0.500000  0.000000      1.000000

 Following cartesian coordinates:
            Coordinates               Weight
  0.000000  0.000000  0.000000      1.000000
  0.009606  0.000000  0.000000      2.000000
  0.019212  0.000000  0.000000      2.000000
  0.028818  0.000000  0.000000      2.000000
  0.038424  0.000000  0.000000      2.000000
  0.048030  0.000000  0.000000      2.000000
  0.057636  0.000000  0.000000      2.000000
  0.067242  0.000000  0.000000      2.000000
  0.076848  0.000000  0.000000      2.000000
  0.086454  0.000000  0.000000      2.000000
  0.096060  0.000000  0.000000      2.000000
  0.105666  0.000000  0.000000      2.000000
  0.115272  0.000000  0.000000      1.000000
  0.000000  0.011288  0.000000      2.000000
  0.009606  0.011288  0.000000      4.000000
  0.019212  0.011288  0.000000      4.000000
  0.028818  0.011288  0.000000      4.000000
  0.038424  0.011288  0.000000      4.000000
  0.048030  0.011288  0.000000      4.000000
  0.057636  0.011288  0.000000      4.000000
  0.067242  0.011288  0.000000      4.000000
  0.076848  0.011288  0.000000      4.000000
  0.086454  0.011288  0.000000      4.000000
  0.096060  0.011288  0.000000      4.000000
  0.105666  0.011288  0.000000      4.000000
  0.115272  0.011288  0.000000      2.000000
  0.000000  0.022576  0.000000      2.000000
  0.009606  0.022576  0.000000      4.000000
  0.019212  0.022576  0.000000      4.000000
  0.028818  0.022576  0.000000      4.000000
  0.038424  0.022576  0.000000      4.000000
  0.048030  0.022576  0.000000      4.000000
  0.057636  0.022576  0.000000      4.000000
  0.067242  0.022576  0.000000      4.000000
  0.076848  0.022576  0.000000      4.000000
  0.086454  0.022576  0.000000      4.000000
  0.096060  0.022576  0.000000      4.000000
  0.105666  0.022576  0.000000      4.000000
  0.115272  0.022576  0.000000      2.000000
  0.000000  0.033864  0.000000      2.000000
  0.009606  0.033864  0.000000      4.000000
  0.019212  0.033864  0.000000      4.000000
  0.028818  0.033864  0.000000      4.000000
  0.038424  0.033864  0.000000      4.000000
  0.048030  0.033864  0.000000      4.000000
  0.057636  0.033864  0.000000      4.000000
  0.067242  0.033864  0.000000      4.000000
  0.076848  0.033864  0.000000      4.000000
  0.086454  0.033864  0.000000      4.000000
  0.096060  0.033864  0.000000      4.000000
  0.105666  0.033864  0.000000      4.000000
  0.115272  0.033864  0.000000      2.000000
  0.000000  0.045151  0.000000      2.000000
  0.009606  0.045151  0.000000      4.000000
  0.019212  0.045151  0.000000      4.000000
  0.028818  0.045151  0.000000      4.000000
  0.038424  0.045151  0.000000      4.000000
  0.048030  0.045151  0.000000      4.000000
  0.057636  0.045151  0.000000      4.000000
  0.067242  0.045151  0.000000      4.000000
[...]
  0.105666  0.191894  0.000000      4.000000
  0.115272  0.191894  0.000000      2.000000
  0.000000  0.203182  0.000000      1.000000
  0.009606  0.203182  0.000000      2.000000
  0.019212  0.203182  0.000000      2.000000
  0.028818  0.203182  0.000000      2.000000
  0.038424  0.203182  0.000000      2.000000
  0.048030  0.203182  0.000000      2.000000
  0.057636  0.203182  0.000000      2.000000
  0.067242  0.203182  0.000000      2.000000
  0.076848  0.203182  0.000000      2.000000
  0.086454  0.203182  0.000000      2.000000
  0.096060  0.203182  0.000000      2.000000
  0.105666  0.203182  0.000000      2.000000
  0.115272  0.203182  0.000000      1.000000

 I would recommend the setting:
   dimension x,y,z NGX =    63 NGY =   36 NGZ =  288
[...]
 k-point ** :   0.0833 0.2500 0.0000  plane waves:   42857
 k-point ** :   0.1250 0.2500 0.0000  plane waves:   42859
 k-point ** :   0.1667 0.2500 0.0000  plane waves:   42822
 k-point ** :   0.2083 0.2500 0.0000  plane waves:   42842
 k-point ** :   0.2500 0.2500 0.0000  plane waves:   42840
 k-point ** :   0.2917 0.2500 0.0000  plane waves:   42853
 k-point ** :   0.3333 0.2500 0.0000  plane waves:   42837
 k-point ** :   0.3750 0.2500 0.0000  plane waves:   42830
 k-point ** :   0.4167 0.2500 0.0000  plane waves:   42824
 k-point ** :   0.4583 0.2500 0.0000  plane waves:   42812
 k-point ** :   0.5000 0.2500 0.0000  plane waves:   42842
 k-point ** :   0.0000 0.2778 0.0000  plane waves:   42868
 k-point ** :   0.0417 0.2778 0.0000  plane waves:   42874
 k-point ** :   0.0833 0.2778 0.0000  plane waves:   42872
 k-point ** :   0.1250 0.2778 0.0000  plane waves:   42836
 k-point ** :   0.1667 0.2778 0.0000  plane waves:   42828
 k-point ** :   0.2083 0.2778 0.0000  plane waves:   42825
 k-point ** :   0.2500 0.2778 0.0000  plane waves:   42850
 k-point ** :   0.2917 0.2778 0.0000  plane waves:   42851
 k-point ** :   0.3333 0.2778 0.0000  plane waves:   42845
 k-point ** :   0.3750 0.2778 0.0000  plane waves:   42850
 k-point ** :   0.4167 0.2778 0.0000  plane waves:   42857
 k-point ** :   0.4583 0.2778 0.0000  plane waves:   42850
 k-point ** :   0.5000 0.2778 0.0000  plane waves:   42842
 k-point ** :   0.0000 0.3056 0.0000  plane waves:   42870
 k-point ** :   0.0417 0.3056 0.0000  plane waves:   42863
 k-point ** :   0.0833 0.3056 0.0000  plane waves:   42871
 k-point ** :   0.1250 0.3056 0.0000  plane waves:   42848
 k-point ** :   0.1667 0.3056 0.0000  plane waves:   42843
 k-point ** :   0.2083 0.3056 0.0000  plane waves:   42843
 k-point ** :   0.2500 0.3056 0.0000  plane waves:   42844
 k-point ** :   0.2917 0.3056 0.0000  plane waves:   42844
 k-point ** :   0.3333 0.3056 0.0000  plane waves:   42871
 k-point ** :   0.3750 0.3056 0.0000  plane waves:   42864
 k-point ** :   0.4167 0.3056 0.0000  plane waves:   42843
 k-point ** :   0.4583 0.3056 0.0000  plane waves:   42849
 k-point ** :   0.5000 0.3056 0.0000  plane waves:   42840
 k-point ** :   0.0000 0.3333 0.0000  plane waves:   42876
 k-point ** :   0.0417 0.3333 0.0000  plane waves:   42900
 k-point ** :   0.0833 0.3333 0.0000  plane waves:   42878
[...]
 k-point ** :   0.4583 0.4722 0.0000  plane waves:   42938
 k-point ** :   0.5000 0.4722 0.0000  plane waves:   42942
 k-point ** :   0.0000 0.5000 0.0000  plane waves:   42902
 k-point ** :   0.0417 0.5000 0.0000  plane waves:   42882
 k-point ** :   0.0833 0.5000 0.0000  plane waves:   42860
 k-point ** :   0.1250 0.5000 0.0000  plane waves:   42890
 k-point ** :   0.1667 0.5000 0.0000  plane waves:   42858
 k-point ** :   0.2083 0.5000 0.0000  plane waves:   42834
 k-point ** :   0.2500 0.5000 0.0000  plane waves:   42858
 k-point ** :   0.2917 0.5000 0.0000  plane waves:   42866
 k-point ** :   0.3333 0.5000 0.0000  plane waves:   42914
 k-point ** :   0.3750 0.5000 0.0000  plane waves:   42894
 k-point ** :   0.4167 0.5000 0.0000  plane waves:   42920
 k-point ** :   0.4583 0.5000 0.0000  plane waves:   42918
 k-point ** :   0.5000 0.5000 0.0000  plane waves:   42908

 maximum and minimum number of plane-waves per node :     21492    21299

 maximum number of plane-waves:     42958
 maximum index in each direction:
   IXMAX=   15   IYMAX=    8   IZMAX=   72
   IXMIN=  -16   IYMIN=   -9   IZMIN=  -72

 NGX is ok and might be reduce to  64
 NGY is ok and might be reduce to  36
 WARNING: aliasing errors must be expected set NGZ to 290 to avoid them
 aliasing errors are usually negligible using standard VASP settings
 and one can safely disregard these warnings

 parallel 3D FFT for wavefunctions:
    minimum data exchange during FFTs selected (reduces bandwidth)
 parallel 3D FFT for charge:
    minimum data exchange during FFTs selected (reduces bandwidth)

 Broyden mixing: mesh for mixing (old mesh)
   NGX = 31   NGY = 17   NGZ =145
  (NGX  =128   NGY  = 72   NGZ  =576)
  gives a total of  76415 points

 initial charge density was supplied:
 charge density of overlapping atoms calculated
 number of electron      16.0000000 magnetization
 keeping initial charge density in first step

 Maximum index for augmentation-charges         4557 (set IRDMAX)

 First call to EWALD:  gamma=   0.298
 Maximum number of real-space cells 4x 6x 1
 Maximum number of reciprocal cells 2x 1x 8

 FEWALD executed in parallel

----------------------------------------- Iteration    1(   1)  ---------------------------------------

 eigenvalue-minimisations  :  5928
 total energy-change (2. order) : 0.1877477E+03  (-0.1058951E+04)
 number of electron      16.0000000 magnetization
 augmentation part       16.0000000 magnetization

 Free energy of the ion-electron system (eV)
  alpha Z        PSCENC =         6.18334092
  Ewald energy   TEWEN  =      2503.37782207
  -Hartree energ DENC   =     -2931.25627678
  -exchange      EXHF   =         0.00000000
  -V(xc)+E(xc)   XCENC  =        54.92824198
  PAW double counting   =       151.32577238     -155.92769107
  entropy T*S    EENTRO =        -0.00230480
  eigenvalues    EBANDS =       -29.50471795
  atomic energy  EATOM  =       588.62352690
  free energy    TOTEN  =       187.74771367 eV

  energy without entropy =      187.75001847  energy(sigma->0) =      187.74886607

[...]

 eigenvalue-minimisations  : 10396
 total energy-change (2. order) :-0.1971454E+03  (-0.1734667E+03)
 number of electron      16.0000000 magnetization
 augmentation part       16.0000000 magnetization

[...]

 Broyden mixing:
  rms(total) = 0.71984E+00    rms(broyden)= 0.71984E+00
  rms(prec ) = 0.78378E+00
  weight for this iteration     100.00

[...]

 eigenvalues of (default mixing * dielectric matrix)
  average eigenvalue GAMMA=   2.3170
  2.3170

[...]

WARNING in EDDRMM: call to ZHEGV failed, returncode =   6  3  1
WARNING in EDDRMM: call to ZHEGV failed, returncode =   6  3  1
WARNING in EDDRMM: call to ZHEGV failed, returncode =   6  3  1

[...]

 average (electrostatic) potential at core
  the test charge radii are     0.6991
  (the norm of the test charge is              1.0000)
       1 -58.2648       2 -58.2648       3 -58.2648       4 -58.2648

 E-fermi :  -2.7968     XC(G=0):  -2.1632     alpha+bet : -1.9046

 k-point     1 :       0.0000    0.0000    0.0000
  band No.  band energies     occupation
      1     -22.1496      2.00000
      2     -17.1669      2.00000
      3     -15.8911      2.00000
      4     -10.2786      2.00000
      5      -8.9416      2.00000
      6      -5.9226      2.00000
      7      -5.7487      2.00000
      8      -5.2480      2.00000
      9      -1.1446      0.00000
     10       0.5363      0.00000
     11       1.3357      0.00000
     12       1.7248      0.00000

[...]

 soft charge-density along one line, spin component           1
         0         1         2         3         4         5         6         7         8         9
 total charge-density along one line

------------------------ aborting loop because EDIFF is reached ----------------------------------------

  FORCE on cell =-STRESS in cart. coord.  units (eV):
  Direction    XX          YY          ZZ          XY          YZ          ZX
  Alpha Z     6.18334     6.18334     6.18334
  Ewald    3036.58947  3038.51852 -3571.73040     0.00000     0.00000    -0.00000
  Hartree  2974.25692  2974.93417 -2951.66079    -0.00000    -0.00000    -0.00000
  E(xc)     -58.10963   -58.12710   -60.44673    -0.00000    -0.00000    -0.00000
  Local   -6183.95455 -6186.24658  6317.78132    -0.00000     0.00000    -0.00000
  n-local   -13.37791   -13.87554   -12.59491     0.06279    -0.00000     0.00000
  augment    -1.50308    -1.50465    -1.38864     0.00000     0.00000    -0.00000
  Kinetic   236.62265   240.11738   273.85546    -4.50884     0.00000    -0.00000
  Fock        0.00000     0.00000     0.00000     0.00000     0.00000     0.00000
  Total      -3.29281    -0.00047    -0.00135     0.00000     0.00000     0.00000
  in kB     -25.02235    -0.00357    -0.01028     0.00000     0.00000     0.00000

 VOLUME and BASIS-vectors are now :
  energy-cutoff  :     2000.00
  volume of cell :      210.84
      direct lattice vectors                 reciprocal lattice vectors
     4.337573825  0.000000000  0.000000000     0.230543627  0.000000000  0.000000000
     0.000000000  2.460851786  0.000000000     0.000000000  0.406363360  0.000000000
     0.000000000  0.000000000 19.752239723     0.000000000  0.000000000  0.050627170

[...]

 FORCES acting on ions
    electron-ion (+dipol)            ewald-force                    non-local-force                 convergence-correction
   0.324E+01 0.856E-16 -.130E-08   -.324E+01 0.550E-14 0.989E-18   0.974E-03 0.000E+00 0.000E+00   0.101E-07 -.706E-15 -.844E-13
   -.324E+01 -.347E-14 -.841E-08   0.324E+01 0.271E-14 -.117E-18   -.974E-03 -.347E-17 0.258E-25   -.101E-07 -.461E-15 -.838E-13
   0.324E+01 -.192E-12 -.130E-08   -.324E+01 0.373E-14 -.122E-18   0.974E-03 0.139E-16 0.000E+00   0.101E-07 -.696E-15 -.847E-13
   -.324E+01 0.616E-15 -.843E-08   0.324E+01 0.933E-15 -.750E-18   -.974E-03 -.104E-16 0.000E+00   -.101E-07 -.477E-15 -.839E-13
   -.125E-05 -.195E-12 -.194E-07   0.444E-14 0.129E-13 0.193E-33   0.434E-18 0.000E+00 0.258E-25   0.292E-13 -.234E-14 -.337E-12

 POSITION                                       TOTAL-FORCE (eV/Angst)
      4.33602      0.00000      0.00000         0.000423      0.000000     -0.000000
      0.72448      1.23043      0.00000        -0.000423      0.000000      0.000000
      2.16723      1.23043      0.00000         0.000423      0.000000     -0.000000
      2.89327      0.00000      0.00000        -0.000423     -0.000000      0.000000
    total drift:                               -0.000001     -0.000000     -0.000000

  FREE ENERGIE OF THE ION-ELECTRON SYSTEM (eV)
  free  energy   TOTEN  =       -36.90090910 eV

  energy  without entropy=      -36.90090420  energy(sigma->0) =      -36.90090665

 Quasi-Newton relaxation of ions (Broydens 2nd method)
  g(Force)  = 0.346E-07   g(Stress)= 0.000E+00

 Reset! Starting new Quasi-Newton update for ions

[...]

 d Force =-0.4996455E-07[-0.134E-06, 0.346E-07]  d Energy =-0.4751314E-07-0.245E-08
 d Force =-0.2651325E-03[-0.265E-03,-0.265E-03]  d Ewald  =-0.2651325E-03 0.637E-11

[...]

 retain information from N=  1 steps
 eigenvalues of (default step * inverse Hessian matrix)
  average eigenvalue of G=   0.2045
 eigenvalue spectrum of G is  0.2045

 FEWALD executed in parallel

[...]

WARNING in EDDRMM: call to ZHEGV failed, returncode =   6  3  1

[...]

 eigenvalue-minimisations  :  2100
 total energy-change (2. order) : 0.3146852E-09  (-0.2356407E-12)
 number of electron      16.0000000 magnetization
 augmentation part        0.3762570 magnetization

[...]

 Broyden mixing:
  rms(total) = 0.19631E-08    rms(broyden)= 0.19631E-08
  rms(prec ) = 0.22195E-08
  weight for this iteration     100.00

 eigenvalues of (default mixing * dielectric matrix)
  average eigenvalue GAMMA=   1.8524
  6.6533  2.6128  2.6128  2.2683  1.5254  1.5254  1.0189  0.9853  0.8934  0.7374
  0.6977  0.6977

[...]

----------------------------------------- Iteration    3(  14)  ---------------------------------------

 eigenvalue-minimisations  :  1925
 total energy-change (2. order) :-0.9094947E-10  (-0.1421846E-12)
 number of electron      16.0000000 magnetization
 augmentation part        0.3762570 magnetization

 Free energy of the ion-electron system (eV)
  alpha Z        PSCENC =         6.18334092
  Ewald energy   TEWEN  =      2503.37787623
  -Hartree energ DENC   =     -2997.53034230
  -exchange      EXHF   =         0.00000000
  -V(xc)+E(xc)   XCENC  =        57.29261850
  PAW double counting   =       272.05872165     -277.18479890
  entropy T*S    EENTRO =        -0.00000488
  eigenvalues    EBANDS =      -189.72184723
  atomic energy  EATOM  =       588.62352690
  free energy    TOTEN  =       -36.90090911 eV

  energy without entropy =      -36.90090423  energy(sigma->0) =      -36.90090667

 average (electrostatic) potential at core
  the test charge radii are     0.6991
  (the norm of the test charge is              1.0000)
       1 -58.2648       2 -58.2648       3 -58.2648       4 -58.2648

 E-fermi :  -2.7968     XC(G=0):  -2.1631     alpha+bet : -1.9046

[...]

 k-point   247 :       0.5000    0.5000    0.0000
  band No.  band energies     occupation
      1     -16.9146      2.00000
      2     -16.9146      2.00000
      3     -15.9028      2.00000
      4     -15.9028      2.00000
      5      -9.2508      2.00000
      6      -9.2508      2.00000
      7      -5.0513      2.00000
      8      -5.0513      2.00000
      9      -1.1199      0.00000
     10      -1.1199      0.00000
     11       4.1732      0.00000
     12       4.1732      0.00000

 soft charge-density along one line, spin component           1
         0         1         2         3         4         5         6         7         8         9
 total charge-density along one line

------------------------ aborting loop because EDIFF is reached ----------------------------------------

  FORCE on cell =-STRESS in cart. coord.  units (eV):
  Direction    XX          YY          ZZ          XY          YZ          ZX
  Alpha Z     6.18334     6.18334     6.18334
  Ewald    3036.58587  3038.52217 -3571.73040    -0.00000     0.00000     0.00000
  Hartree  2974.25643  2974.93470 -2951.66078    -0.00000    -0.00000    -0.00000
  E(xc)     -58.10965   -58.12709   -60.44673    -0.00000    -0.00000    -0.00000
  Local   -6183.95112 -6186.25007  6317.78130    -0.00000     0.00000    -0.00000
  n-local   -13.37794   -13.87551   -12.59492     0.06279    -0.00000    -0.00000
  augment    -1.50308    -1.50466    -1.38864     0.00000     0.00000     0.00000
  Kinetic   236.62322   240.11684   273.85548    -4.50886     0.00000    -0.00000
  Fock        0.00000     0.00000     0.00000     0.00000     0.00000     0.00000
  Total      -3.29294    -0.00028    -0.00135     0.00000     0.00000     0.00000
  in kB     -25.02333    -0.00214    -0.01029     0.00000     0.00000     0.00000

 VOLUME and BASIS-vectors are now :
  energy-cutoff  :     2000.00
  volume of cell :      210.84
      direct lattice vectors                 reciprocal lattice vectors
     4.337573825  0.000000000  0.000000000     0.230543627  0.000000000  0.000000000
     0.000000000  2.460851786  0.000000000     0.000000000  0.406363360  0.000000000
     0.000000000  0.000000000 19.752239723     0.000000000  0.000000000  0.050627170

  length of vectors
     4.337573825  2.460851786 19.752239723     0.230543627  0.406363360  0.050627170

 FORCES acting on ions
    electron-ion (+dipol)            ewald-force                    non-local-force                 convergence-correction
   0.324E+01 0.964E-16 -.131E-08   -.324E+01 -.317E-14 0.161E-17   0.824E-03 -.694E-17 0.129E-25   0.441E-07 -.423E-16 -.106E-12
   -.324E+01 0.131E-13 -.841E-08   0.324E+01 0.900E-14 -.659E-18   -.824E-03 0.000E+00 -.129E-25   -.441E-07 -.133E-14 -.106E-12
   0.324E+01 -.211E-12 -.128E-08   -.324E+01 0.478E-14 0.122E-18   0.824E-03 -.694E-17 0.194E-25   0.441E-07 0.188E-15 -.106E-12
   -.324E+01 0.627E-15 -.841E-08   0.324E+01 0.227E-14 -.107E-17   -.824E-03 0.000E+00 -.194E-25   -.441E-07 -.160E-14 -.106E-12
   -.125E-05 -.197E-12 -.194E-07   0.444E-14 0.129E-13 -.193E-33   -.325E-18 -.139E-16 0.000E+00   -.885E-14 -.279E-14 -.424E-12

 POSITION                                       TOTAL-FORCE (eV/Angst)
      4.33603      0.00000     -0.00000        -0.000000      0.000000      0.000000
      0.72448      1.23043      0.00000         0.000000     -0.000000      0.000000
      2.16724      1.23043     -0.00000        -0.000000     -0.000000      0.000000
      2.89326      0.00000      0.00000         0.000000      0.000000      0.000000
    total drift:                               -0.000001     -0.000000     -0.000000

  FREE ENERGIE OF THE ION-ELECTRON SYSTEM (eV)
  free  energy   TOTEN  =       -36.90090911 eV

  energy  without entropy=      -36.90090423  energy(sigma->0) =      -36.90090667

 d Force = 0.5351414E-07[ 0.321E-10, 0.107E-06]  d Energy = 0.5139577E-07 0.212E-08
 d Force = 0.2109717E-03[ 0.211E-03, 0.211E-03]  d Ewald  = 0.2109717E-03-0.364E-11

 Quasi-Newton relaxation of ions (Broydens 2nd method)
  g(Force)  = 0.470E-13   g(Stress)= 0.000E+00

 retain information from N=  1 steps
 eigenvalues of (default step * inverse Hessian matrix)
  average eigenvalue of G=   0.2045
 eigenvalue spectrum of G is  0.2045

 reached required accuracy - stopping structural energy minimisation