 vasp.5.3.5 31Mar14 (build Mar 02 2015 18:14:16) complex

 executed on             LinuxIFC date 2018.08.10  14:53:58

 INCAR:
 POTCAR:   PAW_PBE C 08Apr2002
 POTCAR:   PAW_PBE C 08Apr2002
   VRHFIN =C: s2p2

   TITEL  = PAW_PBE C 08Apr2002
   POMASS =   12.011; ZVAL   =    4.000    mass and valenz
   ENMAX  =  400.000; ENMIN  =  300.000 eV
   QCUT   =   -5.516; QGAM   =   11.032    optimization parameters

   Description
     l     E      TYP  RCUT    TYP  RCUT
     0   .000     23  1.200
     0   .000     23  1.200
     1   .000     23  1.500
     1  2.500     23  1.500
     2   .000      7  1.500

 PAW_PBE C 08Apr2002                    :

 POSCAR: MD-kMC export data
  positions in direct lattice
  velocities in cartesian coordinates
 exchange correlation table for  LEXCH =        8
   RHO(1)=    0.500       N(1)  =     2000
   RHO(2)=  100.500       N(2)  =     4000

 ion  position               nearest neighbor table
   1  0.001  0.000  0.000-   4 1.42   2 1.45   2 1.45
   2  0.166  0.500  0.000-   3 1.42   1 1.45   1 1.45
   3  0.501  0.500  0.000-   2 1.42   4 1.45   4 1.45
   4  0.666  0.000  0.000-   1 1.42   3 1.45   3 1.45

  LATTYP: Found a simple orthorhombic cell.
 ALAT       =     2.5410752016
 B/A-ratio  =     1.6732826158
 C/A-ratio  =     7.6793919098

  Lattice vectors:

 A1 = (   0.0000000000,  -2.5410752016,   0.0000000000)
 A2 = (  -4.2519369602,   0.0000000000,   0.0000000000)
 A3 = (   0.0000000000,   0.0000000000, -19.5139123456)

Analysis of symmetry for initial positions (statically):
 Subroutine PRICEL returns following result:

  LATTYP: Found a base centered orthorhombic cell.
 ALAT       =     2.5410752016
 B/A-ratio  =     1.6732826158
 C/A-ratio  =     7.6793919098

[...]

   2 primitive cells build up your supercell.

 Routine SETGRP: Setting up the symmetry group for a
 simple orthorhombic supercell.

 Subroutine GETGRP returns: Found  8 space group operations
 (whereof  4 operations were pure point group operations)
 out of a pool of  8 trial point group operations.

The static configuration has the point symmetry C_2v.
 The point group associated with its full space group is D_2h.

Analysis of symmetry for dynamics (positions and initial velocities):
 Subroutine PRICEL returns following result:

  LATTYP: Found a base centered orthorhombic cell.
 ALAT       =     2.5410752016
 B/A-ratio  =     1.6732826158
 C/A-ratio  =     7.6793919098

  Lattice vectors:

 A1 = (   2.1259684801,  -1.2705376008,   0.0000000000)
 A2 = (  -2.1259684801,  -1.2705376008,   0.0000000000)
 A3 = (   0.0000000000,   0.0000000000, -19.5139123456)

   2 primitive cells build up your supercell.

 Routine SETGRP: Setting up the symmetry group for a
 simple orthorhombic supercell.

 Subroutine GETGRP returns: Found  8 space group operations
 (whereof  4 operations were pure point group operations)
 out of a pool of  8 trial point group operations.

The dynamic configuration has the point symmetry C_2v.
 The point group associated with its full space group is D_2h.

 KPOINTS: Automatic mesh

Automatic generation of k-mesh.
Space group operators:
 irot       det(A)        alpha          n_x          n_y          n_z        tau_x        tau_y        tau_z
    1     1.000000     0.000001     1.000000     0.000000     0.000000     0.000000     0.000000     0.000000
    2    -1.000000   180.000000     0.000000     0.000000     1.000000     0.000000     0.000000     0.000000
    3     1.000000   179.999999     1.000000     0.000000     0.000000     0.000000     0.000000     0.000000
    4    -1.000000   179.999999     0.000000     1.000000     0.000000     0.000000     0.000000     0.000000
    5    -1.000000     0.000001     1.000000     0.000000     0.000000     0.166667    -0.500000     0.000000
    6     1.000000   180.000000     0.000000     0.000000     1.000000     0.166667    -0.500000     0.000000
    7    -1.000000   179.999999     1.000000     0.000000     0.000000     0.166667    -0.500000     0.000000
    8     1.000000   179.999999     0.000000     1.000000     0.000000     0.166667    -0.500000     0.000000

 Subroutine IBZKPT returns following result:

 Found    247 irreducible k-points:

 Following reciprocal coordinates:
            Coordinates               Weight
  0.000000  0.000000  0.000000      1.000000
  0.041667  0.000000  0.000000      2.000000
  0.083333  0.000000  0.000000      2.000000
  0.125000  0.000000  0.000000      2.000000
  0.166667  0.000000  0.000000      2.000000
  0.208333  0.000000  0.000000      2.000000
  0.250000  0.000000  0.000000      2.000000
  0.291667  0.000000  0.000000      2.000000
  0.333333  0.000000  0.000000      2.000000
  0.375000  0.000000  0.000000      2.000000
  0.416667  0.000000  0.000000      2.000000
  0.458333  0.000000  0.000000      2.000000
  0.500000  0.000000  0.000000      1.000000
  0.000000  0.027778  0.000000      2.000000
  0.041667  0.027778  0.000000      4.000000
  0.083333  0.027778  0.000000      4.000000
  0.125000  0.027778  0.000000      4.000000
  0.166667  0.027778  0.000000      4.000000
  0.208333  0.027778  0.000000      4.000000
  0.250000  0.027778  0.000000      4.000000
  0.291667  0.027778  0.000000      4.000000
  0.333333  0.027778  0.000000      4.000000
  0.375000  0.027778  0.000000      4.000000
  0.416667  0.027778  0.000000      4.000000
  0.458333  0.027778  0.000000      4.000000
  0.500000  0.027778  0.000000      2.000000
  0.000000  0.055556  0.000000      2.000000
  0.041667  0.055556  0.000000      4.000000
  0.083333  0.055556  0.000000      4.000000
  0.125000  0.055556  0.000000      4.000000
  0.166667  0.055556  0.000000      4.000000
  0.208333  0.055556  0.000000      4.000000
  0.250000  0.055556  0.000000      4.000000
  0.291667  0.055556  0.000000      4.000000
  0.333333  0.055556  0.000000      4.000000
  0.375000  0.055556  0.000000      4.000000
  0.416667  0.055556  0.000000      4.000000
  0.458333  0.055556  0.000000      4.000000
  0.500000  0.055556  0.000000      2.000000
  0.000000  0.083333  0.000000      2.000000
  0.041667  0.083333  0.000000      4.000000
  0.083333  0.083333  0.000000      4.000000
  0.125000  0.083333  0.000000      4.000000
  0.166667  0.083333  0.000000      4.000000
  0.208333  0.083333  0.000000      4.000000
  0.250000  0.083333  0.000000      4.000000
  0.291667  0.083333  0.000000      4.000000
  0.333333  0.083333  0.000000      4.000000
  0.375000  0.083333  0.000000      4.000000
  0.416667  0.083333  0.000000      4.000000
  0.458333  0.083333  0.000000      4.000000
  0.500000  0.083333  0.000000      2.000000
  0.000000  0.111111  0.000000      2.000000
  0.041667  0.111111  0.000000      4.000000
  0.083333  0.111111  0.000000      4.000000
  0.125000  0.111111  0.000000      4.000000
  0.166667  0.111111  0.000000      4.000000
  0.208333  0.111111  0.000000      4.000000
  0.250000  0.111111  0.000000      4.000000
  0.291667  0.111111  0.000000      4.000000
[...]
  0.458333  0.472222  0.000000      4.000000
  0.500000  0.472222  0.000000      2.000000
  0.000000  0.500000  0.000000      1.000000
  0.041667  0.500000  0.000000      2.000000
  0.083333  0.500000  0.000000      2.000000
  0.125000  0.500000  0.000000      2.000000
  0.166667  0.500000  0.000000      2.000000
  0.208333  0.500000  0.000000      2.000000
  0.250000  0.500000  0.000000      2.000000
  0.291667  0.500000  0.000000      2.000000
  0.333333  0.500000  0.000000      2.000000
  0.375000  0.500000  0.000000      2.000000
  0.416667  0.500000  0.000000      2.000000
  0.458333  0.500000  0.000000      2.000000
  0.500000  0.500000  0.000000      1.000000

 Following cartesian coordinates:
            Coordinates               Weight
  0.000000  0.000000  0.000000      1.000000
  0.009799  0.000000  0.000000      2.000000
  0.019599  0.000000  0.000000      2.000000
  0.029398  0.000000  0.000000      2.000000
  0.039198  0.000000  0.000000      2.000000
  0.048997  0.000000  0.000000      2.000000
  0.058797  0.000000  0.000000      2.000000
  0.068596  0.000000  0.000000      2.000000
  0.078396  0.000000  0.000000      2.000000
  0.088195  0.000000  0.000000      2.000000
  0.097995  0.000000  0.000000      2.000000
  0.107794  0.000000  0.000000      2.000000
  0.117593  0.000000  0.000000      1.000000
  0.000000  0.010932  0.000000      2.000000
  0.009799  0.010932  0.000000      4.000000
  0.019599  0.010932  0.000000      4.000000
  0.029398  0.010932  0.000000      4.000000
  0.039198  0.010932  0.000000      4.000000
  0.048997  0.010932  0.000000      4.000000
  0.058797  0.010932  0.000000      4.000000
  0.068596  0.010932  0.000000      4.000000
  0.078396  0.010932  0.000000      4.000000
  0.088195  0.010932  0.000000      4.000000
  0.097995  0.010932  0.000000      4.000000
  0.107794  0.010932  0.000000      4.000000
  0.117593  0.010932  0.000000      2.000000
  0.000000  0.021863  0.000000      2.000000
  0.009799  0.021863  0.000000      4.000000
  0.019599  0.021863  0.000000      4.000000
  0.029398  0.021863  0.000000      4.000000
  0.039198  0.021863  0.000000      4.000000
  0.048997  0.021863  0.000000      4.000000
  0.058797  0.021863  0.000000      4.000000
  0.068596  0.021863  0.000000      4.000000
  0.078396  0.021863  0.000000      4.000000
  0.088195  0.021863  0.000000      4.000000
  0.097995  0.021863  0.000000      4.000000
  0.107794  0.021863  0.000000      4.000000
  0.117593  0.021863  0.000000      2.000000
  0.000000  0.032795  0.000000      2.000000
  0.009799  0.032795  0.000000      4.000000
  0.019599  0.032795  0.000000      4.000000
  0.029398  0.032795  0.000000      4.000000
  0.039198  0.032795  0.000000      4.000000
  0.048997  0.032795  0.000000      4.000000
  0.058797  0.032795  0.000000      4.000000
  0.068596  0.032795  0.000000      4.000000
  0.078396  0.032795  0.000000      4.000000
  0.088195  0.032795  0.000000      4.000000
  0.097995  0.032795  0.000000      4.000000
  0.107794  0.032795  0.000000      4.000000
  0.117593  0.032795  0.000000      2.000000
  0.000000  0.043726  0.000000      2.000000
  0.009799  0.043726  0.000000      4.000000
  0.019599  0.043726  0.000000      4.000000
  0.029398  0.043726  0.000000      4.000000
  0.039198  0.043726  0.000000      4.000000
  0.048997  0.043726  0.000000      4.000000
  0.058797  0.043726  0.000000      4.000000
  0.068596  0.043726  0.000000      4.000000
[...]
  0.107794  0.185836  0.000000      4.000000
  0.117593  0.185836  0.000000      2.000000
  0.000000  0.196767  0.000000      1.000000
  0.009799  0.196767  0.000000      2.000000
  0.019599  0.196767  0.000000      2.000000
  0.029398  0.196767  0.000000      2.000000
  0.039198  0.196767  0.000000      2.000000
  0.048997  0.196767  0.000000      2.000000
  0.058797  0.196767  0.000000      2.000000
  0.068596  0.196767  0.000000      2.000000
  0.078396  0.196767  0.000000      2.000000
  0.088195  0.196767  0.000000      2.000000
  0.097995  0.196767  0.000000      2.000000
  0.107794  0.196767  0.000000      2.000000
  0.117593  0.196767  0.000000      1.000000

 I would recommend the setting:
   dimension x,y,z NGX =    62 NGY =   37 NGZ =  285
[...]
 k-point ** :   0.0833 0.2778 0.0000  plane waves:   42822
 k-point ** :   0.1250 0.2778 0.0000  plane waves:   42794
 k-point ** :   0.1667 0.2778 0.0000  plane waves:   42810
 k-point ** :   0.2083 0.2778 0.0000  plane waves:   42793
 k-point ** :   0.2500 0.2778 0.0000  plane waves:   42788
 k-point ** :   0.2917 0.2778 0.0000  plane waves:   42773
 k-point ** :   0.3333 0.2778 0.0000  plane waves:   42772
 k-point ** :   0.3750 0.2778 0.0000  plane waves:   42744
 k-point ** :   0.4167 0.2778 0.0000  plane waves:   42766
 k-point ** :   0.4583 0.2778 0.0000  plane waves:   42754
 k-point ** :   0.5000 0.2778 0.0000  plane waves:   42756
 k-point ** :   0.0000 0.3056 0.0000  plane waves:   42872
 k-point ** :   0.0417 0.3056 0.0000  plane waves:   42855
 k-point ** :   0.0833 0.3056 0.0000  plane waves:   42839
 k-point ** :   0.1250 0.3056 0.0000  plane waves:   42825
 k-point ** :   0.1667 0.3056 0.0000  plane waves:   42807
 k-point ** :   0.2083 0.3056 0.0000  plane waves:   42803
 k-point ** :   0.2500 0.3056 0.0000  plane waves:   42784
 k-point ** :   0.2917 0.3056 0.0000  plane waves:   42815
 k-point ** :   0.3333 0.3056 0.0000  plane waves:   42787
 k-point ** :   0.3750 0.3056 0.0000  plane waves:   42768
 k-point ** :   0.4167 0.3056 0.0000  plane waves:   42778
 k-point ** :   0.4583 0.3056 0.0000  plane waves:   42748
 k-point ** :   0.5000 0.3056 0.0000  plane waves:   42754
 k-point ** :   0.0000 0.3333 0.0000  plane waves:   42850
 k-point ** :   0.0417 0.3333 0.0000  plane waves:   42853
 k-point ** :   0.0833 0.3333 0.0000  plane waves:   42839
[...]
 k-point ** :   0.4583 0.4722 0.0000  plane waves:   42766
 k-point ** :   0.5000 0.4722 0.0000  plane waves:   42742
 k-point ** :   0.0000 0.5000 0.0000  plane waves:   42830
 k-point ** :   0.0417 0.5000 0.0000  plane waves:   42850
 k-point ** :   0.0833 0.5000 0.0000  plane waves:   42866
 k-point ** :   0.1250 0.5000 0.0000  plane waves:   42864
 k-point ** :   0.1667 0.5000 0.0000  plane waves:   42876
 k-point ** :   0.2083 0.5000 0.0000  plane waves:   42862
 k-point ** :   0.2500 0.5000 0.0000  plane waves:   42842
 k-point ** :   0.2917 0.5000 0.0000  plane waves:   42866
 k-point ** :   0.3333 0.5000 0.0000  plane waves:   42800
 k-point ** :   0.3750 0.5000 0.0000  plane waves:   42762
 k-point ** :   0.4167 0.5000 0.0000  plane waves:   42782
 k-point ** :   0.4583 0.5000 0.0000  plane waves:   42792
 k-point ** :   0.5000 0.5000 0.0000  plane waves:   42756

 maximum and minimum number of plane-waves per node :     21490    21333

 maximum number of plane-waves:     42896
 maximum index in each direction:
   IXMAX=   15   IYMAX=    9   IZMAX=   71
   IXMIN=  -16   IYMIN=   -9   IZMIN=  -71

 NGX is ok and might be reduce to  64
 NGY is ok and might be reduce to  38
 NGZ is ok and might be reduce to 286

 parallel 3D FFT for wavefunctions:
    minimum data exchange during FFTs selected (reduces bandwidth)
 parallel 3D FFT for charge:
    minimum data exchange during FFTs selected (reduces bandwidth)

 Broyden mixing: mesh for mixing (old mesh)
   NGX = 31   NGY = 19   NGZ =143
  (NGX  =128   NGY  = 80   NGZ  =576)
  gives a total of  84227 points

 initial charge density was supplied:
 charge density of overlapping atoms calculated
 number of electron      16.0000000 magnetization
 keeping initial charge density in first step

 Maximum index for augmentation-charges         5069 (set IRDMAX)

 First call to EWALD:  gamma=   0.298
 Maximum number of real-space cells 4x 6x 1
 Maximum number of reciprocal cells 2x 1x 8

 FEWALD executed in parallel

----------------------------------------- Iteration    1(   1)  ---------------------------------------

 eigenvalue-minimisations  :  5928
 total energy-change (2. order) : 0.1850322E+03  (-0.1055069E+04)
 number of electron      16.0000000 magnetization
 augmentation part       16.0000000 magnetization

 Free energy of the ion-electron system (eV)
  alpha Z        PSCENC =         6.18334092
  Ewald energy   TEWEN  =      2424.16520102
  -Hartree energ DENC   =     -2854.42130412
  -exchange      EXHF   =         0.00000000
  -V(xc)+E(xc)   XCENC  =        54.76430445
  PAW double counting   =       151.32577238     -155.92769107
  entropy T*S    EENTRO =        -0.00204782
  eigenvalues    EBANDS =       -29.67888111
  atomic energy  EATOM  =       588.62352690
  free energy    TOTEN  =       185.03222156 eV

  energy without entropy =      185.03426938  energy(sigma->0) =      185.03324547

[...]

 eigenvalue-minimisations  : 10356
 total energy-change (2. order) :-0.1940428E+03  (-0.1726906E+03)
 number of electron      16.0000000 magnetization
 augmentation part       16.0000000 magnetization

[...]

 Broyden mixing:
  rms(total) = 0.70315E+00    rms(broyden)= 0.70315E+00
  rms(prec ) = 0.76658E+00
  weight for this iteration     100.00

[...]

 eigenvalues of (default mixing * dielectric matrix)
  average eigenvalue GAMMA=   2.3165
  2.3165

[...]

 average (electrostatic) potential at core
  the test charge radii are     0.6991
  (the norm of the test charge is              1.0000)
       1 -58.3385       2 -58.3385       3 -58.3385       4 -58.3385

 E-fermi :  -2.8313     XC(G=0):  -2.1865     alpha+bet : -1.9046

 k-point     1 :       0.0000    0.0000    0.0000
  band No.  band energies     occupation
      1     -22.0482      2.00000
      2     -16.6440      2.00000
      3     -15.8451      2.00000
      4     -10.2003      2.00000
      5      -9.5284      2.00000
      6      -6.0238      2.00000
      7      -5.7388      2.00000
      8      -4.8653      2.00000
      9      -1.1597      0.00000
     10       0.5488      0.00000
     11       1.3457      0.00000
     12       1.7364      0.00000

[...]

 soft charge-density along one line, spin component           1
         0         1         2         3         4         5         6         7         8         9
 total charge-density along one line

------------------------ aborting loop because EDIFF is reached ----------------------------------------

  FORCE on cell =-STRESS in cart. coord.  units (eV):
  Direction    XX          YY          ZZ          XY          YZ          ZX
  Alpha Z     6.18334     6.18334     6.18334
  Ewald    2957.08867  2953.13485 -3486.05852    -0.00000     0.00000     0.00000
  Hartree  2895.89938  2894.70363 -2872.09033     0.00000    -0.00000    -0.00000
  E(xc)     -57.92029   -57.88498   -60.22082     0.00000    -0.00000    -0.00000
  Local   -6026.02597 -6021.62672  6153.06598     0.00000     0.00000    -0.00000
  n-local   -13.78983   -12.83482   -12.42534     0.09404    -0.00000     0.00000
  augment    -1.46989    -1.46579    -1.36356     0.00000     0.00000     0.00000
  Kinetic   240.03311   233.40421   272.90791    -4.64577     0.00000    -0.00000
  Fock        0.00000     0.00000     0.00000     0.00000     0.00000     0.00000
  Total      -0.00147    -6.38627    -0.00135     0.00000     0.00000     0.00000
  in kB      -0.01121   -48.52991    -0.01023     0.00000     0.00000     0.00000

 VOLUME and BASIS-vectors are now :
  energy-cutoff  :     2000.00
  volume of cell :      210.84
      direct lattice vectors                 reciprocal lattice vectors
     4.251936960  0.000000000  0.000000000     0.235186930  0.000000000  0.000000000
     0.000000000  2.541075202  0.000000000     0.000000000  0.393534201  0.000000000
     0.000000000  0.000000000 19.513912346     0.000000000  0.000000000  0.051245490

[...]

 FORCES acting on ions
    electron-ion (+dipol)            ewald-force                    non-local-force                 convergence-correction
   -.632E+01 -.343E-15 0.792E-09   0.630E+01 -.477E-14 0.000E+00   0.137E-01 0.000E+00 0.000E+00   0.451E-06 0.108E-15 -.801E-13
   0.632E+01 -.733E-14 -.182E-08   -.630E+01 0.321E-14 0.130E-33   -.137E-01 0.347E-17 0.000E+00   -.451E-06 -.230E-14 -.789E-13
   -.632E+01 0.591E-12 0.784E-09   0.630E+01 -.309E-14 0.000E+00   0.137E-01 0.000E+00 -.517E-25   0.451E-06 0.111E-14 -.800E-13
   0.632E+01 0.805E-16 -.181E-08   -.630E+01 0.489E-14 -.144E-33   -.137E-01 0.347E-17 0.000E+00   -.451E-06 -.330E-14 -.787E-13
   -.254E-06 0.583E-12 -.205E-08   0.000E+00 0.237E-15 -.140E-34   -.104E-16 0.694E-17 -.517E-25   0.195E-12 -.438E-14 -.318E-12

 POSITION                                       TOTAL-FORCE (eV/Angst)
      0.00318      0.00000      0.00000        -0.001449      0.000000      0.000000
      0.70548      1.27054      0.00000         0.001449     -0.000000      0.000000
      2.12915      1.27054      0.00000        -0.001449      0.000000      0.000000
      2.83145      0.00000      0.00000         0.001449     -0.000000      0.000000
    total drift:                               -0.000000      0.000000     -0.000000

  FREE ENERGIE OF THE ION-ELECTRON SYSTEM (eV)
  free  energy   TOTEN  =       -36.83038848 eV

  energy  without entropy=      -36.83038848  energy(sigma->0) =      -36.83038848

 Quasi-Newton relaxation of ions (Broydens 2nd method)
  g(Force)  = 0.405E-06   g(Stress)= 0.000E+00

 Reset! Starting new Quasi-Newton update for ions

[...]

WARNING in EDDRMM: call to ZHEGV failed, returncode =   6  3  1

[...]

 d Force =-0.5975629E-06[-0.160E-05, 0.405E-06]  d Energy =-0.5796491E-06-0.179E-07
 d Force =-0.1766382E-02[-0.177E-02,-0.176E-02]  d Ewald  =-0.1766381E-02-0.273E-09

[...]

 retain information from N=  1 steps
 eigenvalues of (default step * inverse Hessian matrix)
  average eigenvalue of G=   0.2021
 eigenvalue spectrum of G is  0.2021

[...]

 d Force = 0.6395196E-06[ 0.203E-08, 0.128E-05]  d Energy = 0.6245091E-06 0.150E-07
 d Force = 0.1410011E-02[ 0.141E-02, 0.141E-02]  d Ewald  = 0.1410011E-02 0.135E-09

[...]

 eigenvalue-minimisations  :  4928
 total energy-change (2. order) : 0.4347385E-09  ( 0.5846131E-09)
 number of electron      16.0000000 magnetization
 augmentation part        0.3708205 magnetization

[...]

 eigenvalue-minimisations  :  2939
 total energy-change (2. order) :-0.6176606E-09  ( 0.1616423E-12)
 number of electron      16.0000000 magnetization
 augmentation part        0.3708205 magnetization

[...]

 eigenvalue-minimisations  :  2905
 total energy-change (2. order) :-0.2728484E-11  (-0.2736946E-12)
 number of electron      16.0000000 magnetization
 augmentation part        0.3708205 magnetization

[...]

 d Force =-0.8483543E-12[-0.492E-11, 0.322E-11]  d Energy = 0.4206413E-11-0.505E-11
 d Force = 0.2237786E-05[ 0.224E-05, 0.224E-05]  d Ewald  = 0.2237786E-05 0.000E+00

[...]

 FEWALD executed in parallel

[...]

 eigenvalue-minimisations  :  4668
 total energy-change (2. order) : 0.2210072E-09  ( 0.5888694E-09)
 number of electron      16.0000000 magnetization
 augmentation part        0.3708206 magnetization

[...]

 eigenvalue-minimisations  :  1560
 total energy-change (2. order) :-0.5638867E-09  ( 0.4675067E-13)
 number of electron      16.0000000 magnetization
 augmentation part        0.3708206 magnetization

[...]

 Broyden mixing:
  rms(total) = 0.11694E-08    rms(broyden)= 0.11694E-08
  rms(prec ) = 0.19223E-08
  weight for this iteration     100.00

 eigenvalues of (default mixing * dielectric matrix)
  average eigenvalue GAMMA=   2.2259
  3.2680  2.5511  0.8586

[...]

----------------------------------------- Iteration    5(   5)  ---------------------------------------

 eigenvalue-minimisations  :  1464
 total energy-change (2. order) : 0.1898570E-10  (-0.5637466E-14)
 number of electron      16.0000000 magnetization
 augmentation part        0.3708206 magnetization

 Free energy of the ion-electron system (eV)
  alpha Z        PSCENC =         6.18334092
  Ewald energy   TEWEN  =      2424.16555651
  -Hartree energ DENC   =     -2918.51299390
  -exchange      EXHF   =         0.00000000
  -V(xc)+E(xc)   XCENC  =        57.06991937
  PAW double counting   =       267.29802402     -272.40269416
  entropy T*S    EENTRO =        -0.00000000
  eigenvalues    EBANDS =      -189.25506818
  atomic energy  EATOM  =       588.62352690
  free energy    TOTEN  =       -36.83038853 eV

  energy without entropy =      -36.83038853  energy(sigma->0) =      -36.83038853

 average (electrostatic) potential at core
  the test charge radii are     0.6991
  (the norm of the test charge is              1.0000)
       1 -58.3385       2 -58.3385       3 -58.3385       4 -58.3385

 E-fermi :  -2.8312     XC(G=0):  -2.1839     alpha+bet : -1.9046

[...]

 k-point   247 :       0.5000    0.5000    0.0000
  band No.  band energies     occupation
      1     -17.1393      2.00000
      2     -17.1393      2.00000
      3     -15.8157      2.00000
      4     -15.8157      2.00000
      5      -8.9316      2.00000
      6      -8.9316      2.00000
      7      -5.2483      2.00000
      8      -5.2483      2.00000
      9      -1.1902      0.00000
     10      -1.1902      0.00000
     11       4.5863      0.00000
     12       4.5863      0.00000

 soft charge-density along one line, spin component           1
         0         1         2         3         4         5         6         7         8         9
 total charge-density along one line

------------------------ aborting loop because EDIFF is reached ----------------------------------------

  FORCE on cell =-STRESS in cart. coord.  units (eV):
  Direction    XX          YY          ZZ          XY          YZ          ZX
  Alpha Z     6.18334     6.18334     6.18334
  Ewald    2957.10080  2953.12308 -3486.05852     0.00000     0.00000    -0.00000
  Hartree  2895.90116  2894.70216 -2872.09032     0.00000    -0.00000    -0.00000
  E(xc)     -57.92027   -57.88504   -60.22084    -0.00000     0.00000    -0.00000
  Local   -6026.03748 -6021.61567  6153.06589     0.00000     0.00000    -0.00000
  n-local   -13.78974   -12.83492   -12.42535     0.09403     0.00000     0.00000
  augment    -1.46991    -1.46577    -1.36356     0.00000    -0.00000     0.00000
  Kinetic   240.03141   233.40614   272.90804    -4.64570    -0.00000    -0.00000
  Fock        0.00000     0.00000     0.00000     0.00000     0.00000     0.00000
  Total      -0.00069    -6.38669    -0.00133     0.00000     0.00000     0.00000
  in kB      -0.00524   -48.53308    -0.01010     0.00000     0.00000     0.00000

 VOLUME and BASIS-vectors are now :
  energy-cutoff  :     2000.00
  volume of cell :      210.84
      direct lattice vectors                 reciprocal lattice vectors
     4.251936960  0.000000000  0.000000000     0.235186930  0.000000000  0.000000000
     0.000000000  2.541075202  0.000000000     0.000000000  0.393534201  0.000000000
     0.000000000  0.000000000 19.513912346     0.000000000  0.000000000  0.051245490

  length of vectors
     4.251936960  2.541075202 19.513912346     0.235186930  0.393534201  0.051245490

 FORCES acting on ions
    electron-ion (+dipol)            ewald-force                    non-local-force                 convergence-correction
   -.632E+01 -.227E-15 0.793E-09   0.631E+01 0.132E-14 -.132E-17   0.142E-01 -.347E-17 0.000E+00   0.413E-08 -.504E-14 0.729E-13
   0.632E+01 0.216E-12 -.183E-08   -.631E+01 -.304E-14 0.202E-18   -.142E-01 -.104E-16 0.126E-26   -.413E-08 0.113E-14 0.710E-13
   -.632E+01 0.663E-12 0.807E-09   0.631E+01 0.316E-14 -.513E-18   0.142E-01 -.104E-16 0.485E-26   0.413E-08 -.214E-14 0.771E-13
   0.632E+01 -.781E-15 -.187E-08   -.631E+01 -.121E-14 0.163E-17   -.142E-01 0.104E-16 -.323E-26   -.413E-08 -.196E-14 0.777E-13
   -.254E-06 0.878E-12 -.210E-08   0.000E+00 0.237E-15 -.193E-33   0.000E+00 -.139E-16 0.288E-26   0.216E-14 -.800E-14 0.299E-12

 POSITION                                       TOTAL-FORCE (eV/Angst)
      0.00317      0.00000      0.00000        -0.000001      0.000000      0.000000
      0.70549      1.27054     -0.00000         0.000001      0.000000     -0.000000
      2.12913      1.27054      0.00000        -0.000001     -0.000000      0.000000
      2.83146     -0.00000     -0.00000         0.000001      0.000000     -0.000000
    total drift:                               -0.000000      0.000000     -0.000000

  FREE ENERGIE OF THE ION-ELECTRON SYSTEM (eV)
  free  energy   TOTEN  =       -36.83038853 eV

  energy  without entropy=      -36.83038853  energy(sigma->0) =      -36.83038853

 d Force = 0.1579313E-11[ 0.187E-12, 0.297E-11]  d Energy = 0.2893330E-09-0.288E-09
 d Force =-0.1352138E-05[-0.135E-05,-0.135E-05]  d Ewald  =-0.1352138E-05 0.000E+00

 Quasi-Newton relaxation of ions (Broydens 2nd method)
  g(Force)  = 0.147E-12   g(Stress)= 0.000E+00

 retain information from N=  1 steps
 eigenvalues of (default step * inverse Hessian matrix)
  average eigenvalue of G=   0.0855
 eigenvalue spectrum of G is  0.0855

 reached required accuracy - stopping structural energy minimisation