     Program PWSCF v.6.4.1 starts on 18Jul2019 at 23:48:59

     R & G space division:  proc/nbgrp/npool/nimage =       2
     Reading input from graphene.2_scf.in

     Current dimensions of program PWSCF are:
     Max number of different atomic species (ntypx) = 10
     Max number of k-points (npk) =  40000
     Max angular momentum in pseudopotentials (lmaxx) =  3
               file C.pbe-n-kjpaw_psl.1.0.0.UPF: wavefunction(s)  2S 2P renormalized

     Subspace diagonalization in iterative solution of the eigenvalue problem:
     a serial algorithm will be used

     Message from routine setup:
     DEPRECATED: symmetry with ibrav=0, use correct ibrav instead

     bravais-lattice index     =            0
     lattice parameter (alat)  =       4.6487  a.u.
     unit-cell volume          =     710.6031 (a.u.)^3
     number of atoms/cell      =            2
     number of atomic types    =            1
     number of electrons       =         8.00
     number of Kohn-Sham states=            8
     kinetic-energy cutoff     =      40.0000  Ry
     charge density cutoff     =     400.0000  Ry
     convergence threshold     =      1.0E-10
     mixing beta               =       0.3000
     number of iterations used =            8  plain     mixing
     Exchange-correlation      = SLA PW PBX PBC ( 1  4  3  4 0 0)

     celldm(1)=   4.648726  celldm(2)=   0.000000  celldm(3)=   0.000000
     celldm(4)=   0.000000  celldm(5)=   0.000000  celldm(6)=   0.000000

     crystal axes: (cart. coord. in units of alat)
               a(1) = (   1.002305   0.000000   0.000000 )
               a(2) = (  -0.501152   0.868021   0.000000 )
               a(3) = (   0.000000   0.000000   8.130081 )

     reciprocal axes: (cart. coord. in units 2 pi/alat)
               b(1) = (  0.997700  0.576023  0.000000 )
               b(2) = (  0.000000  1.152045  0.000000 )
               b(3) = (  0.000000  0.000000  0.123000 )

     PseudoPot. # 1 for C  read from file:
     /home/anonymous/quantumEspresso_2019/SSSP_precision_pseudos/C.pbe-n-kjpaw_psl.1.0.0.UPF
     MD5 check sum: 5d2aebdfa2cae82b50a7e79e9516da0f
     Pseudo is Projector augmented-wave + core cor, Zval =  4.0
     Generated using "atomic" code by A. Dal Corso v.5.1
     Shape of augmentation charge: PSQ
     Using radial grid of 1073 points,  4 beta functions with:
                l(1) =   0
                l(2) =   0
                l(3) =   1
                l(4) =   1
     Q(r) pseudized with 0 coefficients

     atomic species   valence    mass     pseudopotential
        C              4.00    12.01070     C ( 1.00)

     24 Sym. Ops., with inversion, found (18 have fractional translation)

   Cartesian axes

     site n.     atom                  positions (alat units)
         1           C   tau(   1) = (   0.0000000   0.0000000   2.0325203  )
         2           C   tau(   2) = (  -0.0000000   0.5786810   2.0325203  )

     number of k points=    19  Marzari-Vanderbilt smearing, width (Ry)=  0.0001
                       cart. coord. in units 2pi/alat
        k(    1) = (   0.0000000   0.0000000   0.0000000), wk =   0.0138889
        k(    2) = (   0.0000000   0.0960038   0.0000000), wk =   0.0833333
        k(    3) = (   0.0000000   0.1920075   0.0000000), wk =   0.0833333
        k(    4) = (   0.0000000   0.2880113   0.0000000), wk =   0.0833333
        k(    5) = (   0.0000000   0.3840151   0.0000000), wk =   0.0833333
        k(    6) = (   0.0000000   0.4800188   0.0000000), wk =   0.0833333
        k(    7) = (   0.0000000  -0.5760226   0.0000000), wk =   0.0416667
        k(    8) = (   0.0831417   0.1440057   0.0000000), wk =   0.0833333
        k(    9) = (   0.0831417   0.2400094   0.0000000), wk =   0.1666667
        k(   10) = (   0.0831417   0.3360132   0.0000000), wk =   0.1666667
        k(   11) = (   0.0831417   0.4320170   0.0000000), wk =   0.1666667
        k(   12) = (   0.0831417   0.5280207   0.0000000), wk =   0.1666667
        k(   13) = (   0.1662834   0.2880113   0.0000000), wk =   0.0833333
        k(   14) = (   0.1662834   0.3840151   0.0000000), wk =   0.1666667
        k(   15) = (   0.1662834   0.4800188   0.0000000), wk =   0.1666667
        k(   16) = (   0.1662834   0.5760226   0.0000000), wk =   0.0833333
        k(   17) = (   0.2494251   0.4320170   0.0000000), wk =   0.0833333
        k(   18) = (   0.2494251   0.5280207   0.0000000), wk =   0.1666667
        k(   19) = (   0.3325668   0.5760226   0.0000000), wk =   0.0277778

     Check: negative core charge=   -0.000002

     Initial potential from superposition of free atoms

     starting charge    7.99992, renormalised to    8.00000

     negative rho (up, down):  1.066E-04 0.000E+00
     Starting wfcs are    8 randomized atomic wfcs
     Checking if some PAW data can be deallocated...

     Self-consistent Calculation

     iteration #  1     ecut=    40.00 Ry     beta= 0.30
     Davidson diagonalization with overlap
     ethr =  1.00E-02,  avg # of iterations =  5.2

     negative rho (up, down):  1.072E-04 0.000E+00

     total energy              =     -36.90754426 Ry
     Harris-Foulkes estimate   =     -36.97709625 Ry
     estimated scf accuracy    <       0.20182301 Ry

[...]

     total energy              =     -36.88591026 Ry
     Harris-Foulkes estimate   =     -36.88591026 Ry
     estimated scf accuracy    <          2.4E-09 Ry

     iteration #  9     ecut=    40.00 Ry     beta= 0.30
     Davidson diagonalization with overlap
     ethr =  2.98E-11,  avg # of iterations =  2.0

     negative rho (up, down):  1.263E-04 0.000E+00

     End of self-consistent calculation

          k = 0.0000 0.0000 0.0000 (  3053 PWs)   bands (ev):

   -21.8803  -9.9729  -5.4004  -5.4004   0.8490   1.5154   1.6441   2.6545

[...]

          k = 0.3326 0.5760 0.0000 (  3009 PWs)   bands (ev):

   -14.9593 -14.9593 -12.9225  -2.3463  -2.3463   8.2702  10.5309  10.5309

     the Fermi energy is    -2.3462 ev

!    total energy              =     -36.88591027 Ry
     Harris-Foulkes estimate   =     -36.88591026 Ry
     estimated scf accuracy    <          6.3E-11 Ry

     total all-electron energy =      -152.414106 Ry

     The total energy is the sum of the following terms:

     one-electron contribution =    -223.81296135 Ry
     hartree contribution      =     113.34111038 Ry
     xc contribution           =      -9.27399271 Ry
     ewald contribution        =      95.19374234 Ry
     one-center paw contrib.   =     -12.33380802 Ry
     smearing contrib. (-TS)   =      -0.00000091 Ry

     convergence has been achieved in   9 iterations

     Writing output data file graphene.save/

     General routines

     Parallel routines

   This run was terminated on:  23:49:18  18Jul2019

   JOB DONE.