 vasp.5.3.5 31Mar14 (build Mar 02 2015 18:14:16) complex

 executed on             LinuxIFC date 2018.08.09  20:07:53

 INCAR:
 POTCAR:   PAW_PBE C 08Apr2002
 POTCAR:   PAW_PBE C 08Apr2002
   VRHFIN =C: s2p2

   TITEL  = PAW_PBE C 08Apr2002
   POMASS =   12.011; ZVAL   =    4.000    mass and valenz
   ENMAX  =  400.000; ENMIN  =  300.000 eV
   QCUT   =   -5.516; QGAM   =   11.032    optimization parameters

   Description
     l     E      TYP  RCUT    TYP  RCUT
     0   .000     23  1.200
     0   .000     23  1.200
     1   .000     23  1.500
     1  2.500     23  1.500
     2   .000      7  1.500

 PAW_PBE C 08Apr2002                    :

 POSCAR: MD-kMC export data
  positions in direct lattice
  velocities in cartesian coordinates
 exchange correlation table for  LEXCH =        8
   RHO(1)=    0.500       N(1)  =     2000
   RHO(2)=  100.500       N(2)  =     4000

 ion  position               nearest neighbor table
   1  0.000  0.000  0.000-   4 1.42   2 1.44   2 1.44
   2  0.166  0.500  0.000-   3 1.42   1 1.44   1 1.44
   3  0.500  0.500  0.000-   2 1.42   4 1.44   4 1.44
   4  0.666  0.000  0.000-   1 1.42   3 1.44   3 1.44

  LATTYP: Found a simple orthorhombic cell.
 ALAT       =     2.5049274600
 B/A-ratio  =     1.7013908098
 C/A-ratio  =     7.8842273861

  Lattice vectors:

 A1 = (   0.0000000000,  -2.5049274600,   0.0000000000)
 A2 = (  -4.2618605596,   0.0000000000,   0.0000000000)
 A3 = (   0.0000000000,   0.0000000000, -19.7494176805)

Analysis of symmetry for initial positions (statically):
 Subroutine PRICEL returns following result:

  LATTYP: Found a base centered orthorhombic cell.
 ALAT       =     2.5049274600
 B/A-ratio  =     1.7013908098
 C/A-ratio  =     7.8842273861

[...]

   2 primitive cells build up your supercell.

 Routine SETGRP: Setting up the symmetry group for a
 simple orthorhombic supercell.

 Subroutine GETGRP returns: Found  8 space group operations
 (whereof  4 operations were pure point group operations)
 out of a pool of  8 trial point group operations.

The static configuration has the point symmetry C_2v.
 The point group associated with its full space group is D_2h.

Analysis of symmetry for dynamics (positions and initial velocities):
 Subroutine PRICEL returns following result:

  LATTYP: Found a base centered orthorhombic cell.
 ALAT       =     2.5049274600
 B/A-ratio  =     1.7013908098
 C/A-ratio  =     7.8842273861

  Lattice vectors:

 A1 = (   2.1309302798,  -1.2524637300,   0.0000000000)
 A2 = (  -2.1309302798,  -1.2524637300,   0.0000000000)
 A3 = (   0.0000000000,   0.0000000000, -19.7494176805)

   2 primitive cells build up your supercell.

 Routine SETGRP: Setting up the symmetry group for a
 simple orthorhombic supercell.

 Subroutine GETGRP returns: Found  8 space group operations
 (whereof  4 operations were pure point group operations)
 out of a pool of  8 trial point group operations.

The dynamic configuration has the point symmetry C_2v.
 The point group associated with its full space group is D_2h.

 KPOINTS: Automatic mesh

Automatic generation of k-mesh.
Space group operators:
 irot       det(A)        alpha          n_x          n_y          n_z        tau_x        tau_y        tau_z
    1     1.000000     0.000000     1.000000     0.000000     0.000000     0.000000     0.000000     0.000000
    2    -1.000000   180.000000     0.000000     0.000000     1.000000     0.000000     0.000000     0.000000
    3     1.000000   179.999999     1.000000     0.000000     0.000000     0.000000     0.000000     0.000000
    4    -1.000000   180.000000     0.000000     1.000000     0.000000     0.000000     0.000000     0.000000
    5    -1.000000     0.000000     1.000000     0.000000     0.000000     0.166667    -0.500000     0.000000
    6     1.000000   180.000000     0.000000     0.000000     1.000000     0.166667    -0.500000     0.000000
    7    -1.000000   179.999999     1.000000     0.000000     0.000000     0.166667    -0.500000     0.000000
    8     1.000000   180.000000     0.000000     1.000000     0.000000     0.166667    -0.500000     0.000000

 Subroutine IBZKPT returns following result:

 Found    247 irreducible k-points:

 Following reciprocal coordinates:
            Coordinates               Weight
  0.000000  0.000000  0.000000      1.000000
  0.041667  0.000000  0.000000      2.000000
  0.083333  0.000000  0.000000      2.000000
  0.125000  0.000000  0.000000      2.000000
  0.166667  0.000000  0.000000      2.000000
  0.208333  0.000000  0.000000      2.000000
  0.250000  0.000000  0.000000      2.000000
  0.291667  0.000000  0.000000      2.000000
  0.333333  0.000000  0.000000      2.000000
  0.375000  0.000000  0.000000      2.000000
  0.416667  0.000000  0.000000      2.000000
  0.458333  0.000000  0.000000      2.000000
  0.500000  0.000000  0.000000      1.000000
  0.000000  0.027778  0.000000      2.000000
  0.041667  0.027778  0.000000      4.000000
  0.083333  0.027778  0.000000      4.000000
  0.125000  0.027778  0.000000      4.000000
  0.166667  0.027778  0.000000      4.000000
  0.208333  0.027778  0.000000      4.000000
  0.250000  0.027778  0.000000      4.000000
  0.291667  0.027778  0.000000      4.000000
  0.333333  0.027778  0.000000      4.000000
  0.375000  0.027778  0.000000      4.000000
  0.416667  0.027778  0.000000      4.000000
  0.458333  0.027778  0.000000      4.000000
  0.500000  0.027778  0.000000      2.000000
  0.000000  0.055556  0.000000      2.000000
  0.041667  0.055556  0.000000      4.000000
  0.083333  0.055556  0.000000      4.000000
  0.125000  0.055556  0.000000      4.000000
  0.166667  0.055556  0.000000      4.000000
  0.208333  0.055556  0.000000      4.000000
  0.250000  0.055556  0.000000      4.000000
  0.291667  0.055556  0.000000      4.000000
  0.333333  0.055556  0.000000      4.000000
  0.375000  0.055556  0.000000      4.000000
  0.416667  0.055556  0.000000      4.000000
  0.458333  0.055556  0.000000      4.000000
  0.500000  0.055556  0.000000      2.000000
  0.000000  0.083333  0.000000      2.000000
  0.041667  0.083333  0.000000      4.000000
  0.083333  0.083333  0.000000      4.000000
  0.125000  0.083333  0.000000      4.000000
  0.166667  0.083333  0.000000      4.000000
  0.208333  0.083333  0.000000      4.000000
  0.250000  0.083333  0.000000      4.000000
  0.291667  0.083333  0.000000      4.000000
  0.333333  0.083333  0.000000      4.000000
  0.375000  0.083333  0.000000      4.000000
  0.416667  0.083333  0.000000      4.000000
  0.458333  0.083333  0.000000      4.000000
  0.500000  0.083333  0.000000      2.000000
  0.000000  0.111111  0.000000      2.000000
  0.041667  0.111111  0.000000      4.000000
  0.083333  0.111111  0.000000      4.000000
  0.125000  0.111111  0.000000      4.000000
  0.166667  0.111111  0.000000      4.000000
  0.208333  0.111111  0.000000      4.000000
  0.250000  0.111111  0.000000      4.000000
  0.291667  0.111111  0.000000      4.000000
[...]
  0.458333  0.472222  0.000000      4.000000
  0.500000  0.472222  0.000000      2.000000
  0.000000  0.500000  0.000000      1.000000
  0.041667  0.500000  0.000000      2.000000
  0.083333  0.500000  0.000000      2.000000
  0.125000  0.500000  0.000000      2.000000
  0.166667  0.500000  0.000000      2.000000
  0.208333  0.500000  0.000000      2.000000
  0.250000  0.500000  0.000000      2.000000
  0.291667  0.500000  0.000000      2.000000
  0.333333  0.500000  0.000000      2.000000
  0.375000  0.500000  0.000000      2.000000
  0.416667  0.500000  0.000000      2.000000
  0.458333  0.500000  0.000000      2.000000
  0.500000  0.500000  0.000000      1.000000

 Following cartesian coordinates:
            Coordinates               Weight
  0.000000  0.000000  0.000000      1.000000
  0.009777  0.000000  0.000000      2.000000
  0.019553  0.000000  0.000000      2.000000
  0.029330  0.000000  0.000000      2.000000
  0.039107  0.000000  0.000000      2.000000
  0.048883  0.000000  0.000000      2.000000
  0.058660  0.000000  0.000000      2.000000
  0.068436  0.000000  0.000000      2.000000
  0.078213  0.000000  0.000000      2.000000
  0.087990  0.000000  0.000000      2.000000
  0.097766  0.000000  0.000000      2.000000
  0.107543  0.000000  0.000000      2.000000
  0.117320  0.000000  0.000000      1.000000
  0.000000  0.011089  0.000000      2.000000
  0.009777  0.011089  0.000000      4.000000
  0.019553  0.011089  0.000000      4.000000
  0.029330  0.011089  0.000000      4.000000
  0.039107  0.011089  0.000000      4.000000
  0.048883  0.011089  0.000000      4.000000
  0.058660  0.011089  0.000000      4.000000
  0.068436  0.011089  0.000000      4.000000
  0.078213  0.011089  0.000000      4.000000
  0.087990  0.011089  0.000000      4.000000
  0.097766  0.011089  0.000000      4.000000
  0.107543  0.011089  0.000000      4.000000
  0.117320  0.011089  0.000000      2.000000
  0.000000  0.022179  0.000000      2.000000
  0.009777  0.022179  0.000000      4.000000
  0.019553  0.022179  0.000000      4.000000
  0.029330  0.022179  0.000000      4.000000
  0.039107  0.022179  0.000000      4.000000
  0.048883  0.022179  0.000000      4.000000
  0.058660  0.022179  0.000000      4.000000
  0.068436  0.022179  0.000000      4.000000
  0.078213  0.022179  0.000000      4.000000
  0.087990  0.022179  0.000000      4.000000
  0.097766  0.022179  0.000000      4.000000
  0.107543  0.022179  0.000000      4.000000
  0.117320  0.022179  0.000000      2.000000
  0.000000  0.033268  0.000000      2.000000
  0.009777  0.033268  0.000000      4.000000
  0.019553  0.033268  0.000000      4.000000
  0.029330  0.033268  0.000000      4.000000
  0.039107  0.033268  0.000000      4.000000
  0.048883  0.033268  0.000000      4.000000
  0.058660  0.033268  0.000000      4.000000
  0.068436  0.033268  0.000000      4.000000
  0.078213  0.033268  0.000000      4.000000
  0.087990  0.033268  0.000000      4.000000
  0.097766  0.033268  0.000000      4.000000
  0.107543  0.033268  0.000000      4.000000
  0.117320  0.033268  0.000000      2.000000
  0.000000  0.044357  0.000000      2.000000
  0.009777  0.044357  0.000000      4.000000
  0.019553  0.044357  0.000000      4.000000
  0.029330  0.044357  0.000000      4.000000
  0.039107  0.044357  0.000000      4.000000
  0.048883  0.044357  0.000000      4.000000
  0.058660  0.044357  0.000000      4.000000
  0.068436  0.044357  0.000000      4.000000
[...]
  0.107543  0.188517  0.000000      4.000000
  0.117320  0.188517  0.000000      2.000000
  0.000000  0.199607  0.000000      1.000000
  0.009777  0.199607  0.000000      2.000000
  0.019553  0.199607  0.000000      2.000000
  0.029330  0.199607  0.000000      2.000000
  0.039107  0.199607  0.000000      2.000000
  0.048883  0.199607  0.000000      2.000000
  0.058660  0.199607  0.000000      2.000000
  0.068436  0.199607  0.000000      2.000000
  0.078213  0.199607  0.000000      2.000000
  0.087990  0.199607  0.000000      2.000000
  0.097766  0.199607  0.000000      2.000000
  0.107543  0.199607  0.000000      2.000000
  0.117320  0.199607  0.000000      1.000000

 I would recommend the setting:
   dimension x,y,z NGX =    62 NGY =   37 NGZ =  288
[...]
 k-point ** :   0.2917 0.2778 0.0000  plane waves:   42809
 k-point ** :   0.3333 0.2778 0.0000  plane waves:   42792
 k-point ** :   0.3750 0.2778 0.0000  plane waves:   42774
 k-point ** :   0.4167 0.2778 0.0000  plane waves:   42773
 k-point ** :   0.4583 0.2778 0.0000  plane waves:   42752
 k-point ** :   0.5000 0.2778 0.0000  plane waves:   42738
 k-point ** :   0.0000 0.3056 0.0000  plane waves:   42896
 k-point ** :   0.0417 0.3056 0.0000  plane waves:   42889
 k-point ** :   0.0833 0.3056 0.0000  plane waves:   42907
 k-point ** :   0.1250 0.3056 0.0000  plane waves:   42891
 k-point ** :   0.1667 0.3056 0.0000  plane waves:   42877
 k-point ** :   0.2083 0.3056 0.0000  plane waves:   42849
 k-point ** :   0.2500 0.3056 0.0000  plane waves:   42832
 k-point ** :   0.2917 0.3056 0.0000  plane waves:   42809
 k-point ** :   0.3333 0.3056 0.0000  plane waves:   42786
 k-point ** :   0.3750 0.3056 0.0000  plane waves:   42782
 k-point ** :   0.4167 0.3056 0.0000  plane waves:   42783
 k-point ** :   0.4583 0.3056 0.0000  plane waves:   42754
 k-point ** :   0.5000 0.3056 0.0000  plane waves:   42750
 k-point ** :   0.0000 0.3333 0.0000  plane waves:   42904
 k-point ** :   0.0417 0.3333 0.0000  plane waves:   42881
 k-point ** :   0.0833 0.3333 0.0000  plane waves:   42899
[...]
 k-point ** :   0.4583 0.4722 0.0000  plane waves:   42835
 k-point ** :   0.5000 0.4722 0.0000  plane waves:   42818
 k-point ** :   0.0000 0.5000 0.0000  plane waves:   42854
 k-point ** :   0.0417 0.5000 0.0000  plane waves:   42846
 k-point ** :   0.0833 0.5000 0.0000  plane waves:   42870
 k-point ** :   0.1250 0.5000 0.0000  plane waves:   42870
 k-point ** :   0.1667 0.5000 0.0000  plane waves:   42904
 k-point ** :   0.2083 0.5000 0.0000  plane waves:   42876
 k-point ** :   0.2500 0.5000 0.0000  plane waves:   42884
 k-point ** :   0.2917 0.5000 0.0000  plane waves:   42884
 k-point ** :   0.3333 0.5000 0.0000  plane waves:   42904
 k-point ** :   0.3750 0.5000 0.0000  plane waves:   42874
 k-point ** :   0.4167 0.5000 0.0000  plane waves:   42864
 k-point ** :   0.4583 0.5000 0.0000  plane waves:   42868
 k-point ** :   0.5000 0.5000 0.0000  plane waves:   42776

 maximum and minimum number of plane-waves per node :     21481    21348

 maximum number of plane-waves:     42925
 maximum index in each direction:
   IXMAX=   15   IYMAX=    9   IZMAX=   72
   IXMIN=  -16   IYMIN=   -9   IZMIN=  -72

 NGX is ok and might be reduce to  64
 NGY is ok and might be reduce to  38
 WARNING: aliasing errors must be expected set NGZ to 290 to avoid them
 aliasing errors are usually negligible using standard VASP settings
 and one can safely disregard these warnings

 parallel 3D FFT for wavefunctions:
    minimum data exchange during FFTs selected (reduces bandwidth)
 parallel 3D FFT for charge:
    minimum data exchange during FFTs selected (reduces bandwidth)

 Broyden mixing: mesh for mixing (old mesh)
   NGX = 31   NGY = 19   NGZ =145
  (NGX  =128   NGY  = 80   NGZ  =576)
  gives a total of  85405 points

 initial charge density was supplied:
 charge density of overlapping atoms calculated
 number of electron      16.0000000 magnetization
 keeping initial charge density in first step

 Maximum index for augmentation-charges         5073 (set IRDMAX)

 First call to EWALD:  gamma=   0.298
 Maximum number of real-space cells 4x 6x 1
 Maximum number of reciprocal cells 2x 1x 8

 FEWALD executed in parallel

----------------------------------------- Iteration    1(   1)  ---------------------------------------

 eigenvalue-minimisations  :  5928
 total energy-change (2. order) : 0.1875638E+03  (-0.1058915E+04)
 number of electron      16.0000000 magnetization
 augmentation part       16.0000000 magnetization

 Free energy of the ion-electron system (eV)
  alpha Z        PSCENC =         6.18334092
  Ewald energy   TEWEN  =      2502.43252316
  -Hartree energ DENC   =     -2930.33979983
  -exchange      EXHF   =         0.00000000
  -V(xc)+E(xc)   XCENC  =        54.92627754
  PAW double counting   =       151.32577238     -155.92769107
  entropy T*S    EENTRO =        -0.00115784
  eigenvalues    EBANDS =       -29.65899679
  atomic energy  EATOM  =       588.62352690
  free energy    TOTEN  =       187.56379537 eV

  energy without entropy =      187.56495321  energy(sigma->0) =      187.56437429

[...]

 eigenvalue-minimisations  : 10400
 total energy-change (2. order) :-0.1972026E+03  (-0.1752477E+03)
 number of electron      16.0000000 magnetization
 augmentation part       16.0000000 magnetization

[...]

 Broyden mixing:
  rms(total) = 0.72050E+00    rms(broyden)= 0.72050E+00
  rms(prec ) = 0.78444E+00
  weight for this iteration     100.00

[...]

 eigenvalues of (default mixing * dielectric matrix)
  average eigenvalue GAMMA=   2.3131
  2.3131

[...]

 average (electrostatic) potential at core
  the test charge radii are     0.6991
  (the norm of the test charge is              1.0000)
       1 -58.2657       2 -58.2657       3 -58.2657       4 -58.2657

 E-fermi :  -2.7973     XC(G=0):  -2.1636     alpha+bet : -1.9046

 k-point     1 :       0.0000    0.0000    0.0000
  band No.  band energies     occupation
      1     -22.1484      2.00000
      2     -16.8263      2.00000
      3     -15.9058      2.00000
      4     -10.2777      2.00000
      5      -9.3583      2.00000
      6      -5.9178      2.00000
      7      -5.7547      2.00000
      8      -4.9838      2.00000
      9      -1.1136      0.00000
     10       0.5365      0.00000
     11       1.3358      0.00000
     12       3.8536      0.00000

[...]

 soft charge-density along one line, spin component           1
         0         1         2         3         4         5         6         7         8         9
 total charge-density along one line

------------------------ aborting loop because EDIFF is reached ----------------------------------------

  FORCE on cell =-STRESS in cart. coord.  units (eV):
  Direction    XX          YY          ZZ          XY          YZ          ZX
  Alpha Z     6.18334     6.18334     6.18334
  Ewald    3037.53367  3035.60848 -3570.70988    -0.00000     0.00000     0.00000
  Hartree  2973.96490  2973.33497 -2950.71244    -0.00000     0.00000    -0.00000
  E(xc)     -58.12494   -58.10662   -60.44402     0.00000    -0.00000    -0.00000
  Local   -6184.27799 -6182.07728  6315.81870    -0.00000     0.00000    -0.00000
  n-local   -13.87518   -13.37043   -12.59277     0.07624     0.00000    -0.00000
  augment    -1.50451    -1.50238    -1.38833     0.00000    -0.00000     0.00000
  Kinetic   240.10260   236.59759   273.84405    -4.62757    -0.00000     0.00000
  Fock        0.00000     0.00000     0.00000     0.00000     0.00000     0.00000
  Total       0.00189    -3.33231    -0.00136     0.00000     0.00000     0.00000
  in kB       0.01435   -25.32254    -0.01031     0.00000     0.00000     0.00000

 VOLUME and BASIS-vectors are now :
  energy-cutoff  :     2000.00
  volume of cell :      210.84
      direct lattice vectors                 reciprocal lattice vectors
     4.261860560  0.000000000  0.000000000     0.234639305  0.000000000  0.000000000
     0.000000000  2.504927460  0.000000000     0.000000000  0.399213157  0.000000000
     0.000000000  0.000000000 19.749417680     0.000000000  0.000000000  0.050634404

[...]

 FORCES acting on ions
    electron-ion (+dipol)            ewald-force                    non-local-force                 convergence-correction
   -.328E+01 -.150E-14 0.664E-09   0.328E+01 -.744E-14 0.188E-18   0.128E-02 0.104E-16 0.000E+00   0.399E-07 -.337E-15 -.821E-13
   0.328E+01 0.193E-12 -.327E-08   -.328E+01 0.413E-14 -.341E-33   -.128E-02 0.694E-17 0.000E+00   -.399E-07 -.264E-14 -.824E-13
   -.328E+01 -.147E-12 0.664E-09   0.328E+01 -.829E-14 -.188E-18   0.128E-02 0.104E-16 0.207E-24   0.399E-07 0.532E-15 -.824E-13
   0.328E+01 0.854E-16 -.324E-08   -.328E+01 0.328E-14 0.385E-33   -.128E-02 0.694E-17 0.000E+00   -.399E-07 -.353E-14 -.825E-13
   -.212E-06 0.439E-13 -.518E-08   0.577E-14 -.833E-14 0.481E-34   0.130E-17 0.347E-16 0.207E-24   -.516E-14 -.598E-14 -.329E-12

 POSITION                                       TOTAL-FORCE (eV/Angst)
      0.00168      0.00000      0.00000         0.002366      0.000000     -0.000000
      0.70863      1.25246      0.00000        -0.002366     -0.000000      0.000000
      2.13261      1.25246      0.00000         0.002366      0.000000     -0.000000
      2.83956      0.00000      0.00000        -0.002366     -0.000000      0.000000
    total drift:                               -0.000000      0.000000     -0.000000

  FREE ENERGIE OF THE ION-ELECTRON SYSTEM (eV)
  free  energy   TOTEN  =       -36.90014772 eV

  energy  without entropy=      -36.90014365  energy(sigma->0) =      -36.90014569

 Quasi-Newton relaxation of ions (Broydens 2nd method)
  g(Force)  = 0.108E-05   g(Stress)= 0.000E+00

 Reset! Starting new Quasi-Newton update for ions

[...]

 d Force =-0.1659848E-05[-0.440E-05, 0.108E-05]  d Energy =-0.1675986E-05 0.161E-07
 d Force = 0.1490198E-02[ 0.148E-02, 0.150E-02]  d Ewald  = 0.1490197E-02 0.117E-08

[...]

 retain information from N=  1 steps
 eigenvalues of (default step * inverse Hessian matrix)
  average eigenvalue of G=   0.1971
 eigenvalue spectrum of G is  0.1971

[...]

WARNING in EDDRMM: call to ZHEGV failed, returncode =   6  3  1

[...]

 d Force = 0.1767008E-05[ 0.143E-08, 0.353E-05]  d Energy = 0.1779470E-05-0.125E-07
 d Force =-0.1195036E-02[-0.120E-02,-0.119E-02]  d Ewald  =-0.1195035E-02-0.607E-09

[...]

 eigenvalue-minimisations  :  4884
 total energy-change (2. order) : 0.8074039E-09  ( 0.6107028E-09)
 number of electron      16.0000000 magnetization
 augmentation part        0.3761899 magnetization

[...]

 eigenvalue-minimisations  :  2052
 total energy-change (2. order) :-0.7155450E-09  ( 0.2671114E-13)
 number of electron      16.0000000 magnetization
 augmentation part        0.3761899 magnetization

[...]

 d Force =-0.5097002E-13[-0.680E-12, 0.578E-12]  d Energy =-0.1310809E-09 0.131E-09
 d Force =-0.4856967E-06[-0.486E-06,-0.486E-06]  d Ewald  =-0.4856965E-06 0.000E+00

[...]

 d Force = 0.2369703E-12[ 0.107E-12, 0.367E-12]  d Energy =-0.1956550E-09 0.196E-09
 d Force = 0.2625408E-06[ 0.263E-06, 0.263E-06]  d Ewald  = 0.2625411E-06-0.455E-12

[...]

 FEWALD executed in parallel

[...]

 eigenvalue-minimisations  :   986
 total energy-change (2. order) :-0.4724825E-09  ( 0.6677786E-14)
 number of electron      16.0000000 magnetization
 augmentation part        0.3761899 magnetization

[...]

 eigenvalue-minimisations  :   983
 total energy-change (2. order) :-0.1822400E-09  (-0.3190863E-14)
 number of electron      16.0000000 magnetization
 augmentation part        0.3761899 magnetization

[...]

 eigenvalue-minimisations  :  1059
 total energy-change (2. order) : 0.2411298E-09  (-0.5164593E-14)
 number of electron      16.0000000 magnetization
 augmentation part        0.3761899 magnetization

[...]

 Broyden mixing:
  rms(total) = 0.55281E-10    rms(broyden)= 0.55192E-10
  rms(prec ) = 0.89505E-10
  weight for this iteration     100.00

 eigenvalues of (default mixing * dielectric matrix)
  average eigenvalue GAMMA=   2.3927
  0.9720  3.2391  2.9171  2.4426

[...]

----------------------------------------- Iteration    6(   6)  ---------------------------------------

 eigenvalue-minimisations  :  1046
 total energy-change (2. order) : 0.1978151E-10  ( 0.0000000E+00)
 number of electron      16.0000000 magnetization
 augmentation part        0.3761899 magnetization

 Free energy of the ion-electron system (eV)
  alpha Z        PSCENC =         6.18334092
  Ewald energy   TEWEN  =      2502.43222811
  -Hartree energ DENC   =     -2996.58716923
  -exchange      EXHF   =         0.00000000
  -V(xc)+E(xc)   XCENC  =        57.28993388
  PAW double counting   =       272.00058438     -277.12639942
  entropy T*S    EENTRO =        -0.00000417
  eigenvalues    EBANDS =      -189.71618921
  atomic energy  EATOM  =       588.62352690
  free energy    TOTEN  =       -36.90014783 eV

  energy without entropy =      -36.90014366  energy(sigma->0) =      -36.90014574

 average (electrostatic) potential at core
  the test charge radii are     0.6991
  (the norm of the test charge is              1.0000)
       1 -58.2657       2 -58.2657       3 -58.2657       4 -58.2657

 E-fermi :  -2.7973     XC(G=0):  -2.1634     alpha+bet : -1.9046

[...]

 k-point   247 :       0.5000    0.5000    0.0000
  band No.  band energies     occupation
      1     -17.0843      2.00000
      2     -17.0843      2.00000
      3     -15.8943      2.00000
      4     -15.8943      2.00000
      5      -9.0421      2.00000
      6      -9.0421      2.00000
      7      -5.1833      2.00000
      8      -5.1833      2.00000
      9      -1.1365      0.00000
     10      -1.1365      0.00000
     11       4.5994      0.00000
     12       4.5994      0.00000

 soft charge-density along one line, spin component           1
         0         1         2         3         4         5         6         7         8         9
 total charge-density along one line

------------------------ aborting loop because EDIFF is reached ----------------------------------------

  FORCE on cell =-STRESS in cart. coord.  units (eV):
  Direction    XX          YY          ZZ          XY          YZ          ZX
  Alpha Z     6.18334     6.18334     6.18334
  Ewald    3037.51414  3035.62772 -3570.70988    -0.00000     0.00000     0.00000
  Hartree  2973.96215  2973.33748 -2950.71246     0.00000    -0.00000    -0.00000
  E(xc)     -58.12500   -58.10653   -60.44401     0.00000    -0.00000    -0.00000
  Local   -6184.25953 -6182.09538  6315.81879     0.00000     0.00000     0.00000
  n-local   -13.87534   -13.37026   -12.59276     0.07626     0.00000     0.00000
  augment    -1.50447    -1.50240    -1.38832    -0.00000    -0.00000    -0.00000
  Kinetic   240.10545   236.59457   273.84395    -4.62768    -0.00000    -0.00000
  Fock        0.00000     0.00000     0.00000     0.00000     0.00000     0.00000
  Total       0.00073    -3.33145    -0.00136     0.00000     0.00000     0.00000
  in kB       0.00555   -25.31602    -0.01030     0.00000     0.00000     0.00000

 VOLUME and BASIS-vectors are now :
  energy-cutoff  :     2000.00
  volume of cell :      210.84
      direct lattice vectors                 reciprocal lattice vectors
     4.261860560  0.000000000  0.000000000     0.234639305  0.000000000  0.000000000
     0.000000000  2.504927460  0.000000000     0.000000000  0.399213157  0.000000000
     0.000000000  0.000000000 19.749417680     0.000000000  0.000000000  0.050634404

  length of vectors
     4.261860560  2.504927460 19.749417680     0.234639305  0.399213157  0.050634404

 FORCES acting on ions
    electron-ion (+dipol)            ewald-force                    non-local-force                 convergence-correction
   -.328E+01 -.191E-15 0.669E-09   0.328E+01 0.431E-14 -.448E-18   0.445E-03 0.347E-17 0.000E+00   -.178E-09 -.222E-14 0.322E-12
   0.328E+01 -.179E-12 -.325E-08   -.328E+01 -.435E-14 -.341E-33   -.445E-03 -.104E-16 0.000E+00   0.178E-09 0.301E-15 0.322E-12
   -.328E+01 0.703E-12 0.664E-09   0.328E+01 0.190E-15 0.448E-18   0.445E-03 -.104E-16 0.000E+00   -.178E-09 -.151E-14 0.322E-12
   0.328E+01 -.179E-14 -.326E-08   -.328E+01 -.847E-14 0.337E-33   -.445E-03 0.347E-17 0.000E+00   0.178E-09 -.483E-15 0.322E-12
   -.212E-06 0.522E-12 -.518E-08   0.577E-14 -.833E-14 -.481E-34   0.000E+00 -.139E-16 0.000E+00   0.398E-14 -.391E-14 0.129E-11

 POSITION                                       TOTAL-FORCE (eV/Angst)
      0.00170      0.00000     -0.00000         0.000000     -0.000000      0.000000
      0.70861      1.25246      0.00000        -0.000000     -0.000000      0.000000
      2.13263      1.25246     -0.00000         0.000000      0.000000      0.000000
      2.83954     -0.00000      0.00000        -0.000000     -0.000000      0.000000
    total drift:                               -0.000000      0.000000     -0.000000

  FREE ENERGIE OF THE ION-ELECTRON SYSTEM (eV)
  free  energy   TOTEN  =       -36.90014783 eV

  energy  without entropy=      -36.90014366  energy(sigma->0) =      -36.90014574

 d Force = 0.2721326E-13[ 0.108E-13, 0.436E-13]  d Energy =-0.5002221E-11 0.503E-11
 d Force = 0.1073676E-06[ 0.107E-06, 0.107E-06]  d Ewald  = 0.1073677E-06 0.000E+00

 Quasi-Newton relaxation of ions (Broydens 2nd method)
  g(Force)  = 0.211E-13   g(Stress)= 0.000E+00

 retain information from N=  1 steps
 eigenvalues of (default step * inverse Hessian matrix)
  average eigenvalue of G=   0.1698
 eigenvalue spectrum of G is  0.1698

 reached required accuracy - stopping structural energy minimisation