 vasp.5.3.5 31Mar14 (build Mar 02 2015 18:14:16) complex

 executed on             LinuxIFC date 2018.08.08  18:28:53

 INCAR:
 POTCAR:   PAW_PBE C 08Apr2002
 POTCAR:   PAW_PBE C 08Apr2002
   VRHFIN =C: s2p2

   TITEL  = PAW_PBE C 08Apr2002
   POMASS =   12.011; ZVAL   =    4.000    mass and valenz
   ENMAX  =  400.000; ENMIN  =  300.000 eV
   QCUT   =   -5.516; QGAM   =   11.032    optimization parameters

   Description
     l     E      TYP  RCUT    TYP  RCUT
     0   .000     23  1.200
     0   .000     23  1.200
     1   .000     23  1.500
     1  2.500     23  1.500
     2   .000      7  1.500

 PAW_PBE C 08Apr2002                    :

 POSCAR: MD-kMC export data
  positions in direct lattice
  velocities in cartesian coordinates
 exchange correlation table for  LEXCH =        8
   RHO(1)=    0.500       N(1)  =     2000
   RHO(2)=  100.500       N(2)  =     4000

 ion  position               nearest neighbor table
   1  1.000  0.000  0.000-   2 1.43   2 1.43   4 1.44
   2  0.167  0.500  0.000-   1 1.43   1 1.43   3 1.44
   3  0.500  0.500  0.000-   4 1.43   4 1.43   2 1.44
   4  0.667  0.000  0.000-   3 1.43   3 1.43   1 1.44

  LATTYP: Found a simple orthorhombic cell.
 ALAT       =     2.4608957384
 B/A-ratio  =     1.7624259284
 C/A-ratio  =     8.0270906735

  Lattice vectors:

 A1 = (   0.0000000000,  -2.4608957384,   0.0000000000)
 A2 = (  -4.3371464565,   0.0000000000,   0.0000000000)
 A3 = (   0.0000000000,   0.0000000000, -19.7538332302)

Analysis of symmetry for initial positions (statically):
 Subroutine PRICEL returns following result:

  LATTYP: Found a base centered orthorhombic cell.
 ALAT       =     2.4608957384
 B/A-ratio  =     1.7624259284
 C/A-ratio  =     8.0270906735

[...]

   2 primitive cells build up your supercell.

 Routine SETGRP: Setting up the symmetry group for a
 simple orthorhombic supercell.

 Subroutine GETGRP returns: Found  8 space group operations
 (whereof  4 operations were pure point group operations)
 out of a pool of  8 trial point group operations.

The static configuration has the point symmetry C_2v.
 The point group associated with its full space group is D_2h.

Analysis of symmetry for dynamics (positions and initial velocities):
 Subroutine PRICEL returns following result:

  LATTYP: Found a base centered orthorhombic cell.
 ALAT       =     2.4608957384
 B/A-ratio  =     1.7624259284
 C/A-ratio  =     8.0270906735

  Lattice vectors:

 A1 = (   2.1685732282,  -1.2304478692,   0.0000000000)
 A2 = (  -2.1685732282,  -1.2304478692,   0.0000000000)
 A3 = (   0.0000000000,   0.0000000000, -19.7538332302)

   2 primitive cells build up your supercell.

 Routine SETGRP: Setting up the symmetry group for a
 simple orthorhombic supercell.

 Subroutine GETGRP returns: Found  8 space group operations
 (whereof  4 operations were pure point group operations)
 out of a pool of  8 trial point group operations.

The dynamic configuration has the point symmetry C_2v.
 The point group associated with its full space group is D_2h.

 KPOINTS: Automatic mesh

Automatic generation of k-mesh.
Space group operators:
 irot       det(A)        alpha          n_x          n_y          n_z        tau_x        tau_y        tau_z
    1     1.000000     0.000001     1.000000     0.000000     0.000000     0.000000     0.000000     0.000000
    2    -1.000000   179.999999     0.000000     0.000000     1.000000     0.000000     0.000000     0.000000
    3     1.000000   180.000000     1.000000     0.000000     0.000000     0.000000     0.000000     0.000000
    4    -1.000000   179.999999     0.000000     1.000000     0.000000     0.000000     0.000000     0.000000
    5    -1.000000     0.000001     1.000000     0.000000     0.000000     0.166667    -0.500000     0.000000
    6     1.000000   179.999999     0.000000     0.000000     1.000000     0.166667    -0.500000     0.000000
    7    -1.000000   180.000000     1.000000     0.000000     0.000000     0.166667    -0.500000     0.000000
    8     1.000000   179.999999     0.000000     1.000000     0.000000     0.166667    -0.500000     0.000000

 Subroutine IBZKPT returns following result:

 Found    247 irreducible k-points:

 Following reciprocal coordinates:
            Coordinates               Weight
  0.000000  0.000000  0.000000      1.000000
  0.041667  0.000000  0.000000      2.000000
  0.083333  0.000000  0.000000      2.000000
  0.125000  0.000000  0.000000      2.000000
  0.166667  0.000000  0.000000      2.000000
  0.208333  0.000000  0.000000      2.000000
  0.250000  0.000000  0.000000      2.000000
  0.291667  0.000000  0.000000      2.000000
  0.333333  0.000000  0.000000      2.000000
  0.375000  0.000000  0.000000      2.000000
  0.416667  0.000000  0.000000      2.000000
  0.458333  0.000000  0.000000      2.000000
  0.500000  0.000000  0.000000      1.000000
  0.000000  0.027778  0.000000      2.000000
  0.041667  0.027778  0.000000      4.000000
  0.083333  0.027778  0.000000      4.000000
  0.125000  0.027778  0.000000      4.000000
  0.166667  0.027778  0.000000      4.000000
  0.208333  0.027778  0.000000      4.000000
  0.250000  0.027778  0.000000      4.000000
  0.291667  0.027778  0.000000      4.000000
  0.333333  0.027778  0.000000      4.000000
  0.375000  0.027778  0.000000      4.000000
  0.416667  0.027778  0.000000      4.000000
  0.458333  0.027778  0.000000      4.000000
  0.500000  0.027778  0.000000      2.000000
  0.000000  0.055556  0.000000      2.000000
  0.041667  0.055556  0.000000      4.000000
  0.083333  0.055556  0.000000      4.000000
  0.125000  0.055556  0.000000      4.000000
  0.166667  0.055556  0.000000      4.000000
  0.208333  0.055556  0.000000      4.000000
  0.250000  0.055556  0.000000      4.000000
  0.291667  0.055556  0.000000      4.000000
  0.333333  0.055556  0.000000      4.000000
  0.375000  0.055556  0.000000      4.000000
  0.416667  0.055556  0.000000      4.000000
  0.458333  0.055556  0.000000      4.000000
  0.500000  0.055556  0.000000      2.000000
  0.000000  0.083333  0.000000      2.000000
  0.041667  0.083333  0.000000      4.000000
  0.083333  0.083333  0.000000      4.000000
  0.125000  0.083333  0.000000      4.000000
  0.166667  0.083333  0.000000      4.000000
  0.208333  0.083333  0.000000      4.000000
  0.250000  0.083333  0.000000      4.000000
  0.291667  0.083333  0.000000      4.000000
  0.333333  0.083333  0.000000      4.000000
  0.375000  0.083333  0.000000      4.000000
  0.416667  0.083333  0.000000      4.000000
  0.458333  0.083333  0.000000      4.000000
  0.500000  0.083333  0.000000      2.000000
  0.000000  0.111111  0.000000      2.000000
  0.041667  0.111111  0.000000      4.000000
  0.083333  0.111111  0.000000      4.000000
  0.125000  0.111111  0.000000      4.000000
  0.166667  0.111111  0.000000      4.000000
  0.208333  0.111111  0.000000      4.000000
  0.250000  0.111111  0.000000      4.000000
  0.291667  0.111111  0.000000      4.000000
[...]
  0.458333  0.472222  0.000000      4.000000
  0.500000  0.472222  0.000000      2.000000
  0.000000  0.500000  0.000000      1.000000
  0.041667  0.500000  0.000000      2.000000
  0.083333  0.500000  0.000000      2.000000
  0.125000  0.500000  0.000000      2.000000
  0.166667  0.500000  0.000000      2.000000
  0.208333  0.500000  0.000000      2.000000
  0.250000  0.500000  0.000000      2.000000
  0.291667  0.500000  0.000000      2.000000
  0.333333  0.500000  0.000000      2.000000
  0.375000  0.500000  0.000000      2.000000
  0.416667  0.500000  0.000000      2.000000
  0.458333  0.500000  0.000000      2.000000
  0.500000  0.500000  0.000000      1.000000

 Following cartesian coordinates:
            Coordinates               Weight
  0.000000  0.000000  0.000000      1.000000
  0.009607  0.000000  0.000000      2.000000
  0.019214  0.000000  0.000000      2.000000
  0.028821  0.000000  0.000000      2.000000
  0.038428  0.000000  0.000000      2.000000
  0.048035  0.000000  0.000000      2.000000
  0.057642  0.000000  0.000000      2.000000
  0.067249  0.000000  0.000000      2.000000
  0.076855  0.000000  0.000000      2.000000
  0.086462  0.000000  0.000000      2.000000
  0.096069  0.000000  0.000000      2.000000
  0.105676  0.000000  0.000000      2.000000
  0.115283  0.000000  0.000000      1.000000
  0.000000  0.011288  0.000000      2.000000
  0.009607  0.011288  0.000000      4.000000
  0.019214  0.011288  0.000000      4.000000
  0.028821  0.011288  0.000000      4.000000
  0.038428  0.011288  0.000000      4.000000
  0.048035  0.011288  0.000000      4.000000
  0.057642  0.011288  0.000000      4.000000
  0.067249  0.011288  0.000000      4.000000
  0.076855  0.011288  0.000000      4.000000
  0.086462  0.011288  0.000000      4.000000
  0.096069  0.011288  0.000000      4.000000
  0.105676  0.011288  0.000000      4.000000
  0.115283  0.011288  0.000000      2.000000
  0.000000  0.022575  0.000000      2.000000
  0.009607  0.022575  0.000000      4.000000
  0.019214  0.022575  0.000000      4.000000
  0.028821  0.022575  0.000000      4.000000
  0.038428  0.022575  0.000000      4.000000
  0.048035  0.022575  0.000000      4.000000
  0.057642  0.022575  0.000000      4.000000
  0.067249  0.022575  0.000000      4.000000
  0.076855  0.022575  0.000000      4.000000
  0.086462  0.022575  0.000000      4.000000
  0.096069  0.022575  0.000000      4.000000
  0.105676  0.022575  0.000000      4.000000
  0.115283  0.022575  0.000000      2.000000
  0.000000  0.033863  0.000000      2.000000
  0.009607  0.033863  0.000000      4.000000
  0.019214  0.033863  0.000000      4.000000
  0.028821  0.033863  0.000000      4.000000
  0.038428  0.033863  0.000000      4.000000
  0.048035  0.033863  0.000000      4.000000
  0.057642  0.033863  0.000000      4.000000
  0.067249  0.033863  0.000000      4.000000
  0.076855  0.033863  0.000000      4.000000
  0.086462  0.033863  0.000000      4.000000
  0.096069  0.033863  0.000000      4.000000
  0.105676  0.033863  0.000000      4.000000
  0.115283  0.033863  0.000000      2.000000
  0.000000  0.045151  0.000000      2.000000
  0.009607  0.045151  0.000000      4.000000
  0.019214  0.045151  0.000000      4.000000
  0.028821  0.045151  0.000000      4.000000
  0.038428  0.045151  0.000000      4.000000
  0.048035  0.045151  0.000000      4.000000
  0.057642  0.045151  0.000000      4.000000
  0.067249  0.045151  0.000000      4.000000
[...]
  0.105676  0.191890  0.000000      4.000000
  0.115283  0.191890  0.000000      2.000000
  0.000000  0.203178  0.000000      1.000000
  0.009607  0.203178  0.000000      2.000000
  0.019214  0.203178  0.000000      2.000000
  0.028821  0.203178  0.000000      2.000000
  0.038428  0.203178  0.000000      2.000000
  0.048035  0.203178  0.000000      2.000000
  0.057642  0.203178  0.000000      2.000000
  0.067249  0.203178  0.000000      2.000000
  0.076855  0.203178  0.000000      2.000000
  0.086462  0.203178  0.000000      2.000000
  0.096069  0.203178  0.000000      2.000000
  0.105676  0.203178  0.000000      2.000000
  0.115283  0.203178  0.000000      1.000000

 I would recommend the setting:
   dimension x,y,z NGX =    63 NGY =   36 NGZ =  288
[...]
 k-point ** :   0.3333 0.3056 0.0000  plane waves:   42871
 k-point ** :   0.3750 0.3056 0.0000  plane waves:   42864
 k-point ** :   0.4167 0.3056 0.0000  plane waves:   42843
 k-point ** :   0.4583 0.3056 0.0000  plane waves:   42849
 k-point ** :   0.5000 0.3056 0.0000  plane waves:   42840
 k-point ** :   0.0000 0.3333 0.0000  plane waves:   42876
 k-point ** :   0.0417 0.3333 0.0000  plane waves:   42898
 k-point ** :   0.0833 0.3333 0.0000  plane waves:   42880
[...]
 k-point ** :   0.4583 0.4722 0.0000  plane waves:   42933
 k-point ** :   0.5000 0.4722 0.0000  plane waves:   42946
 k-point ** :   0.0000 0.5000 0.0000  plane waves:   42902
 k-point ** :   0.0417 0.5000 0.0000  plane waves:   42882
 k-point ** :   0.0833 0.5000 0.0000  plane waves:   42864
 k-point ** :   0.1250 0.5000 0.0000  plane waves:   42882
 k-point ** :   0.1667 0.5000 0.0000  plane waves:   42854
 k-point ** :   0.2083 0.5000 0.0000  plane waves:   42836
 k-point ** :   0.2500 0.5000 0.0000  plane waves:   42862
 k-point ** :   0.2917 0.5000 0.0000  plane waves:   42870
 k-point ** :   0.3333 0.5000 0.0000  plane waves:   42906
 k-point ** :   0.3750 0.5000 0.0000  plane waves:   42902
 k-point ** :   0.4167 0.5000 0.0000  plane waves:   42920
 k-point ** :   0.4583 0.5000 0.0000  plane waves:   42914
 k-point ** :   0.5000 0.5000 0.0000  plane waves:   42908

 maximum and minimum number of plane-waves per node :     21490    21295

 maximum number of plane-waves:     42954
 maximum index in each direction:
   IXMAX=   15   IYMAX=    8   IZMAX=   72
   IXMIN=  -16   IYMIN=   -9   IZMIN=  -72

 NGX is ok and might be reduce to  64
 NGY is ok and might be reduce to  36
 WARNING: aliasing errors must be expected set NGZ to 290 to avoid them
 aliasing errors are usually negligible using standard VASP settings
 and one can safely disregard these warnings

 parallel 3D FFT for wavefunctions:
    minimum data exchange during FFTs selected (reduces bandwidth)
 parallel 3D FFT for charge:
    minimum data exchange during FFTs selected (reduces bandwidth)

 Broyden mixing: mesh for mixing (old mesh)
   NGX = 31   NGY = 17   NGZ =145
  (NGX  =128   NGY  = 72   NGZ  =576)
  gives a total of  76415 points

 initial charge density was supplied:
 charge density of overlapping atoms calculated
 number of electron      16.0000000 magnetization
 keeping initial charge density in first step

 Maximum index for augmentation-charges         4557 (set IRDMAX)

 First call to EWALD:  gamma=   0.298
 Maximum number of real-space cells 4x 6x 1
 Maximum number of reciprocal cells 2x 1x 8

 FEWALD executed in parallel

----------------------------------------- Iteration    1(   1)  ---------------------------------------

 eigenvalue-minimisations  :  5928
 total energy-change (2. order) : 0.1891190E+03  (-0.1065011E+04)
 number of electron      16.0000000 magnetization
 augmentation part       16.0000000 magnetization

 Free energy of the ion-electron system (eV)
  alpha Z        PSCENC =         6.18334092
  Ewald energy   TEWEN  =      2503.91093707
  -Hartree energ DENC   =     -2931.77349888
  -exchange      EXHF   =         0.00000000
  -V(xc)+E(xc)   XCENC  =        54.92933208
  PAW double counting   =       151.32577238     -155.92769107
  entropy T*S    EENTRO =        -0.00163455
  eigenvalues    EBANDS =       -28.15109340
  atomic energy  EATOM  =       588.62352690
  free energy    TOTEN  =       189.11899147 eV

  energy without entropy =      189.12062602  energy(sigma->0) =      189.11980875

[...]

 eigenvalue-minimisations  : 10460
 total energy-change (2. order) :-0.1986190E+03  (-0.1754560E+03)
 number of electron      16.0000000 magnetization
 augmentation part       16.0000000 magnetization

[...]

 Broyden mixing:
  rms(total) = 0.72125E+00    rms(broyden)= 0.72124E+00
  rms(prec ) = 0.78530E+00
  weight for this iteration     100.00

[...]

 eigenvalues of (default mixing * dielectric matrix)
  average eigenvalue GAMMA=   2.3046
  2.3046

[...]

WARNING in EDDRMM: call to ZHEGV failed, returncode =   6  3  1
WARNING in EDDRMM: call to ZHEGV failed, returncode =   6  3  1

[...]

 average (electrostatic) potential at core
  the test charge radii are     0.6991
  (the norm of the test charge is              1.0000)
       1 -58.2643       2 -58.2643       3 -58.2643       4 -58.2643

 E-fermi :  -2.7965     XC(G=0):  -2.1636     alpha+bet : -1.9046

 k-point     1 :       0.0000    0.0000    0.0000
  band No.  band energies     occupation
      1     -22.1503      2.00000
      2     -17.1659      2.00000
      3     -15.8918      2.00000
      4     -10.2791      2.00000
      5      -8.9429      2.00000
      6      -5.9220      2.00000
      7      -5.7487      2.00000
      8      -5.2470      2.00000
      9      -1.1444      0.00000
     10       0.5362      0.00000
     11       1.3355      0.00000
     12       1.7233      0.00000

[...]

 soft charge-density along one line, spin component           1
         0         1         2         3         4         5         6         7         8         9
 total charge-density along one line

------------------------ aborting loop because EDIFF is reached ----------------------------------------

  FORCE on cell =-STRESS in cart. coord.  units (eV):
  Direction    XX          YY          ZZ          XY          YZ          ZX
  Alpha Z     6.18334     6.18334     6.18334
  Ewald    3037.15926  3039.05815 -3572.30672    -0.00000     0.00000     0.00000
  Hartree  2974.79415  2975.46432 -2952.19635    -0.00000    -0.00000    -0.00000
  E(xc)     -58.11109   -58.12850   -60.44823     0.00000    -0.00000    -0.00000
  Local   -6185.05584 -6187.31583  6318.88969    -0.00000     0.00000    -0.00000
  n-local   -13.38155   -13.87607   -12.59603     0.06273    -0.00000    -0.00000
  augment    -1.50334    -1.50488    -1.38880    -0.00000    -0.00000     0.00000
  Kinetic   236.64411   240.11807   273.86176    -4.50939     0.00000     0.00000
  Fock        0.00000     0.00000     0.00000     0.00000     0.00000     0.00000
  Total      -3.27096    -0.00139    -0.00135     0.00000     0.00000     0.00000
  in kB     -24.85636    -0.01058    -0.01025     0.00000     0.00000     0.00000

 VOLUME and BASIS-vectors are now :
  energy-cutoff  :     2000.00
  volume of cell :      210.84
      direct lattice vectors                 reciprocal lattice vectors
     4.337146456  0.000000000  0.000000000     0.230566344  0.000000000  0.000000000
     0.000000000  2.460895738  0.000000000     0.000000000  0.406356102  0.000000000
     0.000000000  0.000000000 19.753833230     0.000000000  0.000000000  0.050623086

[...]

 FORCES acting on ions
    electron-ion (+dipol)            ewald-force                    non-local-force                 convergence-correction
   0.322E+01 0.388E-16 -.130E-08   -.322E+01 0.180E-14 -.118E-17   0.134E-02 0.000E+00 0.414E-24   0.429E-07 -.144E-14 -.833E-13
   -.322E+01 -.380E-14 -.840E-08   0.322E+01 0.339E-14 0.318E-18   -.134E-02 0.000E+00 -.827E-24   -.429E-07 0.873E-16 -.828E-13
   0.322E+01 -.193E-12 -.129E-08   -.322E+01 -.193E-14 -.124E-18   0.134E-02 0.000E+00 0.620E-24   0.429E-07 -.164E-14 -.834E-13
   -.322E+01 0.134E-15 -.842E-08   0.322E+01 -.337E-15 0.984E-18   -.134E-02 0.000E+00 -.827E-24   -.429E-07 0.368E-15 -.829E-13
   -.125E-05 -.197E-12 -.194E-07   0.222E-14 0.293E-14 0.000E+00   0.000E+00 0.000E+00 -.620E-24   0.659E-13 -.262E-14 -.332E-12

 POSITION                                       TOTAL-FORCE (eV/Angst)
      4.33559      0.00000      0.00000         0.001384      0.000000      0.000000
      0.72441      1.23045      0.00000        -0.001384     -0.000000     -0.000000
      2.16702      1.23045      0.00000         0.001384     -0.000000      0.000000
      2.89298      0.00000      0.00000        -0.001384      0.000000     -0.000000
    total drift:                               -0.000001     -0.000000     -0.000000

  FREE ENERGIE OF THE ION-ELECTRON SYSTEM (eV)
  free  energy   TOTEN  =       -36.90123245 eV

  energy  without entropy=      -36.90122729  energy(sigma->0) =      -36.90122987

 Quasi-Newton relaxation of ions (Broydens 2nd method)
  g(Force)  = 0.369E-06   g(Stress)= 0.000E+00

 Reset! Starting new Quasi-Newton update for ions

[...]

 d Force =-0.5337692E-06[-0.144E-05, 0.369E-06]  d Energy =-0.5261155E-06-0.765E-08
 d Force =-0.8623072E-03[-0.865E-03,-0.859E-03]  d Ewald  =-0.8623075E-03 0.230E-09

[...]

 retain information from N=  1 steps
 eigenvalues of (default step * inverse Hessian matrix)
  average eigenvalue of G=   0.2045
 eigenvalue spectrum of G is  0.2045

[...]

WARNING in EDDRMM: call to ZHEGV failed, returncode =   6  3  1

[...]

 d Force = 0.5726723E-06[ 0.225E-08, 0.114E-05]  d Energy = 0.5655835E-06 0.709E-08
 d Force = 0.6864583E-03[ 0.684E-03, 0.688E-03]  d Ewald  = 0.6864584E-03-0.116E-09

[...]

 eigenvalue-minimisations  :  5048
 total energy-change (2. order) : 0.7216840E-09  ( 0.5407738E-09)
 number of electron      16.0000000 magnetization
 augmentation part        0.3762932 magnetization

[...]

 eigenvalue-minimisations  :  2989
 total energy-change (2. order) :-0.5009042E-09  ( 0.4449662E-13)
 number of electron      16.0000000 magnetization
 augmentation part        0.3762932 magnetization

[...]

 d Force =-0.3759699E-12[-0.520E-11, 0.444E-11]  d Energy =-0.1728040E-09 0.172E-09
 d Force = 0.1351055E-05[ 0.135E-05, 0.135E-05]  d Ewald  = 0.1351055E-05 0.455E-12

[...]

 eigenvalue-minimisations  :  1365
 total energy-change (2. order) : 0.1964509E-09  (-0.2192485E-13)
 number of electron      16.0000000 magnetization
 augmentation part        0.3762932 magnetization

[...]

 eigenvalue-minimisations  :  1123
 total energy-change (2. order) :-0.4024514E-10  (-0.2309675E-13)
 number of electron      16.0000000 magnetization
 augmentation part        0.3762932 magnetization

[...]

 d Force = 0.1568797E-11[ 0.337E-12, 0.280E-11]  d Energy =-0.1087983E-09 0.110E-09
 d Force =-0.7282120E-06[-0.728E-06,-0.728E-06]  d Ewald  =-0.7282119E-06 0.000E+00

[...]

 d Force = 0.4228137E-13[ 0.386E-13, 0.460E-13]  d Energy = 0.9220003E-10-0.922E-10
 d Force =-0.9949012E-07[-0.995E-07,-0.995E-07]  d Ewald  =-0.9949053E-07 0.455E-12

[...]

 d Force =-0.7928277E-13[-0.359E-12, 0.200E-12]  d Energy =-0.1991793E-09 0.199E-09
 d Force =-0.5163715E-06[-0.516E-06,-0.516E-06]  d Ewald  =-0.5163715E-06 0.000E+00

[...]

 d Force = 0.3510909E-13[-0.160E-12, 0.230E-12]  d Energy = 0.9833911E-10-0.983E-10
 d Force = 0.3314367E-06[ 0.331E-06, 0.331E-06]  d Ewald  = 0.3314371E-06-0.455E-12

[...]

 d Force = 0.6128330E-14[-0.534E-13, 0.656E-13]  d Energy =-0.8185452E-10 0.819E-10
 d Force =-0.1359032E-06[-0.136E-06,-0.136E-06]  d Ewald  =-0.1359031E-06 0.000E+00

[...]

 FEWALD executed in parallel

[...]

 eigenvalue-minimisations  :   264
 total energy-change (2. order) :-0.9285941E-09  ( 0.0000000E+00)
 number of electron      16.0000000 magnetization
 augmentation part        0.3762932 magnetization

[...]

 Broyden mixing:
  rms(total) = 0.18360E-10    rms(broyden)= 0.17967E-10
  rms(prec ) = 0.42825E-10
  weight for this iteration     100.00

 eigenvalues of (default mixing * dielectric matrix)
  average eigenvalue GAMMA=   1.8656
  2.6363  2.5385  1.4791  0.8084

[...]

----------------------------------------- Iteration   10(   6)  ---------------------------------------

 eigenvalue-minimisations  :   274
 total energy-change (2. order) : 0.5343281E-10  ( 0.0000000E+00)
 number of electron      16.0000000 magnetization
 augmentation part        0.3762932 magnetization

 Free energy of the ion-electron system (eV)
  alpha Z        PSCENC =         6.18334092
  Ewald energy   TEWEN  =      2503.91111266
  -Hartree energ DENC   =     -2998.06226003
  -exchange      EXHF   =         0.00000000
  -V(xc)+E(xc)   XCENC  =        57.29410253
  PAW double counting   =       272.09079399     -277.21701602
  entropy T*S    EENTRO =        -0.00000510
  eigenvalues    EBANDS =      -189.72482836
  atomic energy  EATOM  =       588.62352690
  free energy    TOTEN  =       -36.90123249 eV

  energy without entropy =      -36.90122739  energy(sigma->0) =      -36.90122994

 average (electrostatic) potential at core
  the test charge radii are     0.6991
  (the norm of the test charge is              1.0000)
       1 -58.2643       2 -58.2643       3 -58.2643       4 -58.2643

 E-fermi :  -2.7965     XC(G=0):  -2.1630     alpha+bet : -1.9046

[...]

 k-point   247 :       0.5000    0.5000    0.0000
  band No.  band energies     occupation
      1     -16.9153      2.00000
      2     -16.9153      2.00000
      3     -15.9033      2.00000
      4     -15.9033      2.00000
      5      -9.2502      2.00000
      6      -9.2502      2.00000
      7      -5.0517      2.00000
      8      -5.0517      2.00000
      9      -1.1196      0.00000
     10      -1.1196      0.00000
     11       4.1760      0.00000
     12       4.1760      0.00000

 soft charge-density along one line, spin component           1
         0         1         2         3         4         5         6         7         8         9
 total charge-density along one line

------------------------ aborting loop because EDIFF is reached ----------------------------------------

  FORCE on cell =-STRESS in cart. coord.  units (eV):
  Direction    XX          YY          ZZ          XY          YZ          ZX
  Alpha Z     6.18334     6.18334     6.18334
  Ewald    3037.14751  3039.07008 -3572.30672    -0.00000     0.00000     0.00000
  Hartree  2974.79255  2975.46605 -2952.19634    -0.00000    -0.00000    -0.00000
  E(xc)     -58.11114   -58.12847   -60.44824     0.00000    -0.00000    -0.00000
  Local   -6185.04465 -6187.32723  6318.88963    -0.00000     0.00000    -0.00000
  n-local   -13.38165   -13.87597   -12.59604     0.06275    -0.00000     0.00000
  augment    -1.50332    -1.50490    -1.38880    -0.00000     0.00000     0.00000
  Kinetic   236.64599   240.11630   273.86181    -4.50944     0.00000    -0.00000
  Fock        0.00000     0.00000     0.00000     0.00000     0.00000     0.00000
  Total      -3.27138    -0.00079    -0.00135     0.00000     0.00000     0.00000
  in kB     -24.85956    -0.00599    -0.01025     0.00000     0.00000     0.00000

 VOLUME and BASIS-vectors are now :
  energy-cutoff  :     2000.00
  volume of cell :      210.84
      direct lattice vectors                 reciprocal lattice vectors
     4.337146456  0.000000000  0.000000000     0.230566344  0.000000000  0.000000000
     0.000000000  2.460895738  0.000000000     0.000000000  0.406356102  0.000000000
     0.000000000  0.000000000 19.753833230     0.000000000  0.000000000  0.050623086

  length of vectors
     4.337146456  2.460895738 19.753833230     0.230566344  0.406356102  0.050623086

 FORCES acting on ions
    electron-ion (+dipol)            ewald-force                    non-local-force                 convergence-correction
   0.322E+01 0.728E-16 -.130E-08   -.322E+01 0.483E-14 -.334E-18   0.851E-03 0.347E-17 -.126E-28   -.200E-10 -.432E-15 -.274E-11
   -.322E+01 0.637E-14 -.838E-08   0.322E+01 -.493E-14 0.742E-18   -.851E-03 -.139E-16 0.000E+00   0.200E-10 -.854E-17 -.273E-11
   0.322E+01 -.154E-12 -.127E-08   -.322E+01 0.640E-14 -.999E-19   0.851E-03 0.347E-17 0.000E+00   -.200E-10 -.269E-15 -.274E-11
   -.322E+01 0.328E-15 -.834E-08   0.322E+01 -.337E-14 -.308E-18   -.851E-03 -.139E-16 0.000E+00   0.200E-10 -.157E-15 -.275E-11
   -.125E-05 -.147E-12 -.193E-07   0.178E-14 0.293E-14 0.000E+00   0.542E-18 -.208E-16 -.126E-28   -.257E-14 -.866E-15 -.110E-10

 POSITION                                       TOTAL-FORCE (eV/Angst)
      4.33561      0.00000     -0.00000         0.000000     -0.000000     -0.000000
      0.72440      1.23045      0.00000        -0.000000      0.000000      0.000000
      2.16703      1.23045     -0.00000         0.000000     -0.000000     -0.000000
      2.89297     -0.00000      0.00000        -0.000000      0.000000      0.000000
    total drift:                               -0.000001     -0.000000     -0.000000

  FREE ENERGIE OF THE ION-ELECTRON SYSTEM (eV)
  free  energy   TOTEN  =       -36.90123249 eV

  energy  without entropy=      -36.90122739  energy(sigma->0) =      -36.90122994

 d Force = 0.8019100E-14[-0.790E-14, 0.239E-13]  d Energy =-0.4433787E-11 0.444E-11
 d Force = 0.6095199E-07[ 0.610E-07, 0.610E-07]  d Ewald  = 0.6095161E-07 0.455E-12

 Quasi-Newton relaxation of ions (Broydens 2nd method)
  g(Force)  = 0.336E-13   g(Stress)= 0.000E+00

 retain information from N=  1 steps
 eigenvalues of (default step * inverse Hessian matrix)
  average eigenvalue of G=   0.0582
 eigenvalue spectrum of G is  0.0582

 reached required accuracy - stopping structural energy minimisation