 vasp.5.3.5 31Mar14 (build Mar 02 2015 18:14:16) complex

 executed on             LinuxIFC date 2018.08.07  16:22:58

 INCAR:
 POTCAR:   PAW_PBE C 08Apr2002
 POTCAR:   PAW_PBE C 08Apr2002
   VRHFIN =C: s2p2

   TITEL  = PAW_PBE C 08Apr2002
   POMASS =   12.011; ZVAL   =    4.000    mass and valenz
   ENMAX  =  400.000; ENMIN  =  300.000 eV
   QCUT   =   -5.516; QGAM   =   11.032    optimization parameters

   Description
     l     E      TYP  RCUT    TYP  RCUT
     0   .000     23  1.200
     0   .000     23  1.200
     1   .000     23  1.500
     1  2.500     23  1.500
     2   .000      7  1.500

 PAW_PBE C 08Apr2002                    :

 POSCAR: MD-kMC export data
  positions in direct lattice
  velocities in cartesian coordinates
 exchange correlation table for  LEXCH =        8
   RHO(1)=    0.500       N(1)  =     2000
   RHO(2)=  100.500       N(2)  =     4000

 ion  position               nearest neighbor table
   1  1.000  0.000  0.000-   2 1.43   2 1.43   4 1.43
   2  0.167  0.500  0.000-   1 1.43   1 1.43   3 1.43
   3  0.500  0.500  0.000-   4 1.43   4 1.43   2 1.43
   4  0.667  0.000  0.000-   3 1.43   3 1.43   1 1.43

  LATTYP: Found a simple orthorhombic cell.
 ALAT       =     2.4647902599
 B/A-ratio  =     1.7429958145
 C/A-ratio  =     8.0781596731

  Lattice vectors:

 A1 = (   0.0000000000,  -2.4647902599,   0.0000000000)
 A2 = (  -4.2961191066,   0.0000000000,   0.0000000000)
 A3 = (   0.0000000000,   0.0000000000, -19.9109692804)

Analysis of symmetry for initial positions (statically):
 Subroutine PRICEL returns following result:

  LATTYP: Found a base centered orthorhombic cell.
 ALAT       =     2.4647902599
 B/A-ratio  =     1.7429958145
 C/A-ratio  =     8.0781596731

[...]

   2 primitive cells build up your supercell.

 Routine SETGRP: Setting up the symmetry group for a
 simple orthorhombic supercell.

 Subroutine GETGRP returns: Found  8 space group operations
 (whereof  4 operations were pure point group operations)
 out of a pool of  8 trial point group operations.

The static configuration has the point symmetry C_2v.
 The point group associated with its full space group is D_2h.

Analysis of symmetry for dynamics (positions and initial velocities):
 Subroutine PRICEL returns following result:

  LATTYP: Found a base centered orthorhombic cell.
 ALAT       =     2.4647902599
 B/A-ratio  =     1.7429958145
 C/A-ratio  =     8.0781596731

  Lattice vectors:

 A1 = (   2.1480595533,  -1.2323951300,   0.0000000000)
 A2 = (  -2.1480595533,  -1.2323951300,   0.0000000000)
 A3 = (   0.0000000000,   0.0000000000, -19.9109692804)

   2 primitive cells build up your supercell.

 Routine SETGRP: Setting up the symmetry group for a
 simple orthorhombic supercell.

 Subroutine GETGRP returns: Found  8 space group operations
 (whereof  4 operations were pure point group operations)
 out of a pool of  8 trial point group operations.

The dynamic configuration has the point symmetry C_2v.
 The point group associated with its full space group is D_2h.

 KPOINTS: Automatic mesh

Automatic generation of k-mesh.
Space group operators:
 irot       det(A)        alpha          n_x          n_y          n_z        tau_x        tau_y        tau_z
    1     1.000000     0.000000     1.000000     0.000000     0.000000     0.000000     0.000000     0.000000
    2    -1.000000   180.000000     0.000000     0.000000     1.000000     0.000000     0.000000     0.000000
    3     1.000000   180.000000     1.000000     0.000000     0.000000     0.000000     0.000000     0.000000
    4    -1.000000   179.999999     0.000000     1.000000     0.000000     0.000000     0.000000     0.000000
    5    -1.000000     0.000000     1.000000     0.000000     0.000000     0.166667    -0.500000     0.000000
    6     1.000000   180.000000     0.000000     0.000000     1.000000     0.166667    -0.500000     0.000000
    7    -1.000000   180.000000     1.000000     0.000000     0.000000     0.166667    -0.500000     0.000000
    8     1.000000   179.999999     0.000000     1.000000     0.000000     0.166667    -0.500000     0.000000

 Subroutine IBZKPT returns following result:

 Found    247 irreducible k-points:

 Following reciprocal coordinates:
            Coordinates               Weight
  0.000000  0.000000  0.000000      1.000000
  0.041667  0.000000  0.000000      2.000000
  0.083333  0.000000  0.000000      2.000000
  0.125000  0.000000  0.000000      2.000000
  0.166667  0.000000  0.000000      2.000000
  0.208333  0.000000  0.000000      2.000000
  0.250000  0.000000  0.000000      2.000000
  0.291667  0.000000  0.000000      2.000000
  0.333333  0.000000  0.000000      2.000000
  0.375000  0.000000  0.000000      2.000000
  0.416667  0.000000  0.000000      2.000000
  0.458333  0.000000  0.000000      2.000000
  0.500000  0.000000  0.000000      1.000000
  0.000000  0.027778  0.000000      2.000000
  0.041667  0.027778  0.000000      4.000000
  0.083333  0.027778  0.000000      4.000000
  0.125000  0.027778  0.000000      4.000000
  0.166667  0.027778  0.000000      4.000000
  0.208333  0.027778  0.000000      4.000000
  0.250000  0.027778  0.000000      4.000000
  0.291667  0.027778  0.000000      4.000000
  0.333333  0.027778  0.000000      4.000000
  0.375000  0.027778  0.000000      4.000000
  0.416667  0.027778  0.000000      4.000000
  0.458333  0.027778  0.000000      4.000000
  0.500000  0.027778  0.000000      2.000000
  0.000000  0.055556  0.000000      2.000000
  0.041667  0.055556  0.000000      4.000000
  0.083333  0.055556  0.000000      4.000000
  0.125000  0.055556  0.000000      4.000000
  0.166667  0.055556  0.000000      4.000000
  0.208333  0.055556  0.000000      4.000000
  0.250000  0.055556  0.000000      4.000000
  0.291667  0.055556  0.000000      4.000000
  0.333333  0.055556  0.000000      4.000000
  0.375000  0.055556  0.000000      4.000000
  0.416667  0.055556  0.000000      4.000000
  0.458333  0.055556  0.000000      4.000000
  0.500000  0.055556  0.000000      2.000000
  0.000000  0.083333  0.000000      2.000000
  0.041667  0.083333  0.000000      4.000000
  0.083333  0.083333  0.000000      4.000000
  0.125000  0.083333  0.000000      4.000000
  0.166667  0.083333  0.000000      4.000000
  0.208333  0.083333  0.000000      4.000000
  0.250000  0.083333  0.000000      4.000000
  0.291667  0.083333  0.000000      4.000000
  0.333333  0.083333  0.000000      4.000000
  0.375000  0.083333  0.000000      4.000000
  0.416667  0.083333  0.000000      4.000000
  0.458333  0.083333  0.000000      4.000000
  0.500000  0.083333  0.000000      2.000000
  0.000000  0.111111  0.000000      2.000000
  0.041667  0.111111  0.000000      4.000000
  0.083333  0.111111  0.000000      4.000000
  0.125000  0.111111  0.000000      4.000000
  0.166667  0.111111  0.000000      4.000000
  0.208333  0.111111  0.000000      4.000000
  0.250000  0.111111  0.000000      4.000000
  0.291667  0.111111  0.000000      4.000000
[...]
  0.458333  0.472222  0.000000      4.000000
  0.500000  0.472222  0.000000      2.000000
  0.000000  0.500000  0.000000      1.000000
  0.041667  0.500000  0.000000      2.000000
  0.083333  0.500000  0.000000      2.000000
  0.125000  0.500000  0.000000      2.000000
  0.166667  0.500000  0.000000      2.000000
  0.208333  0.500000  0.000000      2.000000
  0.250000  0.500000  0.000000      2.000000
  0.291667  0.500000  0.000000      2.000000
  0.333333  0.500000  0.000000      2.000000
  0.375000  0.500000  0.000000      2.000000
  0.416667  0.500000  0.000000      2.000000
  0.458333  0.500000  0.000000      2.000000
  0.500000  0.500000  0.000000      1.000000

 Following cartesian coordinates:
            Coordinates               Weight
  0.000000  0.000000  0.000000      1.000000
  0.009699  0.000000  0.000000      2.000000
  0.019397  0.000000  0.000000      2.000000
  0.029096  0.000000  0.000000      2.000000
  0.038795  0.000000  0.000000      2.000000
  0.048493  0.000000  0.000000      2.000000
  0.058192  0.000000  0.000000      2.000000
  0.067891  0.000000  0.000000      2.000000
  0.077589  0.000000  0.000000      2.000000
  0.087288  0.000000  0.000000      2.000000
  0.096987  0.000000  0.000000      2.000000
  0.106685  0.000000  0.000000      2.000000
  0.116384  0.000000  0.000000      1.000000
  0.000000  0.011270  0.000000      2.000000
  0.009699  0.011270  0.000000      4.000000
  0.019397  0.011270  0.000000      4.000000
  0.029096  0.011270  0.000000      4.000000
  0.038795  0.011270  0.000000      4.000000
  0.048493  0.011270  0.000000      4.000000
  0.058192  0.011270  0.000000      4.000000
  0.067891  0.011270  0.000000      4.000000
  0.077589  0.011270  0.000000      4.000000
  0.087288  0.011270  0.000000      4.000000
  0.096987  0.011270  0.000000      4.000000
  0.106685  0.011270  0.000000      4.000000
  0.116384  0.011270  0.000000      2.000000
  0.000000  0.022540  0.000000      2.000000
  0.009699  0.022540  0.000000      4.000000
  0.019397  0.022540  0.000000      4.000000
  0.029096  0.022540  0.000000      4.000000
  0.038795  0.022540  0.000000      4.000000
  0.048493  0.022540  0.000000      4.000000
  0.058192  0.022540  0.000000      4.000000
  0.067891  0.022540  0.000000      4.000000
  0.077589  0.022540  0.000000      4.000000
  0.087288  0.022540  0.000000      4.000000
  0.096987  0.022540  0.000000      4.000000
  0.106685  0.022540  0.000000      4.000000
  0.116384  0.022540  0.000000      2.000000
  0.000000  0.033810  0.000000      2.000000
  0.009699  0.033810  0.000000      4.000000
  0.019397  0.033810  0.000000      4.000000
  0.029096  0.033810  0.000000      4.000000
  0.038795  0.033810  0.000000      4.000000
  0.048493  0.033810  0.000000      4.000000
  0.058192  0.033810  0.000000      4.000000
  0.067891  0.033810  0.000000      4.000000
  0.077589  0.033810  0.000000      4.000000
  0.087288  0.033810  0.000000      4.000000
  0.096987  0.033810  0.000000      4.000000
  0.106685  0.033810  0.000000      4.000000
  0.116384  0.033810  0.000000      2.000000
  0.000000  0.045079  0.000000      2.000000
  0.009699  0.045079  0.000000      4.000000
  0.019397  0.045079  0.000000      4.000000
  0.029096  0.045079  0.000000      4.000000
  0.038795  0.045079  0.000000      4.000000
  0.048493  0.045079  0.000000      4.000000
  0.058192  0.045079  0.000000      4.000000
  0.067891  0.045079  0.000000      4.000000
[...]
  0.106685  0.191587  0.000000      4.000000
  0.116384  0.191587  0.000000      2.000000
  0.000000  0.202857  0.000000      1.000000
  0.009699  0.202857  0.000000      2.000000
  0.019397  0.202857  0.000000      2.000000
  0.029096  0.202857  0.000000      2.000000
  0.038795  0.202857  0.000000      2.000000
  0.048493  0.202857  0.000000      2.000000
  0.058192  0.202857  0.000000      2.000000
  0.067891  0.202857  0.000000      2.000000
  0.077589  0.202857  0.000000      2.000000
  0.087288  0.202857  0.000000      2.000000
  0.096987  0.202857  0.000000      2.000000
  0.106685  0.202857  0.000000      2.000000
  0.116384  0.202857  0.000000      1.000000

 I would recommend the setting:
   dimension x,y,z NGX =    63 NGY =   36 NGZ =  290
[...]
 k-point ** :   0.1667 0.2778 0.0000  plane waves:   42849
 k-point ** :   0.2083 0.2778 0.0000  plane waves:   42846
 k-point ** :   0.2500 0.2778 0.0000  plane waves:   42843
 k-point ** :   0.2917 0.2778 0.0000  plane waves:   42822
 k-point ** :   0.3333 0.2778 0.0000  plane waves:   42822
 k-point ** :   0.3750 0.2778 0.0000  plane waves:   42809
 k-point ** :   0.4167 0.2778 0.0000  plane waves:   42837
 k-point ** :   0.4583 0.2778 0.0000  plane waves:   42853
 k-point ** :   0.5000 0.2778 0.0000  plane waves:   42844
 k-point ** :   0.0000 0.3056 0.0000  plane waves:   42886
 k-point ** :   0.0417 0.3056 0.0000  plane waves:   42880
 k-point ** :   0.0833 0.3056 0.0000  plane waves:   42887
 k-point ** :   0.1250 0.3056 0.0000  plane waves:   42875
 k-point ** :   0.1667 0.3056 0.0000  plane waves:   42866
 k-point ** :   0.2083 0.3056 0.0000  plane waves:   42874
 k-point ** :   0.2500 0.3056 0.0000  plane waves:   42847
 k-point ** :   0.2917 0.3056 0.0000  plane waves:   42848
 k-point ** :   0.3333 0.3056 0.0000  plane waves:   42850
 k-point ** :   0.3750 0.3056 0.0000  plane waves:   42839
 k-point ** :   0.4167 0.3056 0.0000  plane waves:   42841
 k-point ** :   0.4583 0.3056 0.0000  plane waves:   42847
 k-point ** :   0.5000 0.3056 0.0000  plane waves:   42854
 k-point ** :   0.0000 0.3333 0.0000  plane waves:   42902
 k-point ** :   0.0417 0.3333 0.0000  plane waves:   42897
 k-point ** :   0.0833 0.3333 0.0000  plane waves:   42892
[...]
 k-point ** :   0.4583 0.4722 0.0000  plane waves:   42801
 k-point ** :   0.5000 0.4722 0.0000  plane waves:   42792
 k-point ** :   0.0000 0.5000 0.0000  plane waves:   42958
 k-point ** :   0.0417 0.5000 0.0000  plane waves:   42926
 k-point ** :   0.0833 0.5000 0.0000  plane waves:   42932
 k-point ** :   0.1250 0.5000 0.0000  plane waves:   42918
 k-point ** :   0.1667 0.5000 0.0000  plane waves:   42898
 k-point ** :   0.2083 0.5000 0.0000  plane waves:   42916
 k-point ** :   0.2500 0.5000 0.0000  plane waves:   42912
 k-point ** :   0.2917 0.5000 0.0000  plane waves:   42884
 k-point ** :   0.3333 0.5000 0.0000  plane waves:   42896
 k-point ** :   0.3750 0.5000 0.0000  plane waves:   42852
 k-point ** :   0.4167 0.5000 0.0000  plane waves:   42842
 k-point ** :   0.4583 0.5000 0.0000  plane waves:   42812
 k-point ** :   0.5000 0.5000 0.0000  plane waves:   42796

 maximum and minimum number of plane-waves per node :     21480    21276

 maximum number of plane-waves:     42958
 maximum index in each direction:
   IXMAX=   15   IYMAX=    8   IZMAX=   72
   IXMIN=  -16   IYMIN=   -9   IZMIN=  -72

 NGX is ok and might be reduce to  64
 NGY is ok and might be reduce to  36
 NGZ is ok and might be reduce to 290

 parallel 3D FFT for wavefunctions:
    minimum data exchange during FFTs selected (reduces bandwidth)
 parallel 3D FFT for charge:
    minimum data exchange during FFTs selected (reduces bandwidth)

 Broyden mixing: mesh for mixing (old mesh)
   NGX = 31   NGY = 17   NGZ =145
  (NGX  =128   NGY  = 72   NGZ  =588)
  gives a total of  76415 points

 initial charge density was supplied:
 charge density of overlapping atoms calculated
 number of electron      16.0000000 magnetization
 keeping initial charge density in first step

 Maximum index for augmentation-charges         4681 (set IRDMAX)

 First call to EWALD:  gamma=   0.298
 Maximum number of real-space cells 4x 6x 1
 Maximum number of reciprocal cells 2x 1x 8

 FEWALD executed in parallel

----------------------------------------- Iteration    1(   1)  ---------------------------------------

 eigenvalue-minimisations  :  5928
 total energy-change (2. order) : 0.1889963E+03  (-0.1057716E+04)
 number of electron      16.0000000 magnetization
 augmentation part       16.0000000 magnetization

 Free energy of the ion-electron system (eV)
  alpha Z        PSCENC =         6.18334092
  Ewald energy   TEWEN  =      2556.73084197
  -Hartree energ DENC   =     -2983.01197617
  -exchange      EXHF   =         0.00000000
  -V(xc)+E(xc)   XCENC  =        55.03688758
  PAW double counting   =       151.32577238     -155.92769107
  entropy T*S    EENTRO =        -0.00180330
  eigenvalues    EBANDS =       -29.96260955
  atomic energy  EATOM  =       588.62352690
  free energy    TOTEN  =       188.99628967 eV

  energy without entropy =      188.99809297  energy(sigma->0) =      188.99719132

[...]

 eigenvalue-minimisations  : 10364
 total energy-change (2. order) :-0.1979704E+03  (-0.1749295E+03)
 number of electron      16.0000000 magnetization
 augmentation part       16.0000000 magnetization

[...]

 Broyden mixing:
  rms(total) = 0.73020E+00    rms(broyden)= 0.73020E+00
  rms(prec ) = 0.79425E+00
  weight for this iteration     100.00

[...]

 eigenvalues of (default mixing * dielectric matrix)
  average eigenvalue GAMMA=   2.3158
  2.3158

[...]

WARNING in EDDRMM: call to ZHEGV failed, returncode =   6  3  1
WARNING in EDDRMM: call to ZHEGV failed, returncode =   6  3  1

[...]

 average (electrostatic) potential at core
  the test charge radii are     0.6991
  (the norm of the test charge is              1.0000)
       1 -58.2162       2 -58.2162       3 -58.2162       4 -58.2162

 E-fermi :  -2.7692     XC(G=0):  -2.1498     alpha+bet : -1.9046

 k-point     1 :       0.0000    0.0000    0.0000
  band No.  band energies     occupation
      1     -22.2168      2.00000
      2     -17.0743      2.00000
      3     -15.9441      2.00000
      4     -10.3305      2.00000
      5      -9.0806      2.00000
      6      -5.8342      2.00000
      7      -5.7736      2.00000
      8      -5.1609      2.00000
      9      -1.0995      0.00000
     10       0.5282      0.00000
     11       1.3287      0.00000
     12       1.7134      0.00000

[...]

 soft charge-density along one line, spin component           1
         0         1         2         3         4         5         6         7         8         9
 total charge-density along one line

------------------------ aborting loop because EDIFF is reached ----------------------------------------

  FORCE on cell =-STRESS in cart. coord.  units (eV):
  Direction    XX          YY          ZZ          XY          YZ          ZX
  Alpha Z     6.18334     6.18334     6.18334
  Ewald    3092.68030  3093.41638 -3629.36608     0.00000     0.00000     0.00000
  Hartree  3027.87149  3028.11719 -3005.23771    -0.00000    -0.00000    -0.00000
  E(xc)     -58.25817   -58.26418   -60.59643    -0.00000    -0.00000    -0.00000
  Local   -6293.24337 -6294.10094  6428.64035    -0.00000    -0.00000     0.00000
  n-local   -13.74390   -13.92470   -12.70627     0.05845     0.00000    -0.00000
  augment    -1.52789    -1.52862    -1.40526    -0.00000     0.00000    -0.00000
  Kinetic   238.86330   240.10401   274.48674    -4.56689    -0.00000     0.00000
  Fock        0.00000     0.00000     0.00000     0.00000     0.00000     0.00000
  Total      -1.17491     0.00247    -0.00132     0.00000     0.00000     0.00000
  in kB      -8.92823     0.01877    -0.01002     0.00000     0.00000     0.00000

 VOLUME and BASIS-vectors are now :
  energy-cutoff  :     2000.00
  volume of cell :      210.84
      direct lattice vectors                 reciprocal lattice vectors
     4.296119107  0.000000000  0.000000000     0.232768221  0.000000000  0.000000000
     0.000000000  2.464790260  0.000000000     0.000000000  0.405714034  0.000000000
     0.000000000  0.000000000 19.910969280     0.000000000  0.000000000  0.050223572

[...]

 FORCES acting on ions
    electron-ion (+dipol)            ewald-force                    non-local-force                 convergence-correction
   0.118E+01 -.436E-15 -.329E-09   -.118E+01 -.516E-14 -.108E-33   0.373E-03 0.347E-17 -.414E-24   0.934E-08 -.106E-14 0.195E-12
   -.118E+01 0.128E-13 -.601E-08   0.118E+01 0.691E-16 0.991E-18   -.373E-03 0.000E+00 0.000E+00   -.934E-08 -.430E-15 0.195E-12
   0.118E+01 -.204E-12 -.363E-09   -.118E+01 -.167E-14 0.193E-33   0.373E-03 0.347E-17 0.414E-24   0.934E-08 -.127E-14 0.195E-12
   -.118E+01 0.163E-15 -.604E-08   0.118E+01 0.355E-14 -.991E-18   -.373E-03 0.000E+00 -.414E-24   -.934E-08 -.122E-15 0.195E-12
   -.877E-06 -.192E-12 -.127E-07   -.178E-14 -.321E-14 0.000E+00   -.108E-18 0.694E-17 -.414E-24   -.185E-13 -.288E-14 0.780E-12

 POSITION                                       TOTAL-FORCE (eV/Angst)
      4.29558      0.00000      0.00000        -0.002772      0.000000     -0.000000
      0.71656      1.23240      0.00000         0.002772      0.000000      0.000000
      2.14752      1.23240      0.00000        -0.002772      0.000000     -0.000000
      2.86462      0.00000      0.00000         0.002772     -0.000000      0.000000
    total drift:                               -0.000001     -0.000000     -0.000000

  FREE ENERGIE OF THE ION-ELECTRON SYSTEM (eV)
  free  energy   TOTEN  =       -36.92236944 eV

  energy  without entropy=      -36.92228566  energy(sigma->0) =      -36.92232755

 Quasi-Newton relaxation of ions (Broydens 2nd method)
  g(Force)  = 0.148E-05   g(Stress)= 0.000E+00

 Reset! Starting new Quasi-Newton update for ions

[...]

 d Force =-0.2195468E-05[-0.587E-05, 0.148E-05]  d Energy =-0.2204651E-05 0.918E-08
 d Force = 0.6201450E-03[ 0.608E-03, 0.633E-03]  d Ewald  = 0.6201469E-03-0.189E-08

[...]

 retain information from N=  1 steps
 eigenvalues of (default step * inverse Hessian matrix)
  average eigenvalue of G=   0.2016
 eigenvalue spectrum of G is  0.2016

[...]

WARNING in EDDRMM: call to ZHEGV failed, returncode =   6  3  1

[...]

 d Force = 0.2345713E-05[ 0.158E-08, 0.469E-05]  d Energy = 0.2352202E-05-0.649E-08
 d Force =-0.4931126E-03[-0.501E-03,-0.485E-03]  d Ewald  =-0.4931136E-03 0.962E-09

[...]

 eigenvalue-minimisations  :  4952
 total energy-change (2. order) : 0.5215952E-09  ( 0.5749329E-09)
 number of electron      16.0000000 magnetization
 augmentation part        0.3798650 magnetization

[...]

 eigenvalue-minimisations  :  1549
 total energy-change (2. order) : 0.7150902E-10  (-0.5378003E-13)
 number of electron      16.0000000 magnetization
 augmentation part        0.3798650 magnetization

[...]

 d Force = 0.7926575E-13[-0.375E-12, 0.533E-12]  d Energy = 0.5695711E-10-0.569E-10
 d Force =-0.1690465E-06[-0.169E-06,-0.169E-06]  d Ewald  =-0.1690469E-06 0.455E-12

[...]

 FEWALD executed in parallel

[...]

 eigenvalue-minimisations  :  1315
 total energy-change (2. order) :-0.3526566E-09  ( 0.1795272E-13)
 number of electron      16.0000000 magnetization
 augmentation part        0.3798650 magnetization

[...]

 eigenvalue-minimisations  :  1206
 total energy-change (2. order) : 0.1328999E-09  ( 0.3898116E-14)
 number of electron      16.0000000 magnetization
 augmentation part        0.3798650 magnetization

[...]

 eigenvalue-minimisations  :  1189
 total energy-change (2. order) :-0.3102514E-09  ( 0.1174369E-13)
 number of electron      16.0000000 magnetization
 augmentation part        0.3798650 magnetization

 Broyden mixing:
  rms(total) = 0.20247E-09    rms(broyden)= 0.20233E-09
  rms(prec ) = 0.26039E-09
  weight for this iteration     100.00

 eigenvalues of (default mixing * dielectric matrix)
  average eigenvalue GAMMA=   1.7988
  3.8938  2.5087  2.1336  0.8936  0.6815  0.6815

[...]

----------------------------------------- Iteration    5(   8)  ---------------------------------------

 eigenvalue-minimisations  :  1097
 total energy-change (2. order) :-0.6684786E-10  (-0.3190863E-14)
 number of electron      16.0000000 magnetization
 augmentation part        0.3798650 magnetization

 Free energy of the ion-electron system (eV)
  alpha Z        PSCENC =         6.18334092
  Ewald energy   TEWEN  =      2556.73071503
  -Hartree energ DENC   =     -3050.75086032
  -exchange      EXHF   =         0.00000000
  -V(xc)+E(xc)   XCENC  =        57.44015048
  PAW double counting   =       275.26837383     -280.40899184
  entropy T*S    EENTRO =        -0.00008459
  eigenvalues    EBANDS =      -190.00854001
  atomic energy  EATOM  =       588.62352690
  free energy    TOTEN  =       -36.92236959 eV

  energy without entropy =      -36.92228500  energy(sigma->0) =      -36.92232730

 average (electrostatic) potential at core
  the test charge radii are     0.6991
  (the norm of the test charge is              1.0000)
       1 -58.2162       2 -58.2162       3 -58.2162       4 -58.2162

 E-fermi :  -2.7692     XC(G=0):  -2.1496     alpha+bet : -1.9046

[...]

 k-point   247 :       0.5000    0.5000    0.0000
  band No.  band energies     occupation
      1     -16.9826      2.00000
      2     -16.9826      2.00000
      3     -15.9481      2.00000
      4     -15.9481      2.00000
      5      -9.1931      2.00000
      6      -9.1931      2.00000
      7      -5.0893      2.00000
      8      -5.0893      2.00000
      9      -1.0908      0.00000
     10      -1.0908      0.00000
     11       4.4515      0.00000
     12       4.4515      0.00000

 soft charge-density along one line, spin component           1
         0         1         2         3         4         5         6         7         8         9
 total charge-density along one line

------------------------ aborting loop because EDIFF is reached ----------------------------------------

  FORCE on cell =-STRESS in cart. coord.  units (eV):
  Direction    XX          YY          ZZ          XY          YZ          ZX
  Alpha Z     6.18334     6.18334     6.18334
  Ewald    3092.70378  3093.39277 -3629.36608    -0.00000     0.00000     0.00000
  Hartree  3027.87470  3028.11388 -3005.23772     0.00000    -0.00000    -0.00000
  E(xc)     -58.25807   -58.26426   -60.59642     0.00000    -0.00000    -0.00000
  Local   -6293.26563 -6294.07853  6428.64039    -0.00000     0.00000    -0.00000
  n-local   -13.74371   -13.92490   -12.70627     0.05842     0.00000     0.00000
  augment    -1.52792    -1.52859    -1.40526     0.00000    -0.00000    -0.00000
  Kinetic   238.85958   240.10765   274.48670    -4.56678    -0.00000    -0.00000
  Fock        0.00000     0.00000     0.00000     0.00000     0.00000     0.00000
  Total      -1.17393     0.00137    -0.00132     0.00000     0.00000     0.00000
  in kB      -8.92083     0.01042    -0.01001     0.00000     0.00000     0.00000

 VOLUME and BASIS-vectors are now :
  energy-cutoff  :     2000.00
  volume of cell :      210.84
      direct lattice vectors                 reciprocal lattice vectors
     4.296119107  0.000000000  0.000000000     0.232768221  0.000000000  0.000000000
     0.000000000  2.464790260  0.000000000     0.000000000  0.405714034  0.000000000
     0.000000000  0.000000000 19.910969280     0.000000000  0.000000000  0.050223572

  length of vectors
     4.296119107  2.464790260 19.910969280     0.232768221  0.405714034  0.050223572

 FORCES acting on ions
    electron-ion (+dipol)            ewald-force                    non-local-force                 convergence-correction
   0.117E+01 0.360E-15 -.344E-09   -.117E+01 0.711E-15 -.832E-18   0.137E-02 -.104E-16 0.000E+00   -.114E-08 0.474E-15 -.103E-12
   -.117E+01 0.120E-13 -.605E-08   0.117E+01 -.574E-14 0.622E-18   -.137E-02 -.104E-16 0.000E+00   0.114E-08 -.160E-14 -.101E-12
   0.117E+01 -.263E-12 -.354E-09   -.117E+01 0.413E-14 -.469E-18   0.137E-02 0.104E-16 0.000E+00   -.114E-08 0.314E-15 -.333E-13
   -.117E+01 0.487E-16 -.602E-08   0.117E+01 -.232E-14 0.679E-18   -.137E-02 -.104E-16 0.000E+00   0.114E-08 -.135E-14 -.326E-13
   -.877E-06 -.251E-12 -.128E-07   -.178E-14 -.321E-14 0.000E+00   0.651E-18 -.208E-16 0.000E+00   0.227E-14 -.216E-14 -.270E-12

 POSITION                                       TOTAL-FORCE (eV/Angst)
      4.29555     -0.00000     -0.00000         0.000001      0.000000      0.000000
      0.71659      1.23240      0.00000        -0.000001      0.000000     -0.000000
      2.14749      1.23240     -0.00000         0.000001      0.000000      0.000000
      2.86465     -0.00000      0.00000        -0.000001     -0.000000     -0.000000
    total drift:                               -0.000001     -0.000000     -0.000000

  FREE ENERGIE OF THE ION-ELECTRON SYSTEM (eV)
  free  energy   TOTEN  =       -36.92236959 eV

  energy  without entropy=      -36.92228500  energy(sigma->0) =      -36.92232730

 d Force = 0.5937754E-13[-0.360E-13, 0.155E-12]  d Energy = 0.2752358E-09-0.275E-09
 d Force = 0.6977147E-07[ 0.698E-07, 0.698E-07]  d Ewald  = 0.6977189E-07-0.455E-12

 Quasi-Newton relaxation of ions (Broydens 2nd method)
  g(Force)  = 0.706E-13   g(Stress)= 0.000E+00

 retain information from N=  1 steps
 eigenvalues of (default step * inverse Hessian matrix)
  average eigenvalue of G=   0.0961
 eigenvalue spectrum of G is  0.0961

 reached required accuracy - stopping structural energy minimisation