 vasp.5.3.5 31Mar14 (build Mar 02 2015 18:14:16) complex

 executed on             LinuxIFC date 2018.08.09  14:40:27

 INCAR:
 POTCAR:   PAW_PBE C 08Apr2002
 POTCAR:   PAW_PBE C 08Apr2002
   VRHFIN =C: s2p2

   TITEL  = PAW_PBE C 08Apr2002
   POMASS =   12.011; ZVAL   =    4.000    mass and valenz
   ENMAX  =  400.000; ENMIN  =  300.000 eV
   QCUT   =   -5.516; QGAM   =   11.032    optimization parameters

   Description
     l     E      TYP  RCUT    TYP  RCUT
     0   .000     23  1.200
     0   .000     23  1.200
     1   .000     23  1.500
     1  2.500     23  1.500
     2   .000      7  1.500

 PAW_PBE C 08Apr2002                    :

 POSCAR: MD-kMC export data
  positions in direct lattice
  velocities in cartesian coordinates
 exchange correlation table for  LEXCH =        8
   RHO(1)=    0.500       N(1)  =     2000
   RHO(2)=  100.500       N(2)  =     4000

 ion  position               nearest neighbor table
   1  1.000  0.000  0.000-   2 1.43   2 1.43   4 1.43
   2  0.167  0.500  0.000-   1 1.43   1 1.43   3 1.43
   3  0.500  0.500  0.000-   4 1.43   4 1.43   2 1.43
   4  0.667  0.000  0.000-   3 1.43   3 1.43   1 1.43

  LATTYP: Found a simple orthorhombic cell.
 ALAT       =     2.4650158922
 B/A-ratio  =     1.7420560911
 C/A-ratio  =     8.0802980359

  Lattice vectors:

 A1 = (   0.0000000000,  -2.4650158922,   0.0000000000)
 A2 = (  -4.2941959496,   0.0000000000,   0.0000000000)
 A3 = (   0.0000000000,   0.0000000000, -19.9180630718)

Analysis of symmetry for initial positions (statically):
 Subroutine PRICEL returns following result:

  LATTYP: Found a base centered orthorhombic cell.
 ALAT       =     2.4650158922
 B/A-ratio  =     1.7420560911
 C/A-ratio  =     8.0802980359

[...]

   2 primitive cells build up your supercell.

 Routine SETGRP: Setting up the symmetry group for a
 simple orthorhombic supercell.

 Subroutine GETGRP returns: Found  8 space group operations
 (whereof  4 operations were pure point group operations)
 out of a pool of  8 trial point group operations.

The static configuration has the point symmetry C_2v.
 The point group associated with its full space group is D_2h.

Analysis of symmetry for dynamics (positions and initial velocities):
 Subroutine PRICEL returns following result:

  LATTYP: Found a base centered orthorhombic cell.
 ALAT       =     2.4650158922
 B/A-ratio  =     1.7420560911
 C/A-ratio  =     8.0802980359

  Lattice vectors:

 A1 = (   2.1470979748,  -1.2325079461,   0.0000000000)
 A2 = (  -2.1470979748,  -1.2325079461,   0.0000000000)
 A3 = (   0.0000000000,   0.0000000000, -19.9180630718)

   2 primitive cells build up your supercell.

 Routine SETGRP: Setting up the symmetry group for a
 simple orthorhombic supercell.

 Subroutine GETGRP returns: Found  8 space group operations
 (whereof  4 operations were pure point group operations)
 out of a pool of  8 trial point group operations.

The dynamic configuration has the point symmetry C_2v.
 The point group associated with its full space group is D_2h.

 KPOINTS: Automatic mesh

Automatic generation of k-mesh.
Space group operators:
 irot       det(A)        alpha          n_x          n_y          n_z        tau_x        tau_y        tau_z
    1     1.000000     0.000000     1.000000     0.000000     0.000000     0.000000     0.000000     0.000000
    2    -1.000000   180.000000     0.000000     0.000000     1.000000     0.000000     0.000000     0.000000
    3     1.000000   180.000000     1.000000     0.000000     0.000000     0.000000     0.000000     0.000000
    4    -1.000000   180.000000     0.000000     1.000000     0.000000     0.000000     0.000000     0.000000
    5    -1.000000     0.000000     1.000000     0.000000     0.000000     0.166667    -0.500000     0.000000
    6     1.000000   180.000000     0.000000     0.000000     1.000000     0.166667    -0.500000     0.000000
    7    -1.000000   180.000000     1.000000     0.000000     0.000000     0.166667    -0.500000     0.000000
    8     1.000000   180.000000     0.000000     1.000000     0.000000     0.166667    -0.500000     0.000000

 Subroutine IBZKPT returns following result:

 Found    247 irreducible k-points:

 Following reciprocal coordinates:
            Coordinates               Weight
  0.000000  0.000000  0.000000      1.000000
  0.041667  0.000000  0.000000      2.000000
  0.083333  0.000000  0.000000      2.000000
  0.125000  0.000000  0.000000      2.000000
  0.166667  0.000000  0.000000      2.000000
  0.208333  0.000000  0.000000      2.000000
  0.250000  0.000000  0.000000      2.000000
  0.291667  0.000000  0.000000      2.000000
  0.333333  0.000000  0.000000      2.000000
  0.375000  0.000000  0.000000      2.000000
  0.416667  0.000000  0.000000      2.000000
  0.458333  0.000000  0.000000      2.000000
  0.500000  0.000000  0.000000      1.000000
  0.000000  0.027778  0.000000      2.000000
  0.041667  0.027778  0.000000      4.000000
  0.083333  0.027778  0.000000      4.000000
  0.125000  0.027778  0.000000      4.000000
  0.166667  0.027778  0.000000      4.000000
  0.208333  0.027778  0.000000      4.000000
  0.250000  0.027778  0.000000      4.000000
  0.291667  0.027778  0.000000      4.000000
  0.333333  0.027778  0.000000      4.000000
  0.375000  0.027778  0.000000      4.000000
  0.416667  0.027778  0.000000      4.000000
  0.458333  0.027778  0.000000      4.000000
  0.500000  0.027778  0.000000      2.000000
  0.000000  0.055556  0.000000      2.000000
  0.041667  0.055556  0.000000      4.000000
  0.083333  0.055556  0.000000      4.000000
  0.125000  0.055556  0.000000      4.000000
  0.166667  0.055556  0.000000      4.000000
  0.208333  0.055556  0.000000      4.000000
  0.250000  0.055556  0.000000      4.000000
  0.291667  0.055556  0.000000      4.000000
  0.333333  0.055556  0.000000      4.000000
  0.375000  0.055556  0.000000      4.000000
  0.416667  0.055556  0.000000      4.000000
  0.458333  0.055556  0.000000      4.000000
  0.500000  0.055556  0.000000      2.000000
  0.000000  0.083333  0.000000      2.000000
  0.041667  0.083333  0.000000      4.000000
  0.083333  0.083333  0.000000      4.000000
  0.125000  0.083333  0.000000      4.000000
  0.166667  0.083333  0.000000      4.000000
  0.208333  0.083333  0.000000      4.000000
  0.250000  0.083333  0.000000      4.000000
  0.291667  0.083333  0.000000      4.000000
  0.333333  0.083333  0.000000      4.000000
  0.375000  0.083333  0.000000      4.000000
  0.416667  0.083333  0.000000      4.000000
  0.458333  0.083333  0.000000      4.000000
  0.500000  0.083333  0.000000      2.000000
  0.000000  0.111111  0.000000      2.000000
  0.041667  0.111111  0.000000      4.000000
  0.083333  0.111111  0.000000      4.000000
  0.125000  0.111111  0.000000      4.000000
  0.166667  0.111111  0.000000      4.000000
  0.208333  0.111111  0.000000      4.000000
  0.250000  0.111111  0.000000      4.000000
  0.291667  0.111111  0.000000      4.000000
[...]
  0.458333  0.472222  0.000000      4.000000
  0.500000  0.472222  0.000000      2.000000
  0.000000  0.500000  0.000000      1.000000
  0.041667  0.500000  0.000000      2.000000
  0.083333  0.500000  0.000000      2.000000
  0.125000  0.500000  0.000000      2.000000
  0.166667  0.500000  0.000000      2.000000
  0.208333  0.500000  0.000000      2.000000
  0.250000  0.500000  0.000000      2.000000
  0.291667  0.500000  0.000000      2.000000
  0.333333  0.500000  0.000000      2.000000
  0.375000  0.500000  0.000000      2.000000
  0.416667  0.500000  0.000000      2.000000
  0.458333  0.500000  0.000000      2.000000
  0.500000  0.500000  0.000000      1.000000

 Following cartesian coordinates:
            Coordinates               Weight
  0.000000  0.000000  0.000000      1.000000
  0.009703  0.000000  0.000000      2.000000
  0.019406  0.000000  0.000000      2.000000
  0.029109  0.000000  0.000000      2.000000
  0.038812  0.000000  0.000000      2.000000
  0.048515  0.000000  0.000000      2.000000
  0.058218  0.000000  0.000000      2.000000
  0.067921  0.000000  0.000000      2.000000
  0.077624  0.000000  0.000000      2.000000
  0.087327  0.000000  0.000000      2.000000
  0.097030  0.000000  0.000000      2.000000
  0.106733  0.000000  0.000000      2.000000
  0.116436  0.000000  0.000000      1.000000
  0.000000  0.011269  0.000000      2.000000
  0.009703  0.011269  0.000000      4.000000
  0.019406  0.011269  0.000000      4.000000
  0.029109  0.011269  0.000000      4.000000
  0.038812  0.011269  0.000000      4.000000
  0.048515  0.011269  0.000000      4.000000
  0.058218  0.011269  0.000000      4.000000
  0.067921  0.011269  0.000000      4.000000
  0.077624  0.011269  0.000000      4.000000
  0.087327  0.011269  0.000000      4.000000
  0.097030  0.011269  0.000000      4.000000
  0.106733  0.011269  0.000000      4.000000
  0.116436  0.011269  0.000000      2.000000
  0.000000  0.022538  0.000000      2.000000
  0.009703  0.022538  0.000000      4.000000
  0.019406  0.022538  0.000000      4.000000
  0.029109  0.022538  0.000000      4.000000
  0.038812  0.022538  0.000000      4.000000
  0.048515  0.022538  0.000000      4.000000
  0.058218  0.022538  0.000000      4.000000
  0.067921  0.022538  0.000000      4.000000
  0.077624  0.022538  0.000000      4.000000
  0.087327  0.022538  0.000000      4.000000
  0.097030  0.022538  0.000000      4.000000
  0.106733  0.022538  0.000000      4.000000
  0.116436  0.022538  0.000000      2.000000
  0.000000  0.033806  0.000000      2.000000
  0.009703  0.033806  0.000000      4.000000
  0.019406  0.033806  0.000000      4.000000
  0.029109  0.033806  0.000000      4.000000
  0.038812  0.033806  0.000000      4.000000
  0.048515  0.033806  0.000000      4.000000
  0.058218  0.033806  0.000000      4.000000
  0.067921  0.033806  0.000000      4.000000
  0.077624  0.033806  0.000000      4.000000
  0.087327  0.033806  0.000000      4.000000
  0.097030  0.033806  0.000000      4.000000
  0.106733  0.033806  0.000000      4.000000
  0.116436  0.033806  0.000000      2.000000
  0.000000  0.045075  0.000000      2.000000
  0.009703  0.045075  0.000000      4.000000
  0.019406  0.045075  0.000000      4.000000
  0.029109  0.045075  0.000000      4.000000
  0.038812  0.045075  0.000000      4.000000
  0.048515  0.045075  0.000000      4.000000
  0.058218  0.045075  0.000000      4.000000
  0.067921  0.045075  0.000000      4.000000
[...]
  0.106733  0.191570  0.000000      4.000000
  0.116436  0.191570  0.000000      2.000000
  0.000000  0.202838  0.000000      1.000000
  0.009703  0.202838  0.000000      2.000000
  0.019406  0.202838  0.000000      2.000000
  0.029109  0.202838  0.000000      2.000000
  0.038812  0.202838  0.000000      2.000000
  0.048515  0.202838  0.000000      2.000000
  0.058218  0.202838  0.000000      2.000000
  0.067921  0.202838  0.000000      2.000000
  0.077624  0.202838  0.000000      2.000000
  0.087327  0.202838  0.000000      2.000000
  0.097030  0.202838  0.000000      2.000000
  0.106733  0.202838  0.000000      2.000000
  0.116436  0.202838  0.000000      1.000000

 I would recommend the setting:
   dimension x,y,z NGX =    63 NGY =   36 NGZ =  291
[...]
 k-point ** :   0.5000 0.2778 0.0000  plane waves:   42838
 k-point ** :   0.0000 0.3056 0.0000  plane waves:   42890
 k-point ** :   0.0417 0.3056 0.0000  plane waves:   42880
 k-point ** :   0.0833 0.3056 0.0000  plane waves:   42893
 k-point ** :   0.1250 0.3056 0.0000  plane waves:   42876
 k-point ** :   0.1667 0.3056 0.0000  plane waves:   42876
 k-point ** :   0.2083 0.3056 0.0000  plane waves:   42886
 k-point ** :   0.2500 0.3056 0.0000  plane waves:   42838
 k-point ** :   0.2917 0.3056 0.0000  plane waves:   42854
 k-point ** :   0.3333 0.3056 0.0000  plane waves:   42848
 k-point ** :   0.3750 0.3056 0.0000  plane waves:   42833
 k-point ** :   0.4167 0.3056 0.0000  plane waves:   42839
 k-point ** :   0.4583 0.3056 0.0000  plane waves:   42837
 k-point ** :   0.5000 0.3056 0.0000  plane waves:   42850
 k-point ** :   0.0000 0.3333 0.0000  plane waves:   42898
 k-point ** :   0.0417 0.3333 0.0000  plane waves:   42896
 k-point ** :   0.0833 0.3333 0.0000  plane waves:   42896
[...]
 k-point ** :   0.4583 0.4722 0.0000  plane waves:   42801
 k-point ** :   0.5000 0.4722 0.0000  plane waves:   42784
 k-point ** :   0.0000 0.5000 0.0000  plane waves:   42950
 k-point ** :   0.0417 0.5000 0.0000  plane waves:   42912
 k-point ** :   0.0833 0.5000 0.0000  plane waves:   42936
 k-point ** :   0.1250 0.5000 0.0000  plane waves:   42922
 k-point ** :   0.1667 0.5000 0.0000  plane waves:   42902
 k-point ** :   0.2083 0.5000 0.0000  plane waves:   42928
 k-point ** :   0.2500 0.5000 0.0000  plane waves:   42928
 k-point ** :   0.2917 0.5000 0.0000  plane waves:   42892
 k-point ** :   0.3333 0.5000 0.0000  plane waves:   42900
 k-point ** :   0.3750 0.5000 0.0000  plane waves:   42844
 k-point ** :   0.4167 0.5000 0.0000  plane waves:   42830
 k-point ** :   0.4583 0.5000 0.0000  plane waves:   42804
 k-point ** :   0.5000 0.5000 0.0000  plane waves:   42796

 maximum and minimum number of plane-waves per node :     21484    21275

 maximum number of plane-waves:     42950
 maximum index in each direction:
   IXMAX=   15   IYMAX=    8   IZMAX=   72
   IXMIN=  -16   IYMIN=   -9   IZMIN=  -72

 NGX is ok and might be reduce to  64
 NGY is ok and might be reduce to  36
 NGZ is ok and might be reduce to 290

 parallel 3D FFT for wavefunctions:
    minimum data exchange during FFTs selected (reduces bandwidth)
 parallel 3D FFT for charge:
    minimum data exchange during FFTs selected (reduces bandwidth)

 Broyden mixing: mesh for mixing (old mesh)
   NGX = 31   NGY = 17   NGZ =145
  (NGX  =128   NGY  = 72   NGZ  =588)
  gives a total of  76415 points

 initial charge density was supplied:
 charge density of overlapping atoms calculated
 number of electron      16.0000000 magnetization
 keeping initial charge density in first step

 Maximum index for augmentation-charges         4677 (set IRDMAX)

 First call to EWALD:  gamma=   0.298
 Maximum number of real-space cells 4x 6x 1
 Maximum number of reciprocal cells 2x 1x 8

 FEWALD executed in parallel

----------------------------------------- Iteration    1(   1)  ---------------------------------------

 eigenvalue-minimisations  :  5928
 total energy-change (2. order) : 0.1891001E+03  (-0.1059669E+04)
 number of electron      16.0000000 magnetization
 augmentation part       16.0000000 magnetization

 Free energy of the ion-electron system (eV)
  alpha Z        PSCENC =         6.18334092
  Ewald energy   TEWEN  =      2559.12617231
  -Hartree energ DENC   =     -2985.33581752
  -exchange      EXHF   =         0.00000000
  -V(xc)+E(xc)   XCENC  =        55.04172973
  PAW double counting   =       151.32577238     -155.92769107
  entropy T*S    EENTRO =        -0.00143113
  eigenvalues    EBANDS =       -29.93554733
  atomic energy  EATOM  =       588.62352690
  free energy    TOTEN  =       189.10005520 eV

  energy without entropy =      189.10148633  energy(sigma->0) =      189.10077077

[...]

 eigenvalue-minimisations  : 10288
 total energy-change (2. order) :-0.1978631E+03  (-0.1751969E+03)
 number of electron      16.0000000 magnetization
 augmentation part       16.0000000 magnetization

[...]

 Broyden mixing:
  rms(total) = 0.73035E+00    rms(broyden)= 0.73035E+00
  rms(prec ) = 0.79427E+00
  weight for this iteration     100.00

[...]

 eigenvalues of (default mixing * dielectric matrix)
  average eigenvalue GAMMA=   2.3172
  2.3172

[...]

WARNING in EDDRMM: call to ZHEGV failed, returncode =   6  3  1

[...]

 average (electrostatic) potential at core
  the test charge radii are     0.6991
  (the norm of the test charge is              1.0000)
       1 -58.2140       2 -58.2140       3 -58.2140       4 -58.2140

 E-fermi :  -2.7680     XC(G=0):  -2.1495     alpha+bet : -1.9046

 k-point     1 :       0.0000    0.0000    0.0000
  band No.  band energies     occupation
      1     -22.2198      2.00000
      2     -17.0693      2.00000
      3     -15.9472      2.00000
      4     -10.3328      2.00000
      5      -9.0867      2.00000
      6      -5.8315      2.00000
      7      -5.7734      2.00000
      8      -5.1560      2.00000
      9      -1.0986      0.00000
     10       0.5279      0.00000
     11       1.3283      0.00000
     12       1.7122      0.00000

[...]

 soft charge-density along one line, spin component           1
         0         1         2         3         4         5         6         7         8         9
 total charge-density along one line

------------------------ aborting loop because EDIFF is reached ----------------------------------------

  FORCE on cell =-STRESS in cart. coord.  units (eV):
  Direction    XX          YY          ZZ          XY          YZ          ZX
  Alpha Z     6.18334     6.18334     6.18334
  Ewald    3095.24281  3095.83577 -3631.95265     0.00000     0.00000    -0.00000
  Hartree  3030.28499  3030.49839 -3007.64300     0.00000    -0.00000    -0.00000
  E(xc)     -58.26463   -58.27043   -60.60309     0.00000     0.00000    -0.00000
  Local   -6298.19198 -6298.89985  6433.61643    -0.00000     0.00000     0.00000
  n-local   -13.76053   -13.92660   -12.71123     0.05823     0.00000    -0.00000
  augment    -1.52907    -1.52963    -1.40600     0.00000    -0.00000     0.00000
  Kinetic   238.96039   240.10684   274.51488    -4.56945    -0.00000     0.00000
  Fock        0.00000     0.00000     0.00000     0.00000     0.00000     0.00000
  Total      -1.07468    -0.00217    -0.00132     0.00000     0.00000     0.00000
  in kB      -8.16661    -0.01652    -0.01005     0.00000     0.00000     0.00000

 VOLUME and BASIS-vectors are now :
  energy-cutoff  :     2000.00
  volume of cell :      210.84
      direct lattice vectors                 reciprocal lattice vectors
     4.294195950  0.000000000  0.000000000     0.232872466  0.000000000  0.000000000
     0.000000000  2.465015892  0.000000000     0.000000000  0.405676898  0.000000000
     0.000000000  0.000000000 19.918063072     0.000000000  0.000000000  0.050205685

[...]

 FORCES acting on ions
    electron-ion (+dipol)            ewald-force                    non-local-force                 convergence-correction
   0.107E+01 0.722E-15 -.328E-09   -.107E+01 -.221E-14 0.000E+00   0.208E-02 -.694E-17 0.103E-24   -.103E-06 -.282E-15 0.195E-12
   -.107E+01 0.133E-13 -.599E-08   0.107E+01 0.386E-14 -.118E-17   -.208E-02 0.000E+00 0.000E+00   0.103E-06 -.851E-15 0.194E-12
   0.107E+01 -.203E-12 -.361E-09   -.107E+01 -.329E-14 0.000E+00   0.208E-02 -.694E-17 0.000E+00   -.103E-06 -.210E-15 0.195E-12
   -.107E+01 0.137E-15 -.602E-08   0.107E+01 0.279E-14 0.118E-17   -.208E-02 0.139E-16 0.517E-25   0.103E-06 -.937E-15 0.194E-12
   -.846E-06 -.189E-12 -.127E-07   0.444E-14 0.115E-14 0.000E+00   0.434E-18 0.000E+00 0.155E-24   -.825E-13 -.228E-14 0.777E-12

 POSITION                                       TOTAL-FORCE (eV/Angst)
      4.29365      0.00000      0.00000         0.002197      0.000000      0.000000
      0.71624      1.23251      0.00000        -0.002197     -0.000000     -0.000000
      2.14656      1.23251      0.00000         0.002197     -0.000000      0.000000
      2.86334      0.00000      0.00000        -0.002197     -0.000000     -0.000000
    total drift:                               -0.000001     -0.000000     -0.000000

  FREE ENERGIE OF THE ION-ELECTRON SYSTEM (eV)
  free  energy   TOTEN  =       -36.92287308 eV

  energy  without entropy=      -36.92278167  energy(sigma->0) =      -36.92282737

 Quasi-Newton relaxation of ions (Broydens 2nd method)
  g(Force)  = 0.931E-06   g(Stress)= 0.000E+00

 Reset! Starting new Quasi-Newton update for ions

[...]

WARNING in EDDRMM: call to ZHEGV failed, returncode =   6  3  1

[...]

 d Force =-0.1378387E-05[-0.369E-05, 0.931E-06]  d Energy =-0.1374719E-05-0.367E-08
 d Force =-0.4596687E-03[-0.468E-03,-0.452E-03]  d Ewald  =-0.4596696E-03 0.945E-09

[...]

 retain information from N=  1 steps
 eigenvalues of (default step * inverse Hessian matrix)
  average eigenvalue of G=   0.2016
 eigenvalue spectrum of G is  0.2016

[...]

 d Force = 0.1473706E-05[ 0.294E-08, 0.294E-05]  d Energy = 0.1469481E-05 0.423E-08
 d Force = 0.3682821E-03[ 0.363E-03, 0.373E-03]  d Ewald  = 0.3682825E-03-0.481E-09

[...]

 eigenvalue-minimisations  :  4716
 total energy-change (2. order) : 0.8510597E-09  ( 0.5706147E-09)
 number of electron      16.0000000 magnetization
 augmentation part        0.3800262 magnetization

[...]

 eigenvalue-minimisations  :  3077
 total energy-change (2. order) :-0.9699761E-09  ( 0.7657249E-13)
 number of electron      16.0000000 magnetization
 augmentation part        0.3800262 magnetization

[...]

 d Force =-0.6427933E-12[-0.422E-11, 0.294E-11]  d Energy = 0.3637979E-11-0.428E-11
 d Force = 0.3628479E-06[ 0.363E-06, 0.363E-06]  d Ewald  = 0.3628470E-06 0.909E-12

[...]

 d Force = 0.1356304E-11[ 0.223E-12, 0.249E-11]  d Energy =-0.1099352E-09 0.111E-09
 d Force =-0.2140142E-06[-0.214E-06,-0.214E-06]  d Ewald  =-0.2140137E-06-0.455E-12

[...]

 eigenvalue-minimisations  :   807
 total energy-change (2. order) : 0.2285105E-10  (-0.3799430E-14)
 number of electron      16.0000000 magnetization
 augmentation part        0.3800262 magnetization

[...]

 d Force = 0.2473954E-13[ 0.275E-13, 0.219E-13]  d Energy =-0.5195488E-10 0.520E-10
 d Force =-0.2105430E-07[-0.211E-07,-0.211E-07]  d Ewald  =-0.2105389E-07-0.455E-12

[...]

 eigenvalue-minimisations  :   445
 total energy-change (2. order) :-0.4558842E-09  (-0.1282924E-14)
 number of electron      16.0000000 magnetization
 augmentation part        0.3800262 magnetization

[...]

 d Force =-0.3156584E-12[-0.496E-12,-0.135E-12]  d Energy =-0.1098215E-09 0.110E-09
 d Force = 0.1034446E-06[ 0.103E-06, 0.103E-06]  d Ewald  = 0.1034441E-06 0.455E-12

[...]

 FEWALD executed in parallel

[...]

 eigenvalue-minimisations  :   532
 total energy-change (2. order) : 0.3684590E-09  ( 0.0000000E+00)
 number of electron      16.0000000 magnetization
 augmentation part        0.3800262 magnetization

[...]

 Broyden mixing:
  rms(total) = 0.22205E-10    rms(broyden)= 0.22046E-10
  rms(prec ) = 0.39693E-10
  weight for this iteration     100.00

 eigenvalues of (default mixing * dielectric matrix)
  average eigenvalue GAMMA=   2.1936
  2.7449  2.6250  2.5583  0.8461

[...]

----------------------------------------- Iteration    8(   6)  ---------------------------------------

 eigenvalue-minimisations  :   325
 total energy-change (2. order) :-0.6343726E-10  ( 0.0000000E+00)
 number of electron      16.0000000 magnetization
 augmentation part        0.3800262 magnetization

 Free energy of the ion-electron system (eV)
  alpha Z        PSCENC =         6.18334092
  Ewald energy   TEWEN  =      2559.12626360
  -Hartree energ DENC   =     -3053.14045140
  -exchange      EXHF   =         0.00000000
  -V(xc)+E(xc)   XCENC  =        57.44673005
  PAW double counting   =       275.41249775     -280.55377070
  entropy T*S    EENTRO =        -0.00009079
  eigenvalues    EBANDS =      -190.02091951
  atomic energy  EATOM  =       588.62352690
  free energy    TOTEN  =       -36.92287317 eV

  energy without entropy =      -36.92278238  energy(sigma->0) =      -36.92282778

 average (electrostatic) potential at core
  the test charge radii are     0.6991
  (the norm of the test charge is              1.0000)
       1 -58.2140       2 -58.2140       3 -58.2140       4 -58.2140

 E-fermi :  -2.7680     XC(G=0):  -2.1490     alpha+bet : -1.9046

[...]

 k-point   247 :       0.5000    0.5000    0.0000
  band No.  band energies     occupation
      1     -16.9858      2.00000
      2     -16.9858      2.00000
      3     -15.9501      2.00000
      4     -15.9501      2.00000
      5      -9.1902      2.00000
      6      -9.1902      2.00000
      7      -5.0911      2.00000
      8      -5.0911      2.00000
      9      -1.0895      0.00000
     10      -1.0895      0.00000
     11       4.4646      0.00000
     12       4.4646      0.00000

 soft charge-density along one line, spin component           1
         0         1         2         3         4         5         6         7         8         9
 total charge-density along one line

------------------------ aborting loop because EDIFF is reached ----------------------------------------

  FORCE on cell =-STRESS in cart. coord.  units (eV):
  Direction    XX          YY          ZZ          XY          YZ          ZX
  Alpha Z     6.18334     6.18334     6.18334
  Ewald    3095.22420  3095.85447 -3631.95265     0.00000     0.00000    -0.00000
  Hartree  3030.28243  3030.50101 -3007.64299    -0.00000    -0.00000    -0.00000
  E(xc)     -58.26470   -58.27036   -60.60310    -0.00000    -0.00000    -0.00000
  Local   -6298.17433 -6298.91761  6433.61640    -0.00000     0.00000     0.00000
  n-local   -13.76069   -13.92645   -12.71123     0.05825    -0.00000    -0.00000
  augment    -1.52905    -1.52966    -1.40600    -0.00000    -0.00000    -0.00000
  Kinetic   238.96334   240.10394   274.51491    -4.56954     0.00000     0.00000
  Fock        0.00000     0.00000     0.00000     0.00000     0.00000     0.00000
  Total      -1.07545    -0.00131    -0.00132     0.00000     0.00000     0.00000
  in kB      -8.17245    -0.00995    -0.01005     0.00000     0.00000     0.00000

 VOLUME and BASIS-vectors are now :
  energy-cutoff  :     2000.00
  volume of cell :      210.84
      direct lattice vectors                 reciprocal lattice vectors
     4.294195950  0.000000000  0.000000000     0.232872466  0.000000000  0.000000000
     0.000000000  2.465015892  0.000000000     0.000000000  0.405676898  0.000000000
     0.000000000  0.000000000 19.918063072     0.000000000  0.000000000  0.050205685

  length of vectors
     4.294195950  2.465015892 19.918063072     0.232872466  0.405676898  0.050205685

 FORCES acting on ions
    electron-ion (+dipol)            ewald-force                    non-local-force                 convergence-correction
   0.107E+01 0.336E-16 -.320E-09   -.107E+01 0.341E-16 -.695E-18   0.129E-02 -.104E-16 0.000E+00   0.103E-10 -.532E-15 -.389E-11
   -.107E+01 -.189E-12 -.596E-08   0.107E+01 -.823E-15 0.111E-17   -.129E-02 0.139E-16 0.000E+00   -.102E-10 -.523E-15 -.387E-11
   0.107E+01 -.268E-12 -.354E-09   -.107E+01 0.140E-14 -.173E-18   0.129E-02 -.347E-17 0.364E-26   0.103E-10 0.155E-15 -.390E-11
   -.107E+01 0.484E-15 -.594E-08   0.107E+01 0.539E-15 -.247E-18   -.129E-02 0.139E-16 -.283E-26   -.103E-10 -.124E-14 -.392E-11
   -.846E-06 -.457E-12 -.126E-07   0.444E-14 0.115E-14 0.481E-34   0.434E-18 0.139E-16 0.808E-27   0.212E-14 -.214E-14 -.156E-10

 POSITION                                       TOTAL-FORCE (eV/Angst)
      4.29368     -0.00000      0.00000         0.000001     -0.000000      0.000000
      0.71622      1.23251     -0.00000        -0.000001      0.000000     -0.000000
      2.14658      1.23251      0.00000         0.000001      0.000000      0.000000
      2.86332     -0.00000     -0.00000        -0.000001      0.000000     -0.000000
    total drift:                               -0.000001     -0.000000     -0.000000

  FREE ENERGIE OF THE ION-ELECTRON SYSTEM (eV)
  free  energy   TOTEN  =       -36.92287317 eV

  energy  without entropy=      -36.92278238  energy(sigma->0) =      -36.92282778

 d Force = 0.3793586E-12[ 0.766E-13, 0.682E-12]  d Energy = 0.1689386E-09-0.169E-09
 d Force =-0.1422568E-06[-0.142E-06,-0.142E-06]  d Ewald  =-0.1422568E-06 0.000E+00

 Quasi-Newton relaxation of ions (Broydens 2nd method)
  g(Force)  = 0.645E-13   g(Stress)= 0.000E+00

 retain information from N=  1 steps
 eigenvalues of (default step * inverse Hessian matrix)
  average eigenvalue of G=   0.1504
 eigenvalue spectrum of G is  0.1504

 reached required accuracy - stopping structural energy minimisation