 vasp.5.3.5 31Mar14 (build Mar 02 2015 18:14:16) complex

 executed on             LinuxIFC date 2018.08.09  14:36:54

 INCAR:
 POTCAR:   PAW_PBE C 08Apr2002
 POTCAR:   PAW_PBE C 08Apr2002
   VRHFIN =C: s2p2

   TITEL  = PAW_PBE C 08Apr2002
   POMASS =   12.011; ZVAL   =    4.000    mass and valenz
   ENMAX  =  400.000; ENMIN  =  300.000 eV
   QCUT   =   -5.516; QGAM   =   11.032    optimization parameters

   Description
     l     E      TYP  RCUT    TYP  RCUT
     0   .000     23  1.200
     0   .000     23  1.200
     1   .000     23  1.500
     1  2.500     23  1.500
     2   .000      7  1.500

 PAW_PBE C 08Apr2002                    :

 POSCAR: MD-kMC export data
  positions in direct lattice
  velocities in cartesian coordinates
 exchange correlation table for  LEXCH =        8
   RHO(1)=    0.500       N(1)  =     2000
   RHO(2)=  100.500       N(2)  =     4000

 ion  position               nearest neighbor table
   1  1.000  0.000  0.000-   2 1.43   2 1.43   4 1.43
   2  0.167  0.500  0.000-   1 1.43   1 1.43   3 1.43
   3  0.500  0.500  0.000-   4 1.43   4 1.43   2 1.43
   4  0.667  0.000  0.000-   3 1.43   3 1.43   1 1.43

  LATTYP: Found a simple orthorhombic cell.
 ALAT       =     2.4650409624
 B/A-ratio  =     1.7419516880
 C/A-ratio  =     8.0805357750

  Lattice vectors:

 A1 = (   0.0000000000,  -2.4650409624,   0.0000000000)
 A2 = (  -4.2939822655,   0.0000000000,   0.0000000000)
 A3 = (   0.0000000000,   0.0000000000, -19.9188516837)

Analysis of symmetry for initial positions (statically):
 Subroutine PRICEL returns following result:

  LATTYP: Found a base centered orthorhombic cell.
 ALAT       =     2.4650409624
 B/A-ratio  =     1.7419516880
 C/A-ratio  =     8.0805357750

[...]

   2 primitive cells build up your supercell.

 Routine SETGRP: Setting up the symmetry group for a
 simple orthorhombic supercell.

 Subroutine GETGRP returns: Found  8 space group operations
 (whereof  4 operations were pure point group operations)
 out of a pool of  8 trial point group operations.

The static configuration has the point symmetry C_2v.
 The point group associated with its full space group is D_2h.

Analysis of symmetry for dynamics (positions and initial velocities):
 Subroutine PRICEL returns following result:

  LATTYP: Found a base centered orthorhombic cell.
 ALAT       =     2.4650409624
 B/A-ratio  =     1.7419516880
 C/A-ratio  =     8.0805357750

  Lattice vectors:

 A1 = (   2.1469911327,  -1.2325204812,   0.0000000000)
 A2 = (  -2.1469911327,  -1.2325204812,   0.0000000000)
 A3 = (   0.0000000000,   0.0000000000, -19.9188516837)

   2 primitive cells build up your supercell.

 Routine SETGRP: Setting up the symmetry group for a
 simple orthorhombic supercell.

 Subroutine GETGRP returns: Found  8 space group operations
 (whereof  4 operations were pure point group operations)
 out of a pool of  8 trial point group operations.

The dynamic configuration has the point symmetry C_2v.
 The point group associated with its full space group is D_2h.

 KPOINTS: Automatic mesh

Automatic generation of k-mesh.
Space group operators:
 irot       det(A)        alpha          n_x          n_y          n_z        tau_x        tau_y        tau_z
    1     1.000000     0.000001     1.000000     0.000000     0.000000     0.000000     0.000000     0.000000
    2    -1.000000   180.000000     0.000000     0.000000     1.000000     0.000000     0.000000     0.000000
    3     1.000000   179.999999     1.000000     0.000000     0.000000     0.000000     0.000000     0.000000
    4    -1.000000   180.000000     0.000000     1.000000     0.000000     0.000000     0.000000     0.000000
    5    -1.000000     0.000001     1.000000     0.000000     0.000000     0.166667    -0.500000     0.000000
    6     1.000000   180.000000     0.000000     0.000000     1.000000     0.166667    -0.500000     0.000000
    7    -1.000000   179.999999     1.000000     0.000000     0.000000     0.166667    -0.500000     0.000000
    8     1.000000   180.000000     0.000000     1.000000     0.000000     0.166667    -0.500000     0.000000

 Subroutine IBZKPT returns following result:

 Found    247 irreducible k-points:

 Following reciprocal coordinates:
            Coordinates               Weight
  0.000000  0.000000  0.000000      1.000000
  0.041667  0.000000  0.000000      2.000000
  0.083333  0.000000  0.000000      2.000000
  0.125000  0.000000  0.000000      2.000000
  0.166667  0.000000  0.000000      2.000000
  0.208333  0.000000  0.000000      2.000000
  0.250000  0.000000  0.000000      2.000000
  0.291667  0.000000  0.000000      2.000000
  0.333333  0.000000  0.000000      2.000000
  0.375000  0.000000  0.000000      2.000000
  0.416667  0.000000  0.000000      2.000000
  0.458333  0.000000  0.000000      2.000000
  0.500000  0.000000  0.000000      1.000000
  0.000000  0.027778  0.000000      2.000000
  0.041667  0.027778  0.000000      4.000000
  0.083333  0.027778  0.000000      4.000000
  0.125000  0.027778  0.000000      4.000000
  0.166667  0.027778  0.000000      4.000000
  0.208333  0.027778  0.000000      4.000000
  0.250000  0.027778  0.000000      4.000000
  0.291667  0.027778  0.000000      4.000000
  0.333333  0.027778  0.000000      4.000000
  0.375000  0.027778  0.000000      4.000000
  0.416667  0.027778  0.000000      4.000000
  0.458333  0.027778  0.000000      4.000000
  0.500000  0.027778  0.000000      2.000000
  0.000000  0.055556  0.000000      2.000000
  0.041667  0.055556  0.000000      4.000000
  0.083333  0.055556  0.000000      4.000000
  0.125000  0.055556  0.000000      4.000000
  0.166667  0.055556  0.000000      4.000000
  0.208333  0.055556  0.000000      4.000000
  0.250000  0.055556  0.000000      4.000000
  0.291667  0.055556  0.000000      4.000000
  0.333333  0.055556  0.000000      4.000000
  0.375000  0.055556  0.000000      4.000000
  0.416667  0.055556  0.000000      4.000000
  0.458333  0.055556  0.000000      4.000000
  0.500000  0.055556  0.000000      2.000000
  0.000000  0.083333  0.000000      2.000000
  0.041667  0.083333  0.000000      4.000000
  0.083333  0.083333  0.000000      4.000000
  0.125000  0.083333  0.000000      4.000000
  0.166667  0.083333  0.000000      4.000000
  0.208333  0.083333  0.000000      4.000000
  0.250000  0.083333  0.000000      4.000000
  0.291667  0.083333  0.000000      4.000000
  0.333333  0.083333  0.000000      4.000000
  0.375000  0.083333  0.000000      4.000000
  0.416667  0.083333  0.000000      4.000000
  0.458333  0.083333  0.000000      4.000000
  0.500000  0.083333  0.000000      2.000000
  0.000000  0.111111  0.000000      2.000000
  0.041667  0.111111  0.000000      4.000000
  0.083333  0.111111  0.000000      4.000000
  0.125000  0.111111  0.000000      4.000000
  0.166667  0.111111  0.000000      4.000000
  0.208333  0.111111  0.000000      4.000000
  0.250000  0.111111  0.000000      4.000000
  0.291667  0.111111  0.000000      4.000000
[...]
  0.458333  0.472222  0.000000      4.000000
  0.500000  0.472222  0.000000      2.000000
  0.000000  0.500000  0.000000      1.000000
  0.041667  0.500000  0.000000      2.000000
  0.083333  0.500000  0.000000      2.000000
  0.125000  0.500000  0.000000      2.000000
  0.166667  0.500000  0.000000      2.000000
  0.208333  0.500000  0.000000      2.000000
  0.250000  0.500000  0.000000      2.000000
  0.291667  0.500000  0.000000      2.000000
  0.333333  0.500000  0.000000      2.000000
  0.375000  0.500000  0.000000      2.000000
  0.416667  0.500000  0.000000      2.000000
  0.458333  0.500000  0.000000      2.000000
  0.500000  0.500000  0.000000      1.000000

 Following cartesian coordinates:
            Coordinates               Weight
  0.000000  0.000000  0.000000      1.000000
  0.009704  0.000000  0.000000      2.000000
  0.019407  0.000000  0.000000      2.000000
  0.029111  0.000000  0.000000      2.000000
  0.038814  0.000000  0.000000      2.000000
  0.048518  0.000000  0.000000      2.000000
  0.058221  0.000000  0.000000      2.000000
  0.067925  0.000000  0.000000      2.000000
  0.077628  0.000000  0.000000      2.000000
  0.087332  0.000000  0.000000      2.000000
  0.097035  0.000000  0.000000      2.000000
  0.106739  0.000000  0.000000      2.000000
  0.116442  0.000000  0.000000      1.000000
  0.000000  0.011269  0.000000      2.000000
  0.009704  0.011269  0.000000      4.000000
  0.019407  0.011269  0.000000      4.000000
  0.029111  0.011269  0.000000      4.000000
  0.038814  0.011269  0.000000      4.000000
  0.048518  0.011269  0.000000      4.000000
  0.058221  0.011269  0.000000      4.000000
  0.067925  0.011269  0.000000      4.000000
  0.077628  0.011269  0.000000      4.000000
  0.087332  0.011269  0.000000      4.000000
  0.097035  0.011269  0.000000      4.000000
  0.106739  0.011269  0.000000      4.000000
  0.116442  0.011269  0.000000      2.000000
  0.000000  0.022537  0.000000      2.000000
  0.009704  0.022537  0.000000      4.000000
  0.019407  0.022537  0.000000      4.000000
  0.029111  0.022537  0.000000      4.000000
  0.038814  0.022537  0.000000      4.000000
  0.048518  0.022537  0.000000      4.000000
  0.058221  0.022537  0.000000      4.000000
  0.067925  0.022537  0.000000      4.000000
  0.077628  0.022537  0.000000      4.000000
  0.087332  0.022537  0.000000      4.000000
  0.097035  0.022537  0.000000      4.000000
  0.106739  0.022537  0.000000      4.000000
  0.116442  0.022537  0.000000      2.000000
  0.000000  0.033806  0.000000      2.000000
  0.009704  0.033806  0.000000      4.000000
  0.019407  0.033806  0.000000      4.000000
  0.029111  0.033806  0.000000      4.000000
  0.038814  0.033806  0.000000      4.000000
  0.048518  0.033806  0.000000      4.000000
  0.058221  0.033806  0.000000      4.000000
  0.067925  0.033806  0.000000      4.000000
  0.077628  0.033806  0.000000      4.000000
  0.087332  0.033806  0.000000      4.000000
  0.097035  0.033806  0.000000      4.000000
  0.106739  0.033806  0.000000      4.000000
  0.116442  0.033806  0.000000      2.000000
  0.000000  0.045075  0.000000      2.000000
  0.009704  0.045075  0.000000      4.000000
  0.019407  0.045075  0.000000      4.000000
  0.029111  0.045075  0.000000      4.000000
  0.038814  0.045075  0.000000      4.000000
  0.048518  0.045075  0.000000      4.000000
  0.058221  0.045075  0.000000      4.000000
  0.067925  0.045075  0.000000      4.000000
[...]
  0.106739  0.191568  0.000000      4.000000
  0.116442  0.191568  0.000000      2.000000
  0.000000  0.202836  0.000000      1.000000
  0.009704  0.202836  0.000000      2.000000
  0.019407  0.202836  0.000000      2.000000
  0.029111  0.202836  0.000000      2.000000
  0.038814  0.202836  0.000000      2.000000
  0.048518  0.202836  0.000000      2.000000
  0.058221  0.202836  0.000000      2.000000
  0.067925  0.202836  0.000000      2.000000
  0.077628  0.202836  0.000000      2.000000
  0.087332  0.202836  0.000000      2.000000
  0.097035  0.202836  0.000000      2.000000
  0.106739  0.202836  0.000000      2.000000
  0.116442  0.202836  0.000000      1.000000

 I would recommend the setting:
   dimension x,y,z NGX =    63 NGY =   36 NGZ =  291
[...]
 k-point 21 :   0.2917 0.0278 0.0000  plane waves:   42707
 k-point 22 :   0.3333 0.0278 0.0000  plane waves:   42720
 k-point 23 :   0.3750 0.0278 0.0000  plane waves:   42727
 k-point 24 :   0.4167 0.0278 0.0000  plane waves:   42736
 k-point 25 :   0.4583 0.0278 0.0000  plane waves:   42770
 k-point 26 :   0.5000 0.0278 0.0000  plane waves:   42774
 k-point 27 :   0.0000 0.0556 0.0000  plane waves:   42698
 k-point 28 :   0.0417 0.0556 0.0000  plane waves:   42695
 k-point 29 :   0.0833 0.0556 0.0000  plane waves:   42710
 k-point 30 :   0.1250 0.0556 0.0000  plane waves:   42708
 k-point 31 :   0.1667 0.0556 0.0000  plane waves:   42716
 k-point 32 :   0.2083 0.0556 0.0000  plane waves:   42725
 k-point 33 :   0.2500 0.0556 0.0000  plane waves:   42718
 k-point 34 :   0.2917 0.0556 0.0000  plane waves:   42733
 k-point 35 :   0.3333 0.0556 0.0000  plane waves:   42737
 k-point 36 :   0.3750 0.0556 0.0000  plane waves:   42728
 k-point 37 :   0.4167 0.0556 0.0000  plane waves:   42766
 k-point 38 :   0.4583 0.0556 0.0000  plane waves:   42774
 k-point 39 :   0.5000 0.0556 0.0000  plane waves:   42772
 k-point 40 :   0.0000 0.0833 0.0000  plane waves:   42724
 k-point 41 :   0.0417 0.0833 0.0000  plane waves:   42744
 k-point 42 :   0.0833 0.0833 0.0000  plane waves:   42731
 k-point 43 :   0.1250 0.0833 0.0000  plane waves:   42720
 k-point 44 :   0.1667 0.0833 0.0000  plane waves:   42735
 k-point 45 :   0.2083 0.0833 0.0000  plane waves:   42750
 k-point 46 :   0.2500 0.0833 0.0000  plane waves:   42742
 k-point 47 :   0.2917 0.0833 0.0000  plane waves:   42738
 k-point 48 :   0.3333 0.0833 0.0000  plane waves:   42742
 k-point 49 :   0.3750 0.0833 0.0000  plane waves:   42762
 k-point 50 :   0.4167 0.0833 0.0000  plane waves:   42775
 k-point 51 :   0.4583 0.0833 0.0000  plane waves:   42789
 k-point 52 :   0.5000 0.0833 0.0000  plane waves:   42808
 k-point 53 :   0.0000 0.1111 0.0000  plane waves:   42766
 k-point 54 :   0.0417 0.1111 0.0000  plane waves:   42782
 k-point 55 :   0.0833 0.1111 0.0000  plane waves:   42764
 k-point 56 :   0.1250 0.1111 0.0000  plane waves:   42750
 k-point 57 :   0.1667 0.1111 0.0000  plane waves:   42761
 k-point 58 :   0.2083 0.1111 0.0000  plane waves:   42757
 k-point 59 :   0.2500 0.1111 0.0000  plane waves:   42766
 k-point 60 :   0.2917 0.1111 0.0000  plane waves:   42765
[...]
 k-point 85 :   0.2500 0.1667 0.0000  plane waves:   42793
 k-point 86 :   0.2917 0.1667 0.0000  plane waves:   42773
 k-point 87 :   0.3333 0.1667 0.0000  plane waves:   42807
 k-point 88 :   0.3750 0.1667 0.0000  plane waves:   42797
 k-point 89 :   0.4167 0.1667 0.0000  plane waves:   42807
 k-point 90 :   0.4583 0.1667 0.0000  plane waves:   42798
 k-point 91 :   0.5000 0.1667 0.0000  plane waves:   42816
 k-point 92 :   0.0000 0.1944 0.0000  plane waves:   42824
 k-point 93 :   0.0417 0.1944 0.0000  plane waves:   42832
 k-point 94 :   0.0833 0.1944 0.0000  plane waves:   42851
 k-point 95 :   0.1250 0.1944 0.0000  plane waves:   42844
 k-point 96 :   0.1667 0.1944 0.0000  plane waves:   42826
 k-point 97 :   0.2083 0.1944 0.0000  plane waves:   42794
 k-point 98 :   0.2500 0.1944 0.0000  plane waves:   42804
 k-point 99 :   0.2917 0.1944 0.0000  plane waves:   42788
 k-point ** :   0.3333 0.1944 0.0000  plane waves:   42800
 k-point ** :   0.3750 0.1944 0.0000  plane waves:   42792
 k-point ** :   0.4167 0.1944 0.0000  plane waves:   42802
 k-point ** :   0.4583 0.1944 0.0000  plane waves:   42819
 k-point ** :   0.5000 0.1944 0.0000  plane waves:   42818
 k-point ** :   0.0000 0.2222 0.0000  plane waves:   42842
 k-point ** :   0.0417 0.2222 0.0000  plane waves:   42849
 k-point ** :   0.0833 0.2222 0.0000  plane waves:   42863
 k-point ** :   0.1250 0.2222 0.0000  plane waves:   42858
 k-point ** :   0.1667 0.2222 0.0000  plane waves:   42827
 k-point ** :   0.2083 0.2222 0.0000  plane waves:   42830
 k-point ** :   0.2500 0.2222 0.0000  plane waves:   42840
 k-point ** :   0.2917 0.2222 0.0000  plane waves:   42829
 k-point ** :   0.3333 0.2222 0.0000  plane waves:   42798
 k-point ** :   0.3750 0.2222 0.0000  plane waves:   42813
 k-point ** :   0.4167 0.2222 0.0000  plane waves:   42813
 k-point ** :   0.4583 0.2222 0.0000  plane waves:   42815
 k-point ** :   0.5000 0.2222 0.0000  plane waves:   42782
 k-point ** :   0.0000 0.2500 0.0000  plane waves:   42874
 k-point ** :   0.0417 0.2500 0.0000  plane waves:   42857
 k-point ** :   0.0833 0.2500 0.0000  plane waves:   42858
 k-point ** :   0.1250 0.2500 0.0000  plane waves:   42865
 k-point ** :   0.1667 0.2500 0.0000  plane waves:   42844
 k-point ** :   0.2083 0.2500 0.0000  plane waves:   42835
 k-point ** :   0.2500 0.2500 0.0000  plane waves:   42815
 k-point ** :   0.2917 0.2500 0.0000  plane waves:   42810
 k-point ** :   0.3333 0.2500 0.0000  plane waves:   42817
 k-point ** :   0.3750 0.2500 0.0000  plane waves:   42804
 k-point ** :   0.4167 0.2500 0.0000  plane waves:   42799
 k-point ** :   0.4583 0.2500 0.0000  plane waves:   42817
 k-point ** :   0.5000 0.2500 0.0000  plane waves:   42792
 k-point ** :   0.0000 0.2778 0.0000  plane waves:   42884
 k-point ** :   0.0417 0.2778 0.0000  plane waves:   42889
 k-point ** :   0.0833 0.2778 0.0000  plane waves:   42867
 k-point ** :   0.1250 0.2778 0.0000  plane waves:   42874
 k-point ** :   0.1667 0.2778 0.0000  plane waves:   42855
 k-point ** :   0.2083 0.2778 0.0000  plane waves:   42843
 k-point ** :   0.2500 0.2778 0.0000  plane waves:   42845
 k-point ** :   0.2917 0.2778 0.0000  plane waves:   42836
 k-point ** :   0.3333 0.2778 0.0000  plane waves:   42814
 k-point ** :   0.3750 0.2778 0.0000  plane waves:   42812
 k-point ** :   0.4167 0.2778 0.0000  plane waves:   42834
 k-point ** :   0.4583 0.2778 0.0000  plane waves:   42845
 k-point ** :   0.5000 0.2778 0.0000  plane waves:   42838
 k-point ** :   0.0000 0.3056 0.0000  plane waves:   42890
 k-point ** :   0.0417 0.3056 0.0000  plane waves:   42880
 k-point ** :   0.0833 0.3056 0.0000  plane waves:   42893
 k-point ** :   0.1250 0.3056 0.0000  plane waves:   42876
 k-point ** :   0.1667 0.3056 0.0000  plane waves:   42876
 k-point ** :   0.2083 0.3056 0.0000  plane waves:   42888
 k-point ** :   0.2500 0.3056 0.0000  plane waves:   42836
 k-point ** :   0.2917 0.3056 0.0000  plane waves:   42854
 k-point ** :   0.3333 0.3056 0.0000  plane waves:   42850
 k-point ** :   0.3750 0.3056 0.0000  plane waves:   42835
 k-point ** :   0.4167 0.3056 0.0000  plane waves:   42837
 k-point ** :   0.4583 0.3056 0.0000  plane waves:   42835
 k-point ** :   0.5000 0.3056 0.0000  plane waves:   42846
 k-point ** :   0.0000 0.3333 0.0000  plane waves:   42900
 k-point ** :   0.0417 0.3333 0.0000  plane waves:   42898
 k-point ** :   0.0833 0.3333 0.0000  plane waves:   42896
[...]
 k-point ** :   0.4583 0.4722 0.0000  plane waves:   42797
 k-point ** :   0.5000 0.4722 0.0000  plane waves:   42776
 k-point ** :   0.0000 0.5000 0.0000  plane waves:   42950
 k-point ** :   0.0417 0.5000 0.0000  plane waves:   42908
 k-point ** :   0.0833 0.5000 0.0000  plane waves:   42936
 k-point ** :   0.1250 0.5000 0.0000  plane waves:   42926
 k-point ** :   0.1667 0.5000 0.0000  plane waves:   42902
 k-point ** :   0.2083 0.5000 0.0000  plane waves:   42928
 k-point ** :   0.2500 0.5000 0.0000  plane waves:   42928
 k-point ** :   0.2917 0.5000 0.0000  plane waves:   42896
 k-point ** :   0.3333 0.5000 0.0000  plane waves:   42900
 k-point ** :   0.3750 0.5000 0.0000  plane waves:   42844
 k-point ** :   0.4167 0.5000 0.0000  plane waves:   42830
 k-point ** :   0.4583 0.5000 0.0000  plane waves:   42808
 k-point ** :   0.5000 0.5000 0.0000  plane waves:   42796

 maximum and minimum number of plane-waves per node :     21483    21273

 maximum number of plane-waves:     42950
 maximum index in each direction:
   IXMAX=   15   IYMAX=    8   IZMAX=   72
   IXMIN=  -16   IYMIN=   -9   IZMIN=  -72

 NGX is ok and might be reduce to  64
 NGY is ok and might be reduce to  36
 NGZ is ok and might be reduce to 290

 parallel 3D FFT for wavefunctions:
    minimum data exchange during FFTs selected (reduces bandwidth)
 parallel 3D FFT for charge:
    minimum data exchange during FFTs selected (reduces bandwidth)

 Broyden mixing: mesh for mixing (old mesh)
   NGX = 31   NGY = 17   NGZ =145
  (NGX  =128   NGY  = 72   NGZ  =588)
  gives a total of  76415 points

 initial charge density was supplied:
 charge density of overlapping atoms calculated
 number of electron      16.0000000 magnetization
 keeping initial charge density in first step

 Maximum index for augmentation-charges         4677 (set IRDMAX)

 First call to EWALD:  gamma=   0.298
 Maximum number of real-space cells 4x 6x 1
 Maximum number of reciprocal cells 2x 1x 8

 FEWALD executed in parallel

----------------------------------------- Iteration    1(   1)  ---------------------------------------

 eigenvalue-minimisations  :  5928
 total energy-change (2. order) : 0.1892896E+03  (-0.1055321E+04)
 number of electron      16.0000000 magnetization
 augmentation part       16.0000000 magnetization

 Free energy of the ion-electron system (eV)
  alpha Z        PSCENC =         6.18334092
  Ewald energy   TEWEN  =      2559.39263398
  -Hartree energ DENC   =     -2985.59425075
  -exchange      EXHF   =         0.00000000
  -V(xc)+E(xc)   XCENC  =        55.04227031
  PAW double counting   =       151.32577238     -155.92769107
  entropy T*S    EENTRO =        -0.00178783
  eigenvalues    EBANDS =       -29.75426063
  atomic energy  EATOM  =       588.62352690
  free energy    TOTEN  =       189.28955421 eV

  energy without entropy =      189.29134204  energy(sigma->0) =      189.29044813

[...]

 eigenvalue-minimisations  : 10352
 total energy-change (2. order) :-0.1983669E+03  (-0.1759983E+03)
 number of electron      16.0000000 magnetization
 augmentation part       16.0000000 magnetization

[...]

 Broyden mixing:
  rms(total) = 0.72835E+00    rms(broyden)= 0.72835E+00
  rms(prec ) = 0.79224E+00
  weight for this iteration     100.00

[...]

 eigenvalues of (default mixing * dielectric matrix)
  average eigenvalue GAMMA=   2.3186
  2.3186

[...]

 eigenvalue-minimisations  :  2101
 total energy-change (2. order) : 0.1706439E-09  (-0.1627804E-12)
 number of electron      16.0000000 magnetization
 augmentation part        0.3800441 magnetization

[...]

 eigenvalue-minimisations  :  2035
 total energy-change (2. order) :-0.1492708E-09  (-0.1431923E-12)
 number of electron      16.0000000 magnetization
 augmentation part        0.3800441 magnetization

 Broyden mixing:
  rms(total) = 0.15173E-07    rms(broyden)= 0.15173E-07
  rms(prec ) = 0.16239E-07
  weight for this iteration     100.00

 eigenvalues of (default mixing * dielectric matrix)
  average eigenvalue GAMMA=   2.0888
  9.9792  8.3712  5.2903  4.0382  3.4503  2.9971  2.9971  2.5679  2.5679  2.4391
  1.6580  1.6580  1.5994  0.3446  0.1057  0.2219  0.2219  1.2698  0.3578  1.0814
  1.0204  1.0204  0.9666  0.9666  0.9763  0.9763  0.9073  0.9073  0.8525  0.8525

[...]

----------------------------------------- Iteration    1(  34)  ---------------------------------------

 eigenvalue-minimisations  :  1983
 total energy-change (2. order) : 0.3103651E-10  ( 0.1508247E-13)
 number of electron      16.0000000 magnetization
 augmentation part        0.3800441 magnetization

 Free energy of the ion-electron system (eV)
  alpha Z        PSCENC =         6.18334092
  Ewald energy   TEWEN  =      2559.39263398
  -Hartree energ DENC   =     -3053.40615523
  -exchange      EXHF   =         0.00000000
  -V(xc)+E(xc)   XCENC  =        57.44746129
  PAW double counting   =       275.42852147     -280.56986717
  entropy T*S    EENTRO =        -0.00009147
  eigenvalues    EBANDS =      -190.02229710
  atomic energy  EATOM  =       588.62352690
  free energy    TOTEN  =       -36.92292641 eV

  energy without entropy =      -36.92283494  energy(sigma->0) =      -36.92288067

 average (electrostatic) potential at core
  the test charge radii are     0.6991
  (the norm of the test charge is              1.0000)
       1 -58.2138       2 -58.2138       3 -58.2138       4 -58.2138

 E-fermi :  -2.7678     XC(G=0):  -2.1489     alpha+bet : -1.9046

 k-point     1 :       0.0000    0.0000    0.0000
  band No.  band energies     occupation
      1     -22.2201      2.00000
      2     -17.0690      2.00000
      3     -15.9471      2.00000
      4     -10.3331      2.00000
      5      -9.0877      2.00000
      6      -5.8304      2.00000
      7      -5.7741      2.00000
      8      -5.1558      2.00000
      9      -1.0978      0.00000
     10       0.5278      0.00000
     11       1.3284      0.00000
     12       1.7133      0.00000

[...]

 k-point   247 :       0.5000    0.5000    0.0000
  band No.  band energies     occupation
      1     -16.9861      2.00000
      2     -16.9861      2.00000
      3     -15.9504      2.00000
      4     -15.9504      2.00000
      5      -9.1899      2.00000
      6      -9.1899      2.00000
      7      -5.0913      2.00000
      8      -5.0913      2.00000
      9      -1.0894      0.00000
     10      -1.0894      0.00000
     11       4.4660      0.00000
     12       4.4660      0.00000

 soft charge-density along one line, spin component           1
         0         1         2         3         4         5         6         7         8         9
 total charge-density along one line

------------------------ aborting loop because EDIFF is reached ----------------------------------------

  FORCE on cell =-STRESS in cart. coord.  units (eV):
  Direction    XX          YY          ZZ          XY          YZ          ZX
  Alpha Z     6.18334     6.18334     6.18334
  Ewald    3095.50443  3096.12821 -3632.24026     0.00000     0.00000     0.00000
  Hartree  3030.55015  3030.76644 -3007.91044     0.00000    -0.00000    -0.00000
  E(xc)     -58.26544   -58.27104   -60.60384     0.00000    -0.00000    -0.00000
  Local   -6298.72012 -6299.45569  6434.16969    -0.00000     0.00000    -0.00000
  n-local   -13.76257   -13.92662   -12.71178     0.05823     0.00000    -0.00000
  augment    -1.52917    -1.52978    -1.40609    -0.00000     0.00000    -0.00000
  Kinetic   238.97488   240.10353   274.51805    -4.56985    -0.00000     0.00000
  Fock        0.00000     0.00000     0.00000     0.00000     0.00000     0.00000
  Total      -1.06451    -0.00160    -0.00133     0.00000     0.00000     0.00000
  in kB      -8.08928    -0.01216    -0.01007     0.00000     0.00000     0.00000

 VOLUME and BASIS-vectors are now :
  energy-cutoff  :     2000.00
  volume of cell :      210.84
      direct lattice vectors                 reciprocal lattice vectors
     4.293982265  0.000000000  0.000000000     0.232884055  0.000000000  0.000000000
     0.000000000  2.465040962  0.000000000     0.000000000  0.405672772  0.000000000
     0.000000000  0.000000000 19.918851684     0.000000000  0.000000000  0.050203697

  length of vectors
     4.293982265  2.465040962 19.918851684     0.232884055  0.405672772  0.050203697

 FORCES acting on ions
    electron-ion (+dipol)            ewald-force                    non-local-force                 convergence-correction
   0.106E+01 0.660E-15 -.337E-09   -.106E+01 0.458E-14 -.312E-18   0.128E-02 -.347E-17 -.517E-25   0.586E-07 -.669E-15 0.195E-12
   -.106E+01 0.221E-12 -.596E-08   0.106E+01 -.136E-14 -.348E-35   -.128E-02 0.347E-17 0.000E+00   -.586E-07 -.173E-14 0.195E-12
   0.106E+01 -.155E-12 -.322E-09   -.106E+01 0.297E-14 0.312E-18   0.128E-02 -.347E-17 0.000E+00   0.586E-07 -.762E-15 0.195E-12
   -.106E+01 0.430E-15 -.596E-08   0.106E+01 -.297E-14 0.000E+00   -.128E-02 0.347E-17 -.103E-24   -.586E-07 -.167E-14 0.195E-12
   -.843E-06 0.674E-13 -.126E-07   -.244E-14 0.322E-14 0.000E+00   -.217E-18 0.000E+00 -.155E-24   -.403E-13 -.483E-14 0.780E-12

 POSITION                                       TOTAL-FORCE (eV/Angst)
      4.29347      0.00000      0.00000        -0.000001     -0.000000      0.000000
      0.71618      1.23252      0.00000         0.000001     -0.000000      0.000000
      2.14648      1.23252      0.00000        -0.000001      0.000000      0.000000
      2.86317      0.00000      0.00000         0.000001      0.000000      0.000000
    total drift:                               -0.000001      0.000000     -0.000000

  FREE ENERGIE OF THE ION-ELECTRON SYSTEM (eV)
  free  energy   TOTEN  =       -36.92292641 eV

  energy  without entropy=      -36.92283494  energy(sigma->0) =      -36.92288067

 Quasi-Newton relaxation of ions (Broydens 2nd method)
  g(Force)  = 0.125E-12   g(Stress)= 0.000E+00

 Reset! Starting new Quasi-Newton update for ions

 reached required accuracy - stopping structural energy minimisation