 vasp.5.3.5 31Mar14 (build Mar 02 2015 18:14:16) complex

 executed on             LinuxIFC date 2018.08.10  15:19:22

 INCAR:
 POTCAR:   PAW_PBE C 08Apr2002
 POTCAR:   PAW_PBE C 08Apr2002
   VRHFIN =C: s2p2

   TITEL  = PAW_PBE C 08Apr2002
   POMASS =   12.011; ZVAL   =    4.000    mass and valenz
   ENMAX  =  400.000; ENMIN  =  300.000 eV
   QCUT   =   -5.516; QGAM   =   11.032    optimization parameters

   Description
     l     E      TYP  RCUT    TYP  RCUT
     0   .000     23  1.200
     0   .000     23  1.200
     1   .000     23  1.500
     1  2.500     23  1.500
     2   .000      7  1.500

 PAW_PBE C 08Apr2002                    :

 POSCAR: MD-kMC export data
  positions in direct lattice
  velocities in cartesian coordinates
 exchange correlation table for  LEXCH =        8
   RHO(1)=    0.500       N(1)  =     2000
   RHO(2)=  100.500       N(2)  =     4000

 ion  position               nearest neighbor table
   1  0.000  0.000  0.000-   4 1.42   2 1.43   2 1.43
   2  0.167  0.500  0.000-   3 1.42   1 1.43   1 1.43
   3  0.500  0.500  0.000-   2 1.42   4 1.43   4 1.43
   4  0.667  0.000  0.000-   1 1.42   3 1.43   3 1.43

  LATTYP: Found a simple orthorhombic cell.
 ALAT       =     2.4796363780
 B/A-ratio  =     1.7217780502
 C/A-ratio  =     8.0317007779

  Lattice vectors:

 A1 = (   0.0000000000,  -2.4796363780,   0.0000000000)
 A2 = (  -4.2693834881,   0.0000000000,   0.0000000000)
 A3 = (   0.0000000000,   0.0000000000, -19.9156974261)

Analysis of symmetry for initial positions (statically):
 Subroutine PRICEL returns following result:

  LATTYP: Found a base centered orthorhombic cell.
 ALAT       =     2.4796363780
 B/A-ratio  =     1.7217780502
 C/A-ratio  =     8.0317007779

[...]

   2 primitive cells build up your supercell.

 Routine SETGRP: Setting up the symmetry group for a
 simple orthorhombic supercell.

 Subroutine GETGRP returns: Found  8 space group operations
 (whereof  4 operations were pure point group operations)
 out of a pool of  8 trial point group operations.

The static configuration has the point symmetry C_2v.
 The point group associated with its full space group is D_2h.

Analysis of symmetry for dynamics (positions and initial velocities):
 Subroutine PRICEL returns following result:

  LATTYP: Found a base centered orthorhombic cell.
 ALAT       =     2.4796363780
 B/A-ratio  =     1.7217780502
 C/A-ratio  =     8.0317007779

  Lattice vectors:

 A1 = (   2.1346917440,  -1.2398181890,   0.0000000000)
 A2 = (  -2.1346917440,  -1.2398181890,   0.0000000000)
 A3 = (   0.0000000000,   0.0000000000, -19.9156974261)

   2 primitive cells build up your supercell.

 Routine SETGRP: Setting up the symmetry group for a
 simple orthorhombic supercell.

 Subroutine GETGRP returns: Found  8 space group operations
 (whereof  4 operations were pure point group operations)
 out of a pool of  8 trial point group operations.

The dynamic configuration has the point symmetry C_2v.
 The point group associated with its full space group is D_2h.

 KPOINTS: Automatic mesh

Automatic generation of k-mesh.
Space group operators:
 irot       det(A)        alpha          n_x          n_y          n_z        tau_x        tau_y        tau_z
    1     1.000000     0.000000     1.000000     0.000000     0.000000     0.000000     0.000000     0.000000
    2    -1.000000   180.000000     0.000000     0.000000     1.000000     0.000000     0.000000     0.000000
    3     1.000000   180.000000     1.000000     0.000000     0.000000     0.000000     0.000000     0.000000
    4    -1.000000   180.000000     0.000000     1.000000     0.000000     0.000000     0.000000     0.000000
    5    -1.000000     0.000000     1.000000     0.000000     0.000000     0.166667    -0.500000     0.000000
    6     1.000000   180.000000     0.000000     0.000000     1.000000     0.166667    -0.500000     0.000000
    7    -1.000000   180.000000     1.000000     0.000000     0.000000     0.166667    -0.500000     0.000000
    8     1.000000   180.000000     0.000000     1.000000     0.000000     0.166667    -0.500000     0.000000

 Subroutine IBZKPT returns following result:

 Found    247 irreducible k-points:

 Following reciprocal coordinates:
            Coordinates               Weight
  0.000000  0.000000  0.000000      1.000000
  0.041667  0.000000  0.000000      2.000000
  0.083333  0.000000  0.000000      2.000000
  0.125000  0.000000  0.000000      2.000000
  0.166667  0.000000  0.000000      2.000000
  0.208333  0.000000  0.000000      2.000000
  0.250000  0.000000  0.000000      2.000000
  0.291667  0.000000  0.000000      2.000000
  0.333333  0.000000  0.000000      2.000000
  0.375000  0.000000  0.000000      2.000000
  0.416667  0.000000  0.000000      2.000000
  0.458333  0.000000  0.000000      2.000000
  0.500000  0.000000  0.000000      1.000000
  0.000000  0.027778  0.000000      2.000000
  0.041667  0.027778  0.000000      4.000000
  0.083333  0.027778  0.000000      4.000000
  0.125000  0.027778  0.000000      4.000000
  0.166667  0.027778  0.000000      4.000000
  0.208333  0.027778  0.000000      4.000000
  0.250000  0.027778  0.000000      4.000000
  0.291667  0.027778  0.000000      4.000000
  0.333333  0.027778  0.000000      4.000000
  0.375000  0.027778  0.000000      4.000000
  0.416667  0.027778  0.000000      4.000000
  0.458333  0.027778  0.000000      4.000000
  0.500000  0.027778  0.000000      2.000000
  0.000000  0.055556  0.000000      2.000000
  0.041667  0.055556  0.000000      4.000000
  0.083333  0.055556  0.000000      4.000000
  0.125000  0.055556  0.000000      4.000000
  0.166667  0.055556  0.000000      4.000000
  0.208333  0.055556  0.000000      4.000000
  0.250000  0.055556  0.000000      4.000000
  0.291667  0.055556  0.000000      4.000000
  0.333333  0.055556  0.000000      4.000000
  0.375000  0.055556  0.000000      4.000000
  0.416667  0.055556  0.000000      4.000000
  0.458333  0.055556  0.000000      4.000000
  0.500000  0.055556  0.000000      2.000000
  0.000000  0.083333  0.000000      2.000000
  0.041667  0.083333  0.000000      4.000000
  0.083333  0.083333  0.000000      4.000000
  0.125000  0.083333  0.000000      4.000000
  0.166667  0.083333  0.000000      4.000000
  0.208333  0.083333  0.000000      4.000000
  0.250000  0.083333  0.000000      4.000000
  0.291667  0.083333  0.000000      4.000000
  0.333333  0.083333  0.000000      4.000000
  0.375000  0.083333  0.000000      4.000000
  0.416667  0.083333  0.000000      4.000000
  0.458333  0.083333  0.000000      4.000000
  0.500000  0.083333  0.000000      2.000000
  0.000000  0.111111  0.000000      2.000000
  0.041667  0.111111  0.000000      4.000000
  0.083333  0.111111  0.000000      4.000000
  0.125000  0.111111  0.000000      4.000000
  0.166667  0.111111  0.000000      4.000000
  0.208333  0.111111  0.000000      4.000000
  0.250000  0.111111  0.000000      4.000000
  0.291667  0.111111  0.000000      4.000000
[...]
  0.458333  0.472222  0.000000      4.000000
  0.500000  0.472222  0.000000      2.000000
  0.000000  0.500000  0.000000      1.000000
  0.041667  0.500000  0.000000      2.000000
  0.083333  0.500000  0.000000      2.000000
  0.125000  0.500000  0.000000      2.000000
  0.166667  0.500000  0.000000      2.000000
  0.208333  0.500000  0.000000      2.000000
  0.250000  0.500000  0.000000      2.000000
  0.291667  0.500000  0.000000      2.000000
  0.333333  0.500000  0.000000      2.000000
  0.375000  0.500000  0.000000      2.000000
  0.416667  0.500000  0.000000      2.000000
  0.458333  0.500000  0.000000      2.000000
  0.500000  0.500000  0.000000      1.000000

 Following cartesian coordinates:
            Coordinates               Weight
  0.000000  0.000000  0.000000      1.000000
  0.009759  0.000000  0.000000      2.000000
  0.019519  0.000000  0.000000      2.000000
  0.029278  0.000000  0.000000      2.000000
  0.039038  0.000000  0.000000      2.000000
  0.048797  0.000000  0.000000      2.000000
  0.058556  0.000000  0.000000      2.000000
  0.068316  0.000000  0.000000      2.000000
  0.078075  0.000000  0.000000      2.000000
  0.087835  0.000000  0.000000      2.000000
  0.097594  0.000000  0.000000      2.000000
  0.107354  0.000000  0.000000      2.000000
  0.117113  0.000000  0.000000      1.000000
  0.000000  0.011202  0.000000      2.000000
  0.009759  0.011202  0.000000      4.000000
  0.019519  0.011202  0.000000      4.000000
  0.029278  0.011202  0.000000      4.000000
  0.039038  0.011202  0.000000      4.000000
  0.048797  0.011202  0.000000      4.000000
  0.058556  0.011202  0.000000      4.000000
  0.068316  0.011202  0.000000      4.000000
  0.078075  0.011202  0.000000      4.000000
  0.087835  0.011202  0.000000      4.000000
  0.097594  0.011202  0.000000      4.000000
  0.107354  0.011202  0.000000      4.000000
  0.117113  0.011202  0.000000      2.000000
  0.000000  0.022405  0.000000      2.000000
  0.009759  0.022405  0.000000      4.000000
  0.019519  0.022405  0.000000      4.000000
  0.029278  0.022405  0.000000      4.000000
  0.039038  0.022405  0.000000      4.000000
  0.048797  0.022405  0.000000      4.000000
  0.058556  0.022405  0.000000      4.000000
  0.068316  0.022405  0.000000      4.000000
  0.078075  0.022405  0.000000      4.000000
  0.087835  0.022405  0.000000      4.000000
  0.097594  0.022405  0.000000      4.000000
  0.107354  0.022405  0.000000      4.000000
  0.117113  0.022405  0.000000      2.000000
  0.000000  0.033607  0.000000      2.000000
  0.009759  0.033607  0.000000      4.000000
  0.019519  0.033607  0.000000      4.000000
  0.029278  0.033607  0.000000      4.000000
  0.039038  0.033607  0.000000      4.000000
  0.048797  0.033607  0.000000      4.000000
  0.058556  0.033607  0.000000      4.000000
  0.068316  0.033607  0.000000      4.000000
  0.078075  0.033607  0.000000      4.000000
  0.087835  0.033607  0.000000      4.000000
  0.097594  0.033607  0.000000      4.000000
  0.107354  0.033607  0.000000      4.000000
  0.117113  0.033607  0.000000      2.000000
  0.000000  0.044809  0.000000      2.000000
  0.009759  0.044809  0.000000      4.000000
  0.019519  0.044809  0.000000      4.000000
  0.029278  0.044809  0.000000      4.000000
  0.039038  0.044809  0.000000      4.000000
  0.048797  0.044809  0.000000      4.000000
  0.058556  0.044809  0.000000      4.000000
  0.068316  0.044809  0.000000      4.000000
[...]
  0.107354  0.190440  0.000000      4.000000
  0.117113  0.190440  0.000000      2.000000
  0.000000  0.201642  0.000000      1.000000
  0.009759  0.201642  0.000000      2.000000
  0.019519  0.201642  0.000000      2.000000
  0.029278  0.201642  0.000000      2.000000
  0.039038  0.201642  0.000000      2.000000
  0.048797  0.201642  0.000000      2.000000
  0.058556  0.201642  0.000000      2.000000
  0.068316  0.201642  0.000000      2.000000
  0.078075  0.201642  0.000000      2.000000
  0.087835  0.201642  0.000000      2.000000
  0.097594  0.201642  0.000000      2.000000
  0.107354  0.201642  0.000000      2.000000
  0.117113  0.201642  0.000000      1.000000

 I would recommend the setting:
   dimension x,y,z NGX =    62 NGY =   36 NGZ =  290
[...]
 k-point ** :   0.5000 0.2500 0.0000  plane waves:   42806
 k-point ** :   0.0000 0.2778 0.0000  plane waves:   42932
 k-point ** :   0.0417 0.2778 0.0000  plane waves:   42906
 k-point ** :   0.0833 0.2778 0.0000  plane waves:   42878
 k-point ** :   0.1250 0.2778 0.0000  plane waves:   42870
 k-point ** :   0.1667 0.2778 0.0000  plane waves:   42881
 k-point ** :   0.2083 0.2778 0.0000  plane waves:   42875
 k-point ** :   0.2500 0.2778 0.0000  plane waves:   42840
 k-point ** :   0.2917 0.2778 0.0000  plane waves:   42816
 k-point ** :   0.3333 0.2778 0.0000  plane waves:   42826
 k-point ** :   0.3750 0.2778 0.0000  plane waves:   42823
 k-point ** :   0.4167 0.2778 0.0000  plane waves:   42801
 k-point ** :   0.4583 0.2778 0.0000  plane waves:   42794
 k-point ** :   0.5000 0.2778 0.0000  plane waves:   42790
 k-point ** :   0.0000 0.3056 0.0000  plane waves:   42904
 k-point ** :   0.0417 0.3056 0.0000  plane waves:   42946
 k-point ** :   0.0833 0.3056 0.0000  plane waves:   42913
 k-point ** :   0.1250 0.3056 0.0000  plane waves:   42884
 k-point ** :   0.1667 0.3056 0.0000  plane waves:   42867
 k-point ** :   0.2083 0.3056 0.0000  plane waves:   42873
 k-point ** :   0.2500 0.3056 0.0000  plane waves:   42858
 k-point ** :   0.2917 0.3056 0.0000  plane waves:   42823
 k-point ** :   0.3333 0.3056 0.0000  plane waves:   42814
 k-point ** :   0.3750 0.3056 0.0000  plane waves:   42816
 k-point ** :   0.4167 0.3056 0.0000  plane waves:   42814
 k-point ** :   0.4583 0.3056 0.0000  plane waves:   42815
 k-point ** :   0.5000 0.3056 0.0000  plane waves:   42804
 k-point ** :   0.0000 0.3333 0.0000  plane waves:   42930
 k-point ** :   0.0417 0.3333 0.0000  plane waves:   42928
 k-point ** :   0.0833 0.3333 0.0000  plane waves:   42906
[...]
 k-point ** :   0.4583 0.4722 0.0000  plane waves:   42789
 k-point ** :   0.5000 0.4722 0.0000  plane waves:   42810
 k-point ** :   0.0000 0.5000 0.0000  plane waves:   42918
 k-point ** :   0.0417 0.5000 0.0000  plane waves:   42912
 k-point ** :   0.0833 0.5000 0.0000  plane waves:   42932
 k-point ** :   0.1250 0.5000 0.0000  plane waves:   42912
 k-point ** :   0.1667 0.5000 0.0000  plane waves:   42940
 k-point ** :   0.2083 0.5000 0.0000  plane waves:   42954
 k-point ** :   0.2500 0.5000 0.0000  plane waves:   42922
 k-point ** :   0.2917 0.5000 0.0000  plane waves:   42902
 k-point ** :   0.3333 0.5000 0.0000  plane waves:   42854
 k-point ** :   0.3750 0.5000 0.0000  plane waves:   42816
 k-point ** :   0.4167 0.5000 0.0000  plane waves:   42816
 k-point ** :   0.4583 0.5000 0.0000  plane waves:   42754
 k-point ** :   0.5000 0.5000 0.0000  plane waves:   42764

 maximum and minimum number of plane-waves per node :     21508    21275

 maximum number of plane-waves:     42954
 maximum index in each direction:
   IXMAX=   15   IYMAX=    9   IZMAX=   72
   IXMIN=  -16   IYMIN=   -9   IZMIN=  -72

 NGX is ok and might be reduce to  64
 WARNING: aliasing errors must be expected set NGY to  38 to avoid them
 NGZ is ok and might be reduce to 290
 aliasing errors are usually negligible using standard VASP settings
 and one can safely disregard these warnings

 parallel 3D FFT for wavefunctions:
    minimum data exchange during FFTs selected (reduces bandwidth)
 parallel 3D FFT for charge:
    minimum data exchange during FFTs selected (reduces bandwidth)

 Broyden mixing: mesh for mixing (old mesh)
   NGX = 31   NGY = 19   NGZ =145
  (NGX  =128   NGY  = 72   NGZ  =588)
  gives a total of  85405 points

 initial charge density was supplied:
 charge density of overlapping atoms calculated
 number of electron      16.0000000 magnetization
 keeping initial charge density in first step

 Maximum index for augmentation-charges         4657 (set IRDMAX)

 First call to EWALD:  gamma=   0.298
 Maximum number of real-space cells 4x 6x 1
 Maximum number of reciprocal cells 2x 1x 8

 FEWALD executed in parallel

----------------------------------------- Iteration    1(   1)  ---------------------------------------

 eigenvalue-minimisations  :  5928
 total energy-change (2. order) : 0.1889887E+03  (-0.1061805E+04)
 number of electron      16.0000000 magnetization
 augmentation part       16.0000000 magnetization

 Free energy of the ion-electron system (eV)
  alpha Z        PSCENC =         6.18334092
  Ewald energy   TEWEN  =      2558.32718579
  -Hartree energ DENC   =     -2984.56072320
  -exchange      EXHF   =         0.00000000
  -V(xc)+E(xc)   XCENC  =        55.04011310
  PAW double counting   =       151.32577238     -155.92769107
  entropy T*S    EENTRO =        -0.00132391
  eigenvalues    EBANDS =       -30.02149087
  atomic energy  EATOM  =       588.62352690
  free energy    TOTEN  =       188.98871006 eV

  energy without entropy =      188.99003396  energy(sigma->0) =      188.98937201

[...]

 eigenvalue-minimisations  : 10396
 total energy-change (2. order) :-0.1980886E+03  (-0.1763675E+03)
 number of electron      16.0000000 magnetization
 augmentation part       16.0000000 magnetization

[...]

 Broyden mixing:
  rms(total) = 0.72895E+00    rms(broyden)= 0.72895E+00
  rms(prec ) = 0.79293E+00
  weight for this iteration     100.00

[...]

 eigenvalues of (default mixing * dielectric matrix)
  average eigenvalue GAMMA=   2.3115
  2.3115

[...]

WARNING in EDDRMM: call to ZHEGV failed, returncode =   6  3  2
WARNING in EDDRMM: call to ZHEGV failed, returncode =   6  3  1
WARNING in EDDRMM: call to ZHEGV failed, returncode =   6  3  1
WARNING in EDDRMM: call to ZHEGV failed, returncode =   6  3  1
WARNING in EDDRMM: call to ZHEGV failed, returncode =   6  3  1
WARNING in EDDRMM: call to ZHEGV failed, returncode =   6  3  1
WARNING in EDDRMM: call to ZHEGV failed, returncode =   6  3  1
WARNING in EDDRMM: call to ZHEGV failed, returncode =   6  3  1
WARNING in EDDRMM: call to ZHEGV failed, returncode =   6  3  1
WARNING in EDDRMM: call to ZHEGV failed, returncode =   6  3  1
WARNING in EDDRMM: call to ZHEGV failed, returncode =   6  3  1
WARNING in EDDRMM: call to ZHEGV failed, returncode =   6  3  1
WARNING in EDDRMM: call to ZHEGV failed, returncode =   6  3  1
WARNING in EDDRMM: call to ZHEGV failed, returncode =   6  3  1
WARNING in EDDRMM: call to ZHEGV failed, returncode =   6  3  1

[...]

 average (electrostatic) potential at core
  the test charge radii are     0.6991
  (the norm of the test charge is              1.0000)
       1 -58.2147       2 -58.2147       3 -58.2147       4 -58.2147

 E-fermi :  -2.7684     XC(G=0):  -2.1485     alpha+bet : -1.9046

 k-point     1 :       0.0000    0.0000    0.0000
  band No.  band energies     occupation
      1     -22.2188      2.00000
      2     -16.9559      2.00000
      3     -15.9504      2.00000
      4     -10.3320      2.00000
      5      -9.2270      2.00000
      6      -5.8318      2.00000
      7      -5.7740      2.00000
      8      -5.0683      2.00000
      9      -1.0868      0.00000
     10       0.5281      0.00000
     11       1.3289      0.00000
     12       1.7144      0.00000

[...]

 soft charge-density along one line, spin component           1
         0         1         2         3         4         5         6         7         8         9
 total charge-density along one line

------------------------ aborting loop because EDIFF is reached ----------------------------------------

  FORCE on cell =-STRESS in cart. coord.  units (eV):
  Direction    XX          YY          ZZ          XY          YZ          ZX
  Alpha Z     6.18334     6.18334     6.18334
  Ewald    3095.01910  3094.39782 -3631.08998    -0.00000     0.00000    -0.00000
  Hartree  3029.69967  3029.48449 -3006.84078    -0.00000    -0.00000    -0.00000
  E(xc)     -58.26841   -58.26240   -60.60087     0.00000    -0.00000    -0.00000
  Local   -6297.28423 -6296.55643  6431.95680     0.00000     0.00000    -0.00000
  n-local   -13.92594   -13.75500   -12.70958     0.06297     0.00000     0.00000
  augment    -1.52935    -1.52864    -1.40575     0.00000    -0.00000    -0.00000
  Kinetic   240.10535   238.92853   274.50547    -4.60999    -0.00000    -0.00000
  Fock        0.00000     0.00000     0.00000     0.00000     0.00000     0.00000
  Total      -0.00048    -1.10830    -0.00134     0.00000     0.00000     0.00000
  in kB      -0.00364    -8.42208    -0.01017     0.00000     0.00000     0.00000

 VOLUME and BASIS-vectors are now :
  energy-cutoff  :     2000.00
  volume of cell :      210.84
      direct lattice vectors                 reciprocal lattice vectors
     4.269383488  0.000000000  0.000000000     0.234225856  0.000000000  0.000000000
     0.000000000  2.479636378  0.000000000     0.000000000  0.403284937  0.000000000
     0.000000000  0.000000000 19.915697426     0.000000000  0.000000000  0.050211649

[...]

 FORCES acting on ions
    electron-ion (+dipol)            ewald-force                    non-local-force                 convergence-correction
   -.110E+01 0.641E-16 0.288E-09   0.110E+01 0.973E-14 0.636E-32   -.145E-02 -.694E-17 -.155E-24   -.157E-05 0.965E-15 0.963E-12
   0.110E+01 0.114E-13 -.456E-08   -.110E+01 -.473E-14 0.576E-19   0.145E-02 0.139E-16 0.155E-24   0.157E-05 -.121E-14 0.963E-12
   -.110E+01 0.591E-12 0.301E-09   0.110E+01 0.729E-14 -.636E-32   -.145E-02 -.694E-17 -.103E-24   -.157E-05 0.110E-14 0.963E-12
   0.110E+01 0.195E-16 -.457E-08   -.110E+01 -.717E-14 -.576E-19   0.145E-02 0.000E+00 0.103E-24   0.157E-05 -.133E-14 0.963E-12
   -.366E-06 0.603E-12 -.854E-08   0.400E-14 0.513E-14 0.120E-34   -.434E-18 0.000E+00 0.000E+00   0.902E-12 -.478E-15 0.385E-11

 POSITION                                       TOTAL-FORCE (eV/Angst)
      0.00056      0.00000      0.00000        -0.000576      0.000000     -0.000000
      0.71100      1.23982      0.00000         0.000576      0.000000      0.000000
      2.13525      1.23982      0.00000        -0.000576     -0.000000     -0.000000
      2.84569      0.00000      0.00000         0.000576      0.000000      0.000000
    total drift:                               -0.000000      0.000000     -0.000000

  FREE ENERGIE OF THE ION-ELECTRON SYSTEM (eV)
  free  energy   TOTEN  =       -36.92270181 eV

  energy  without entropy=      -36.92261295  energy(sigma->0) =      -36.92265738

 Quasi-Newton relaxation of ions (Broydens 2nd method)
  g(Force)  = 0.639E-07   g(Stress)= 0.000E+00

 Reset! Starting new Quasi-Newton update for ions

[...]

 d Force =-0.9646831E-07[-0.257E-06, 0.639E-07]  d Energy =-0.9448900E-07-0.198E-08
 d Force =-0.1227961E-03[-0.123E-03,-0.122E-03]  d Ewald  =-0.1227961E-03-0.173E-10

[...]

 retain information from N=  1 steps
 eigenvalues of (default step * inverse Hessian matrix)
  average eigenvalue of G=   0.1993
 eigenvalue spectrum of G is  0.1993

 FEWALD executed in parallel

[...]

 eigenvalue-minimisations  :  3745
 total energy-change (2. order) : 0.2872866E-09  (-0.3956454E-11)
 number of electron      16.0000000 magnetization
 augmentation part        0.3799723 magnetization

[...]

 Broyden mixing:
  rms(total) = 0.85972E-07    rms(broyden)= 0.85972E-07
  rms(prec ) = 0.90838E-07
  weight for this iteration     100.00

 eigenvalues of (default mixing * dielectric matrix)
  average eigenvalue GAMMA=   1.6796
  2.5620  2.5620  1.5120  1.5120  0.9650  0.9650

[...]

----------------------------------------- Iteration    3(   8)  ---------------------------------------

 eigenvalue-minimisations  :  2889
 total energy-change (2. order) :-0.9060841E-10  (-0.5614665E-12)
 number of electron      16.0000000 magnetization
 augmentation part        0.3799723 magnetization

 Free energy of the ion-electron system (eV)
  alpha Z        PSCENC =         6.18334092
  Ewald energy   TEWEN  =      2558.32721018
  -Hartree energ DENC   =     -3052.34341073
  -exchange      EXHF   =         0.00000000
  -V(xc)+E(xc)   XCENC  =        57.44453343
  PAW double counting   =       275.36434967     -280.50540386
  entropy T*S    EENTRO =        -0.00008871
  eigenvalues    EBANDS =      -190.01675962
  atomic energy  EATOM  =       588.62352690
  free energy    TOTEN  =       -36.92270182 eV

  energy without entropy =      -36.92261312  energy(sigma->0) =      -36.92265747

 average (electrostatic) potential at core
  the test charge radii are     0.6991
  (the norm of the test charge is              1.0000)
       1 -58.2147       2 -58.2147       3 -58.2147       4 -58.2147

 E-fermi :  -2.7684     XC(G=0):  -2.1491     alpha+bet : -1.9046

[...]

 k-point   247 :       0.5000    0.5000    0.0000
  band No.  band energies     occupation
      1     -17.0423      2.00000
      2     -17.0423      2.00000
      3     -15.9473      2.00000
      4     -15.9473      2.00000
      5      -9.1201      2.00000
      6      -9.1201      2.00000
      7      -5.1352      2.00000
      8      -5.1352      2.00000
      9      -1.0958      0.00000
     10      -1.0958      0.00000
     11       4.6056      0.00000
     12       4.6056      0.00000

 soft charge-density along one line, spin component           1
         0         1         2         3         4         5         6         7         8         9
 total charge-density along one line

------------------------ aborting loop because EDIFF is reached ----------------------------------------

  FORCE on cell =-STRESS in cart. coord.  units (eV):
  Direction    XX          YY          ZZ          XY          YZ          ZX
  Alpha Z     6.18334     6.18334     6.18334
  Ewald    3095.02394  3094.39300 -3631.08998     0.00000     0.00000     0.00000
  Hartree  3029.70035  3029.48385 -3006.84079    -0.00000    -0.00000    -0.00000
  E(xc)     -58.26839   -58.26242   -60.60087     0.00000    -0.00000    -0.00000
  Local   -6297.28883 -6296.55191  6431.95681    -0.00000     0.00000    -0.00000
  n-local   -13.92590   -13.75503   -12.70958     0.06296    -0.00000    -0.00000
  augment    -1.52936    -1.52864    -1.40575    -0.00000     0.00000     0.00000
  Kinetic   240.10461   238.92929   274.50549    -4.60997     0.00000     0.00000
  Fock        0.00000     0.00000     0.00000     0.00000     0.00000     0.00000
  Total      -0.00024    -1.10852    -0.00132     0.00000     0.00000     0.00000
  in kB      -0.00184    -8.42372    -0.01003     0.00000     0.00000     0.00000

 VOLUME and BASIS-vectors are now :
  energy-cutoff  :     2000.00
  volume of cell :      210.84
      direct lattice vectors                 reciprocal lattice vectors
     4.269383488  0.000000000  0.000000000     0.234225856  0.000000000  0.000000000
     0.000000000  2.479636378  0.000000000     0.000000000  0.403284937  0.000000000
     0.000000000  0.000000000 19.915697426     0.000000000  0.000000000  0.050211649

  length of vectors
     4.269383488  2.479636378 19.915697426     0.234225856  0.403284937  0.050211649

 FORCES acting on ions
    electron-ion (+dipol)            ewald-force                    non-local-force                 convergence-correction
   -.110E+01 0.116E-15 0.285E-09   0.110E+01 -.348E-14 0.932E-18   -.125E-02 0.000E+00 0.129E-25   -.418E-06 -.538E-15 0.162E-11
   0.110E+01 -.170E-14 -.458E-08   -.110E+01 0.319E-14 -.678E-20   0.125E-02 0.347E-17 -.646E-26   0.418E-06 0.509E-15 0.162E-11
   -.110E+01 -.203E-12 0.288E-09   0.110E+01 -.111E-14 -.508E-19   -.125E-02 0.000E+00 0.000E+00   -.418E-06 -.765E-15 0.163E-11
   0.110E+01 0.638E-15 -.456E-08   -.110E+01 0.653E-14 -.874E-18   0.125E-02 0.347E-17 0.000E+00   0.418E-06 0.721E-15 0.162E-11
   -.366E-06 -.204E-12 -.857E-08   0.400E-14 0.513E-14 0.000E+00   -.434E-18 0.694E-17 0.646E-26   -.210E-12 -.736E-16 0.650E-11

 POSITION                                       TOTAL-FORCE (eV/Angst)
      0.00056     -0.00000     -0.00000         0.000000      0.000000      0.000000
      0.71101      1.23982      0.00000        -0.000000     -0.000000      0.000000
      2.13525      1.23982     -0.00000         0.000000      0.000000      0.000000
      2.84570      0.00000      0.00000        -0.000000      0.000000      0.000000
    total drift:                               -0.000000     -0.000000     -0.000000

  FREE ENERGIE OF THE ION-ELECTRON SYSTEM (eV)
  free  energy   TOTEN  =       -36.92270182 eV

  energy  without entropy=      -36.92261312  energy(sigma->0) =      -36.92265747

 d Force = 0.1028514E-06[ 0.204E-10, 0.206E-06]  d Energy = 0.1019213E-06 0.930E-09
 d Force = 0.9840761E-04[ 0.981E-04, 0.988E-04]  d Ewald  = 0.9840760E-04 0.955E-11

 Quasi-Newton relaxation of ions (Broydens 2nd method)
  g(Force)  = 0.101E-13   g(Stress)= 0.000E+00

 retain information from N=  1 steps
 eigenvalues of (default step * inverse Hessian matrix)
  average eigenvalue of G=   0.1993
 eigenvalue spectrum of G is  0.1993

 reached required accuracy - stopping structural energy minimisation