 vasp.5.3.5 31Mar14 (build Mar 02 2015 18:14:16) complex

 executed on             LinuxIFC date 2018.08.09  20:03:22

 INCAR:
 POTCAR:   PAW_PBE C 08Apr2002
 POTCAR:   PAW_PBE C 08Apr2002
   VRHFIN =C: s2p2

   TITEL  = PAW_PBE C 08Apr2002
   POMASS =   12.011; ZVAL   =    4.000    mass and valenz
   ENMAX  =  400.000; ENMIN  =  300.000 eV
   QCUT   =   -5.516; QGAM   =   11.032    optimization parameters

   Description
     l     E      TYP  RCUT    TYP  RCUT
     0   .000     23  1.200
     0   .000     23  1.200
     1   .000     23  1.500
     1  2.500     23  1.500
     2   .000      7  1.500

 PAW_PBE C 08Apr2002                    :

 POSCAR: MD-kMC export data
  positions in direct lattice
  velocities in cartesian coordinates
 exchange correlation table for  LEXCH =        8
   RHO(1)=    0.500       N(1)  =     2000
   RHO(2)=  100.500       N(2)  =     4000

 ion  position               nearest neighbor table
   1  0.000  0.000  0.000-   4 1.42   2 1.44   2 1.44
   2  0.166  0.500  0.000-   3 1.42   1 1.44   1 1.44
   3  0.500  0.500  0.000-   2 1.42   4 1.44   4 1.44
   4  0.666  0.000  0.000-   1 1.42   3 1.44   3 1.44

  LATTYP: Found a simple orthorhombic cell.
 ALAT       =     2.5041872332
 B/A-ratio  =     1.7019869067
 C/A-ratio  =     7.8884572933

  Lattice vectors:

 A1 = (   0.0000000000,  -2.5041872332,   0.0000000000)
 A2 = (  -4.2620938830,   0.0000000000,   0.0000000000)
 A3 = (   0.0000000000,   0.0000000000, -19.7541740437)

Analysis of symmetry for initial positions (statically):
 Subroutine PRICEL returns following result:

  LATTYP: Found a base centered orthorhombic cell.
 ALAT       =     2.5041872332
 B/A-ratio  =     1.7019869067
 C/A-ratio  =     7.8884572933

[...]

   2 primitive cells build up your supercell.

 Routine SETGRP: Setting up the symmetry group for a
 simple orthorhombic supercell.

 Subroutine GETGRP returns: Found  8 space group operations
 (whereof  4 operations were pure point group operations)
 out of a pool of  8 trial point group operations.

The static configuration has the point symmetry C_2v.
 The point group associated with its full space group is D_2h.

Analysis of symmetry for dynamics (positions and initial velocities):
 Subroutine PRICEL returns following result:

  LATTYP: Found a base centered orthorhombic cell.
 ALAT       =     2.5041872332
 B/A-ratio  =     1.7019869067
 C/A-ratio  =     7.8884572933

  Lattice vectors:

 A1 = (   2.1310469415,  -1.2520936166,   0.0000000000)
 A2 = (  -2.1310469415,  -1.2520936166,   0.0000000000)
 A3 = (   0.0000000000,   0.0000000000, -19.7541740437)

   2 primitive cells build up your supercell.

 Routine SETGRP: Setting up the symmetry group for a
 simple orthorhombic supercell.

 Subroutine GETGRP returns: Found  8 space group operations
 (whereof  4 operations were pure point group operations)
 out of a pool of  8 trial point group operations.

The dynamic configuration has the point symmetry C_2v.
 The point group associated with its full space group is D_2h.

 KPOINTS: Automatic mesh

Automatic generation of k-mesh.
Space group operators:
 irot       det(A)        alpha          n_x          n_y          n_z        tau_x        tau_y        tau_z
    1     1.000000     0.000001     1.000000     0.000000     0.000000     0.000000     0.000000     0.000000
    2    -1.000000   179.999999     0.000000     0.000000     1.000000     0.000000     0.000000     0.000000
    3     1.000000   180.000000     1.000000     0.000000     0.000000     0.000000     0.000000     0.000000
    4    -1.000000   180.000000     0.000000     1.000000     0.000000     0.000000     0.000000     0.000000
    5    -1.000000     0.000001     1.000000     0.000000     0.000000     0.166667    -0.500000     0.000000
    6     1.000000   179.999999     0.000000     0.000000     1.000000     0.166667    -0.500000     0.000000
    7    -1.000000   180.000000     1.000000     0.000000     0.000000     0.166667    -0.500000     0.000000
    8     1.000000   180.000000     0.000000     1.000000     0.000000     0.166667    -0.500000     0.000000

 Subroutine IBZKPT returns following result:

 Found    247 irreducible k-points:

 Following reciprocal coordinates:
            Coordinates               Weight
  0.000000  0.000000  0.000000      1.000000
  0.041667  0.000000  0.000000      2.000000
  0.083333  0.000000  0.000000      2.000000
  0.125000  0.000000  0.000000      2.000000
  0.166667  0.000000  0.000000      2.000000
  0.208333  0.000000  0.000000      2.000000
  0.250000  0.000000  0.000000      2.000000
  0.291667  0.000000  0.000000      2.000000
  0.333333  0.000000  0.000000      2.000000
  0.375000  0.000000  0.000000      2.000000
  0.416667  0.000000  0.000000      2.000000
  0.458333  0.000000  0.000000      2.000000
  0.500000  0.000000  0.000000      1.000000
  0.000000  0.027778  0.000000      2.000000
  0.041667  0.027778  0.000000      4.000000
  0.083333  0.027778  0.000000      4.000000
  0.125000  0.027778  0.000000      4.000000
  0.166667  0.027778  0.000000      4.000000
  0.208333  0.027778  0.000000      4.000000
  0.250000  0.027778  0.000000      4.000000
  0.291667  0.027778  0.000000      4.000000
  0.333333  0.027778  0.000000      4.000000
  0.375000  0.027778  0.000000      4.000000
  0.416667  0.027778  0.000000      4.000000
  0.458333  0.027778  0.000000      4.000000
  0.500000  0.027778  0.000000      2.000000
  0.000000  0.055556  0.000000      2.000000
  0.041667  0.055556  0.000000      4.000000
  0.083333  0.055556  0.000000      4.000000
  0.125000  0.055556  0.000000      4.000000
  0.166667  0.055556  0.000000      4.000000
  0.208333  0.055556  0.000000      4.000000
  0.250000  0.055556  0.000000      4.000000
  0.291667  0.055556  0.000000      4.000000
  0.333333  0.055556  0.000000      4.000000
  0.375000  0.055556  0.000000      4.000000
  0.416667  0.055556  0.000000      4.000000
  0.458333  0.055556  0.000000      4.000000
  0.500000  0.055556  0.000000      2.000000
  0.000000  0.083333  0.000000      2.000000
  0.041667  0.083333  0.000000      4.000000
  0.083333  0.083333  0.000000      4.000000
  0.125000  0.083333  0.000000      4.000000
  0.166667  0.083333  0.000000      4.000000
  0.208333  0.083333  0.000000      4.000000
  0.250000  0.083333  0.000000      4.000000
  0.291667  0.083333  0.000000      4.000000
  0.333333  0.083333  0.000000      4.000000
  0.375000  0.083333  0.000000      4.000000
  0.416667  0.083333  0.000000      4.000000
  0.458333  0.083333  0.000000      4.000000
  0.500000  0.083333  0.000000      2.000000
  0.000000  0.111111  0.000000      2.000000
  0.041667  0.111111  0.000000      4.000000
  0.083333  0.111111  0.000000      4.000000
  0.125000  0.111111  0.000000      4.000000
  0.166667  0.111111  0.000000      4.000000
  0.208333  0.111111  0.000000      4.000000
  0.250000  0.111111  0.000000      4.000000
  0.291667  0.111111  0.000000      4.000000
[...]
  0.458333  0.472222  0.000000      4.000000
  0.500000  0.472222  0.000000      2.000000
  0.000000  0.500000  0.000000      1.000000
  0.041667  0.500000  0.000000      2.000000
  0.083333  0.500000  0.000000      2.000000
  0.125000  0.500000  0.000000      2.000000
  0.166667  0.500000  0.000000      2.000000
  0.208333  0.500000  0.000000      2.000000
  0.250000  0.500000  0.000000      2.000000
  0.291667  0.500000  0.000000      2.000000
  0.333333  0.500000  0.000000      2.000000
  0.375000  0.500000  0.000000      2.000000
  0.416667  0.500000  0.000000      2.000000
  0.458333  0.500000  0.000000      2.000000
  0.500000  0.500000  0.000000      1.000000

 Following cartesian coordinates:
            Coordinates               Weight
  0.000000  0.000000  0.000000      1.000000
  0.009776  0.000000  0.000000      2.000000
  0.019552  0.000000  0.000000      2.000000
  0.029328  0.000000  0.000000      2.000000
  0.039104  0.000000  0.000000      2.000000
  0.048881  0.000000  0.000000      2.000000
  0.058657  0.000000  0.000000      2.000000
  0.068433  0.000000  0.000000      2.000000
  0.078209  0.000000  0.000000      2.000000
  0.087985  0.000000  0.000000      2.000000
  0.097761  0.000000  0.000000      2.000000
  0.107537  0.000000  0.000000      2.000000
  0.117313  0.000000  0.000000      1.000000
  0.000000  0.011093  0.000000      2.000000
  0.009776  0.011093  0.000000      4.000000
  0.019552  0.011093  0.000000      4.000000
  0.029328  0.011093  0.000000      4.000000
  0.039104  0.011093  0.000000      4.000000
  0.048881  0.011093  0.000000      4.000000
  0.058657  0.011093  0.000000      4.000000
  0.068433  0.011093  0.000000      4.000000
  0.078209  0.011093  0.000000      4.000000
  0.087985  0.011093  0.000000      4.000000
  0.097761  0.011093  0.000000      4.000000
  0.107537  0.011093  0.000000      4.000000
  0.117313  0.011093  0.000000      2.000000
  0.000000  0.022185  0.000000      2.000000
  0.009776  0.022185  0.000000      4.000000
  0.019552  0.022185  0.000000      4.000000
  0.029328  0.022185  0.000000      4.000000
  0.039104  0.022185  0.000000      4.000000
  0.048881  0.022185  0.000000      4.000000
  0.058657  0.022185  0.000000      4.000000
  0.068433  0.022185  0.000000      4.000000
  0.078209  0.022185  0.000000      4.000000
  0.087985  0.022185  0.000000      4.000000
  0.097761  0.022185  0.000000      4.000000
  0.107537  0.022185  0.000000      4.000000
  0.117313  0.022185  0.000000      2.000000
  0.000000  0.033278  0.000000      2.000000
  0.009776  0.033278  0.000000      4.000000
  0.019552  0.033278  0.000000      4.000000
  0.029328  0.033278  0.000000      4.000000
  0.039104  0.033278  0.000000      4.000000
  0.048881  0.033278  0.000000      4.000000
  0.058657  0.033278  0.000000      4.000000
  0.068433  0.033278  0.000000      4.000000
  0.078209  0.033278  0.000000      4.000000
  0.087985  0.033278  0.000000      4.000000
  0.097761  0.033278  0.000000      4.000000
  0.107537  0.033278  0.000000      4.000000
  0.117313  0.033278  0.000000      2.000000
  0.000000  0.044370  0.000000      2.000000
  0.009776  0.044370  0.000000      4.000000
  0.019552  0.044370  0.000000      4.000000
  0.029328  0.044370  0.000000      4.000000
  0.039104  0.044370  0.000000      4.000000
  0.048881  0.044370  0.000000      4.000000
  0.058657  0.044370  0.000000      4.000000
  0.068433  0.044370  0.000000      4.000000
[...]
  0.107537  0.188573  0.000000      4.000000
  0.117313  0.188573  0.000000      2.000000
  0.000000  0.199666  0.000000      1.000000
  0.009776  0.199666  0.000000      2.000000
  0.019552  0.199666  0.000000      2.000000
  0.029328  0.199666  0.000000      2.000000
  0.039104  0.199666  0.000000      2.000000
  0.048881  0.199666  0.000000      2.000000
  0.058657  0.199666  0.000000      2.000000
  0.068433  0.199666  0.000000      2.000000
  0.078209  0.199666  0.000000      2.000000
  0.087985  0.199666  0.000000      2.000000
  0.097761  0.199666  0.000000      2.000000
  0.107537  0.199666  0.000000      2.000000
  0.117313  0.199666  0.000000      1.000000

 I would recommend the setting:
   dimension x,y,z NGX =    62 NGY =   37 NGZ =  288
[...]
 k-point ** :   0.2500 0.2778 0.0000  plane waves:   42846
 k-point ** :   0.2917 0.2778 0.0000  plane waves:   42805
 k-point ** :   0.3333 0.2778 0.0000  plane waves:   42790
 k-point ** :   0.3750 0.2778 0.0000  plane waves:   42772
 k-point ** :   0.4167 0.2778 0.0000  plane waves:   42775
 k-point ** :   0.4583 0.2778 0.0000  plane waves:   42760
 k-point ** :   0.5000 0.2778 0.0000  plane waves:   42742
 k-point ** :   0.0000 0.3056 0.0000  plane waves:   42892
 k-point ** :   0.0417 0.3056 0.0000  plane waves:   42897
 k-point ** :   0.0833 0.3056 0.0000  plane waves:   42911
 k-point ** :   0.1250 0.3056 0.0000  plane waves:   42895
 k-point ** :   0.1667 0.3056 0.0000  plane waves:   42873
 k-point ** :   0.2083 0.3056 0.0000  plane waves:   42843
 k-point ** :   0.2500 0.3056 0.0000  plane waves:   42836
 k-point ** :   0.2917 0.3056 0.0000  plane waves:   42817
 k-point ** :   0.3333 0.3056 0.0000  plane waves:   42780
 k-point ** :   0.3750 0.3056 0.0000  plane waves:   42780
 k-point ** :   0.4167 0.3056 0.0000  plane waves:   42785
 k-point ** :   0.4583 0.3056 0.0000  plane waves:   42758
 k-point ** :   0.5000 0.3056 0.0000  plane waves:   42750
 k-point ** :   0.0000 0.3333 0.0000  plane waves:   42904
 k-point ** :   0.0417 0.3333 0.0000  plane waves:   42887
 k-point ** :   0.0833 0.3333 0.0000  plane waves:   42901
[...]
 k-point ** :   0.4583 0.4722 0.0000  plane waves:   42837
 k-point ** :   0.5000 0.4722 0.0000  plane waves:   42818
 k-point ** :   0.0000 0.5000 0.0000  plane waves:   42854
 k-point ** :   0.0417 0.5000 0.0000  plane waves:   42838
 k-point ** :   0.0833 0.5000 0.0000  plane waves:   42868
 k-point ** :   0.1250 0.5000 0.0000  plane waves:   42878
 k-point ** :   0.1667 0.5000 0.0000  plane waves:   42908
 k-point ** :   0.2083 0.5000 0.0000  plane waves:   42876
 k-point ** :   0.2500 0.5000 0.0000  plane waves:   42896
 k-point ** :   0.2917 0.5000 0.0000  plane waves:   42888
 k-point ** :   0.3333 0.5000 0.0000  plane waves:   42896
 k-point ** :   0.3750 0.5000 0.0000  plane waves:   42874
 k-point ** :   0.4167 0.5000 0.0000  plane waves:   42860
 k-point ** :   0.4583 0.5000 0.0000  plane waves:   42884
 k-point ** :   0.5000 0.5000 0.0000  plane waves:   42784

 maximum and minimum number of plane-waves per node :     21494    21316

 maximum number of plane-waves:     42922
 maximum index in each direction:
   IXMAX=   15   IYMAX=    9   IZMAX=   72
   IXMIN=  -16   IYMIN=   -9   IZMIN=  -72

 NGX is ok and might be reduce to  64
 NGY is ok and might be reduce to  38
 WARNING: aliasing errors must be expected set NGZ to 290 to avoid them
 aliasing errors are usually negligible using standard VASP settings
 and one can safely disregard these warnings

 parallel 3D FFT for wavefunctions:
    minimum data exchange during FFTs selected (reduces bandwidth)
 parallel 3D FFT for charge:
    minimum data exchange during FFTs selected (reduces bandwidth)

 Broyden mixing: mesh for mixing (old mesh)
   NGX = 31   NGY = 19   NGZ =145
  (NGX  =128   NGY  = 80   NGZ  =576)
  gives a total of  85405 points

 initial charge density was supplied:
 charge density of overlapping atoms calculated
 number of electron      16.0000000 magnetization
 keeping initial charge density in first step

 Maximum index for augmentation-charges         5073 (set IRDMAX)

 First call to EWALD:  gamma=   0.298
 Maximum number of real-space cells 4x 6x 1
 Maximum number of reciprocal cells 2x 1x 8

 FEWALD executed in parallel

----------------------------------------- Iteration    1(   1)  ---------------------------------------

 eigenvalue-minimisations  :  5928
 total energy-change (2. order) : 0.1893328E+03  (-0.1060129E+04)
 number of electron      16.0000000 magnetization
 augmentation part       16.0000000 magnetization

 Free energy of the ion-electron system (eV)
  alpha Z        PSCENC =         6.18334092
  Ewald energy   TEWEN  =      2504.02367779
  -Hartree energ DENC   =     -2931.88353008
  -exchange      EXHF   =         0.00000000
  -V(xc)+E(xc)   XCENC  =        54.92953187
  PAW double counting   =       151.32577238     -155.92769107
  entropy T*S    EENTRO =        -0.00172221
  eigenvalues    EBANDS =       -27.94008836
  atomic energy  EATOM  =       588.62352690
  free energy    TOTEN  =       189.33281815 eV

  energy without entropy =      189.33454036  energy(sigma->0) =      189.33367926

[...]

 eigenvalue-minimisations  : 10444
 total energy-change (2. order) :-0.1985119E+03  (-0.1767332E+03)
 number of electron      16.0000000 magnetization
 augmentation part       16.0000000 magnetization

[...]

 Broyden mixing:
  rms(total) = 0.72013E+00    rms(broyden)= 0.72013E+00
  rms(prec ) = 0.78406E+00
  weight for this iteration     100.00

[...]

 eigenvalues of (default mixing * dielectric matrix)
  average eigenvalue GAMMA=   2.3129
  2.3129

[...]

WARNING in EDDRMM: call to ZHEGV failed, returncode =   6  3  1
WARNING in EDDRMM: call to ZHEGV failed, returncode =   6  3  1

[...]

 average (electrostatic) potential at core
  the test charge radii are     0.6991
  (the norm of the test charge is              1.0000)
       1 -58.2642       2 -58.2642       3 -58.2642       4 -58.2642

 E-fermi :  -2.7965     XC(G=0):  -2.1661     alpha+bet : -1.9046

 k-point     1 :       0.0000    0.0000    0.0000
  band No.  band energies     occupation
      1     -22.1504      2.00000
      2     -16.8304      2.00000
      3     -15.9065      2.00000
      4     -10.2792      2.00000
      5      -9.3549      2.00000
      6      -5.9164      2.00000
      7      -5.7543      2.00000
      8      -4.9868      2.00000
      9      -1.1121      0.00000
     10       0.5361      0.00000
     11       1.3348      0.00000
     12       1.7180      0.00000

[...]

 soft charge-density along one line, spin component           1
         0         1         2         3         4         5         6         7         8         9
 total charge-density along one line

------------------------ aborting loop because EDIFF is reached ----------------------------------------

  FORCE on cell =-STRESS in cart. coord.  units (eV):
  Direction    XX          YY          ZZ          XY          YZ          ZX
  Alpha Z     6.18334     6.18334     6.18334
  Ewald    3039.14130  3037.31212 -3572.42998    -0.00000     0.00000     0.00000
  Hartree  2975.54795  2974.93764 -2952.31091    -0.00000    -0.00000    -0.00000
  E(xc)     -58.12913   -58.11096   -60.44850     0.00000     0.00000    -0.00000
  Local   -6187.46861 -6185.36497  6319.12680    -0.00000     0.00000    -0.00000
  n-local   -13.87682   -13.38126   -12.59611     0.07590    -0.00000    -0.00000
  augment    -1.50516    -1.50316    -1.38882     0.00000     0.00000    -0.00000
  Kinetic   240.10609   236.66023   273.86282    -4.62724     0.00000     0.00000
  Fock        0.00000     0.00000     0.00000     0.00000     0.00000     0.00000
  Total      -0.00104    -3.26701    -0.00136     0.00000     0.00000     0.00000
  in kB      -0.00789   -24.82634    -0.01031     0.00000     0.00000     0.00000

 VOLUME and BASIS-vectors are now :
  energy-cutoff  :     2000.00
  volume of cell :      210.84
      direct lattice vectors                 reciprocal lattice vectors
     4.262093883  0.000000000  0.000000000     0.234626460  0.000000000  0.000000000
     0.000000000  2.504187233  0.000000000     0.000000000  0.399331163  0.000000000
     0.000000000  0.000000000 19.754174044     0.000000000  0.000000000  0.050622213

[...]

 FORCES acting on ions
    electron-ion (+dipol)            ewald-force                    non-local-force                 convergence-correction
   -.321E+01 -.765E-15 0.664E-09   0.321E+01 0.390E-14 0.296E-18   -.100E-03 0.104E-16 -.414E-24   0.942E-06 -.277E-14 -.853E-13
   0.321E+01 0.195E-12 -.327E-08   -.321E+01 -.230E-14 0.752E-35   0.100E-03 -.104E-16 0.000E+00   -.942E-06 -.206E-14 -.844E-13
   -.321E+01 -.151E-12 0.664E-09   0.321E+01 0.376E-14 -.296E-18   -.100E-03 -.104E-16 -.414E-24   0.942E-06 -.201E-14 -.854E-13
   0.321E+01 -.569E-15 -.324E-08   -.321E+01 -.244E-14 0.000E+00   0.100E-03 -.243E-16 -.323E-25   -.942E-06 -.282E-14 -.844E-13
   -.211E-06 0.432E-13 -.518E-08   -.178E-14 0.293E-14 0.000E+00   0.000E+00 -.347E-16 -.859E-24   0.389E-12 -.967E-14 -.340E-12

 POSITION                                       TOTAL-FORCE (eV/Angst)
      0.00168      0.00000      0.00000        -0.001161     -0.000000     -0.000000
      0.70867      1.25209      0.00000         0.001161      0.000000      0.000000
      2.13273      1.25209      0.00000        -0.001161      0.000000     -0.000000
      2.83972      0.00000      0.00000         0.001161     -0.000000      0.000000
    total drift:                               -0.000000      0.000000     -0.000000

  FREE ENERGIE OF THE ION-ELECTRON SYSTEM (eV)
  free  energy   TOTEN  =       -36.90112298 eV

  energy  without entropy=      -36.90111817  energy(sigma->0) =      -36.90112057

 Quasi-Newton relaxation of ions (Broydens 2nd method)
  g(Force)  = 0.260E-06   g(Stress)= 0.000E+00

 Reset! Starting new Quasi-Newton update for ions

[...]

WARNING in EDDRMM: call to ZHEGV failed, returncode =   6  3  1

[...]

 d Force =-0.3998269E-06[-0.106E-05, 0.260E-06]  d Energy =-0.3926245E-06-0.720E-08
 d Force =-0.7213726E-03[-0.724E-03,-0.719E-03]  d Ewald  =-0.7213724E-03-0.144E-09

[...]

 retain information from N=  1 steps
 eigenvalues of (default step * inverse Hessian matrix)
  average eigenvalue of G=   0.1972
 eigenvalue spectrum of G is  0.1972

[...]

 d Force = 0.4257211E-06[ 0.462E-09, 0.851E-06]  d Energy = 0.4202892E-06 0.543E-08
 d Force = 0.5794887E-03[ 0.578E-03, 0.581E-03]  d Ewald  = 0.5794886E-03 0.714E-10

[...]

 eigenvalue-minimisations  :  4628
 total energy-change (2. order) : 0.7642029E-09  ( 0.6123297E-09)
 number of electron      16.0000000 magnetization
 augmentation part        0.3762981 magnetization

[...]

 eigenvalue-minimisations  :  1388
 total energy-change (2. order) :-0.1892886E-09  ( 0.3886809E-13)
 number of electron      16.0000000 magnetization
 augmentation part        0.3762981 magnetization

[...]

 d Force = 0.7576436E-13[-0.993E-13, 0.251E-12]  d Energy =-0.1891749E-09 0.189E-09
 d Force = 0.3138971E-06[ 0.314E-06, 0.314E-06]  d Ewald  = 0.3138966E-06 0.455E-12

[...]

 FEWALD executed in parallel

[...]

 eigenvalue-minimisations  :  4656
 total energy-change (2. order) : 0.3722107E-09  ( 0.6134446E-09)
 number of electron      16.0000000 magnetization
 augmentation part        0.3762981 magnetization

[...]

 eigenvalue-minimisations  :   576
 total energy-change (2. order) : 0.4546337E-09  (-0.1225357E-14)
 number of electron      16.0000000 magnetization
 augmentation part        0.3762981 magnetization

[...]

 eigenvalue-minimisations  :   987
 total energy-change (2. order) :-0.2078195E-09  ( 0.8363680E-14)
 number of electron      16.0000000 magnetization
 augmentation part        0.3762981 magnetization

 Broyden mixing:
  rms(total) = 0.18204E-09    rms(broyden)= 0.18196E-09
  rms(prec ) = 0.19914E-09
  weight for this iteration     100.00

 eigenvalues of (default mixing * dielectric matrix)
  average eigenvalue GAMMA=   1.8564
  2.4928  2.3461  0.7304

[...]

----------------------------------------- Iteration    5(   5)  ---------------------------------------

 eigenvalue-minimisations  :   530
 total energy-change (2. order) :-0.7344170E-10  (-0.7829128E-14)
 number of electron      16.0000000 magnetization
 augmentation part        0.3762981 magnetization

 Free energy of the ion-electron system (eV)
  alpha Z        PSCENC =         6.18334092
  Ewald energy   TEWEN  =      2504.02381945
  -Hartree energ DENC   =     -2998.17481615
  -exchange      EXHF   =         0.00000000
  -V(xc)+E(xc)   XCENC  =        57.29436653
  PAW double counting   =       272.09637782     -277.22262526
  entropy T*S    EENTRO =        -0.00000476
  eigenvalues    EBANDS =      -189.72510846
  atomic energy  EATOM  =       588.62352690
  free energy    TOTEN  =       -36.90112300 eV

  energy without entropy =      -36.90111824  energy(sigma->0) =      -36.90112062

 average (electrostatic) potential at core
  the test charge radii are     0.6991
  (the norm of the test charge is              1.0000)
       1 -58.2642       2 -58.2642       3 -58.2642       4 -58.2642

 E-fermi :  -2.7965     XC(G=0):  -2.1630     alpha+bet : -1.9046

[...]

 k-point   247 :       0.5000    0.5000    0.0000
  band No.  band energies     occupation
      1     -17.0831      2.00000
      2     -17.0831      2.00000
      3     -15.8959      2.00000
      4     -15.8959      2.00000
      5      -9.0444      2.00000
      6      -9.0444      2.00000
      7      -5.1819      2.00000
      8      -5.1819      2.00000
      9      -1.1354      0.00000
     10      -1.1354      0.00000
     11       4.5995      0.00000
     12       4.5995      0.00000

 soft charge-density along one line, spin component           1
         0         1         2         3         4         5         6         7         8         9
 total charge-density along one line

------------------------ aborting loop because EDIFF is reached ----------------------------------------

  FORCE on cell =-STRESS in cart. coord.  units (eV):
  Direction    XX          YY          ZZ          XY          YZ          ZX
  Alpha Z     6.18334     6.18334     6.18334
  Ewald    3039.15089  3037.30268 -3572.42998     0.00000     0.00000     0.00000
  Hartree  2975.54930  2974.93642 -2952.31090     0.00000    -0.00000    -0.00000
  E(xc)     -58.12910   -58.11101   -60.44851    -0.00000     0.00000    -0.00000
  Local   -6187.47767 -6185.35609  6319.12677     0.00000     0.00000    -0.00000
  n-local   -13.87674   -13.38134   -12.59612     0.07589    -0.00000    -0.00000
  augment    -1.50518    -1.50315    -1.38882     0.00000     0.00000    -0.00000
  Kinetic   240.10470   236.66171   273.86288    -4.62719     0.00000     0.00000
  Fock        0.00000     0.00000     0.00000     0.00000     0.00000     0.00000
  Total      -0.00047    -3.26743    -0.00135     0.00000     0.00000     0.00000
  in kB      -0.00353   -24.82954    -0.01023     0.00000     0.00000     0.00000

 VOLUME and BASIS-vectors are now :
  energy-cutoff  :     2000.00
  volume of cell :      210.84
      direct lattice vectors                 reciprocal lattice vectors
     4.262093883  0.000000000  0.000000000     0.234626460  0.000000000  0.000000000
     0.000000000  2.504187233  0.000000000     0.000000000  0.399331163  0.000000000
     0.000000000  0.000000000 19.754174044     0.000000000  0.000000000  0.050622213

  length of vectors
     4.262093883  2.504187233 19.754174044     0.234626460  0.399331163  0.050622213

 FORCES acting on ions
    electron-ion (+dipol)            ewald-force                    non-local-force                 convergence-correction
   -.321E+01 -.217E-15 0.662E-09   0.321E+01 -.379E-14 0.107E-17   0.309E-03 0.000E+00 0.000E+00   0.571E-09 -.179E-14 0.197E-11
   0.321E+01 -.180E-12 -.328E-08   -.321E+01 0.143E-14 -.118E-17   -.309E-03 0.347E-17 0.000E+00   -.571E-09 0.953E-15 0.195E-11
   -.321E+01 -.155E-12 0.676E-09   0.321E+01 0.307E-16 0.558E-18   0.309E-03 0.000E+00 0.129E-25   0.571E-09 -.874E-15 0.196E-11
   0.321E+01 -.237E-15 -.332E-08   -.321E+01 0.525E-14 -.448E-18   -.309E-03 0.347E-17 -.162E-25   -.571E-09 0.357E-16 0.199E-11
   -.211E-06 -.335E-12 -.526E-08   -.178E-14 0.293E-14 0.963E-34   0.000E+00 0.694E-17 -.323E-26   0.158E-14 -.168E-14 0.787E-11

 POSITION                                       TOTAL-FORCE (eV/Angst)
      0.00167     -0.00000     -0.00000         0.000000     -0.000000      0.000000
      0.70868      1.25209      0.00000        -0.000000     -0.000000     -0.000000
      2.13271      1.25209     -0.00000         0.000000     -0.000000      0.000000
      2.83973     -0.00000      0.00000        -0.000000      0.000000     -0.000000
    total drift:                               -0.000000     -0.000000     -0.000000

  FREE ENERGIE OF THE ION-ELECTRON SYSTEM (eV)
  free  energy   TOTEN  =       -36.90112300 eV

  energy  without entropy=      -36.90111824  energy(sigma->0) =      -36.90112062

 d Force = 0.1119928E-13[-0.574E-14, 0.281E-13]  d Energy = 0.1132321E-09-0.113E-09
 d Force =-0.8900542E-07[-0.890E-07,-0.890E-07]  d Ewald  =-0.8900497E-07-0.455E-12

 Quasi-Newton relaxation of ions (Broydens 2nd method)
  g(Force)  = 0.830E-14   g(Stress)= 0.000E+00

 retain information from N=  1 steps
 eigenvalues of (default step * inverse Hessian matrix)
  average eigenvalue of G=   0.1174
 eigenvalue spectrum of G is  0.1174

 reached required accuracy - stopping structural energy minimisation