 vasp.5.3.5 31Mar14 (build Mar 02 2015 18:14:16) complex

 executed on             LinuxIFC date 2018.08.10  14:33:04

 INCAR:
 POTCAR:   PAW_PBE C 08Apr2002
 POTCAR:   PAW_PBE C 08Apr2002
   VRHFIN =C: s2p2

   TITEL  = PAW_PBE C 08Apr2002
   POMASS =   12.011; ZVAL   =    4.000    mass and valenz
   ENMAX  =  400.000; ENMIN  =  300.000 eV
   QCUT   =   -5.516; QGAM   =   11.032    optimization parameters

   Description
     l     E      TYP  RCUT    TYP  RCUT
     0   .000     23  1.200
     0   .000     23  1.200
     1   .000     23  1.500
     1  2.500     23  1.500
     2   .000      7  1.500

 PAW_PBE C 08Apr2002                    :

 POSCAR: MD-kMC export data
  positions in direct lattice
  velocities in cartesian coordinates
 exchange correlation table for  LEXCH =        8
   RHO(1)=    0.500       N(1)  =     2000
   RHO(2)=  100.500       N(2)  =     4000

 ion  position               nearest neighbor table
   1  0.999  0.000  0.000-   2 1.43   2 1.43   4 1.46
   2  0.167  0.500  0.000-   1 1.43   1 1.43   3 1.46
   3  0.499  0.500  0.000-   4 1.43   4 1.43   2 1.46
   4  0.667  0.000  0.000-   3 1.43   3 1.43   1 1.46

  LATTYP: Found a simple orthorhombic cell.
 ALAT       =     2.4554606210
 B/A-ratio  =     1.7924342394
 C/A-ratio  =     7.9452310778

  Lattice vectors:

 A1 = (   0.0000000000,  -2.4554606210,   0.0000000000)
 A2 = (  -4.4012516906,   0.0000000000,   0.0000000000)
 A3 = (   0.0000000000,   0.0000000000, -19.5092020361)

Analysis of symmetry for initial positions (statically):
 Subroutine PRICEL returns following result:

  LATTYP: Found a base centered orthorhombic cell.
 ALAT       =     2.4554606210
 B/A-ratio  =     1.7924342394
 C/A-ratio  =     7.9452310778

[...]

   2 primitive cells build up your supercell.

 Routine SETGRP: Setting up the symmetry group for a
 simple orthorhombic supercell.

 Subroutine GETGRP returns: Found  8 space group operations
 (whereof  4 operations were pure point group operations)
 out of a pool of  8 trial point group operations.

The static configuration has the point symmetry C_2v.
 The point group associated with its full space group is D_2h.

Analysis of symmetry for dynamics (positions and initial velocities):
 Subroutine PRICEL returns following result:

  LATTYP: Found a base centered orthorhombic cell.
 ALAT       =     2.4554606210
 B/A-ratio  =     1.7924342394
 C/A-ratio  =     7.9452310778

  Lattice vectors:

 A1 = (   2.2006258453,  -1.2277303105,   0.0000000000)
 A2 = (  -2.2006258453,  -1.2277303105,   0.0000000000)
 A3 = (   0.0000000000,   0.0000000000, -19.5092020361)

   2 primitive cells build up your supercell.

 Routine SETGRP: Setting up the symmetry group for a
 simple orthorhombic supercell.

 Subroutine GETGRP returns: Found  8 space group operations
 (whereof  4 operations were pure point group operations)
 out of a pool of  8 trial point group operations.

The dynamic configuration has the point symmetry C_2v.
 The point group associated with its full space group is D_2h.

 KPOINTS: Automatic mesh

Automatic generation of k-mesh.
Space group operators:
 irot       det(A)        alpha          n_x          n_y          n_z        tau_x        tau_y        tau_z
    1     1.000000     0.000001     1.000000     0.000000     0.000000     0.000000     0.000000     0.000000
    2    -1.000000   180.000000     0.000000     0.000000     1.000000     0.000000     0.000000     0.000000
    3     1.000000   180.000000     1.000000     0.000000     0.000000     0.000000     0.000000     0.000000
    4    -1.000000   180.000000     0.000000     1.000000     0.000000     0.000000     0.000000     0.000000
    5    -1.000000     0.000001     1.000000     0.000000     0.000000     0.166667    -0.500000     0.000000
    6     1.000000   180.000000     0.000000     0.000000     1.000000     0.166667    -0.500000     0.000000
    7    -1.000000   180.000000     1.000000     0.000000     0.000000     0.166667    -0.500000     0.000000
    8     1.000000   180.000000     0.000000     1.000000     0.000000     0.166667    -0.500000     0.000000

 Subroutine IBZKPT returns following result:

 Found    247 irreducible k-points:

 Following reciprocal coordinates:
            Coordinates               Weight
  0.000000  0.000000  0.000000      1.000000
  0.041667  0.000000  0.000000      2.000000
  0.083333  0.000000  0.000000      2.000000
  0.125000  0.000000  0.000000      2.000000
  0.166667  0.000000  0.000000      2.000000
  0.208333  0.000000  0.000000      2.000000
  0.250000  0.000000  0.000000      2.000000
  0.291667  0.000000  0.000000      2.000000
  0.333333  0.000000  0.000000      2.000000
  0.375000  0.000000  0.000000      2.000000
  0.416667  0.000000  0.000000      2.000000
  0.458333  0.000000  0.000000      2.000000
  0.500000  0.000000  0.000000      1.000000
  0.000000  0.027778  0.000000      2.000000
  0.041667  0.027778  0.000000      4.000000
  0.083333  0.027778  0.000000      4.000000
  0.125000  0.027778  0.000000      4.000000
  0.166667  0.027778  0.000000      4.000000
  0.208333  0.027778  0.000000      4.000000
  0.250000  0.027778  0.000000      4.000000
  0.291667  0.027778  0.000000      4.000000
  0.333333  0.027778  0.000000      4.000000
  0.375000  0.027778  0.000000      4.000000
  0.416667  0.027778  0.000000      4.000000
  0.458333  0.027778  0.000000      4.000000
  0.500000  0.027778  0.000000      2.000000
  0.000000  0.055556  0.000000      2.000000
  0.041667  0.055556  0.000000      4.000000
  0.083333  0.055556  0.000000      4.000000
  0.125000  0.055556  0.000000      4.000000
  0.166667  0.055556  0.000000      4.000000
  0.208333  0.055556  0.000000      4.000000
  0.250000  0.055556  0.000000      4.000000
  0.291667  0.055556  0.000000      4.000000
  0.333333  0.055556  0.000000      4.000000
  0.375000  0.055556  0.000000      4.000000
  0.416667  0.055556  0.000000      4.000000
  0.458333  0.055556  0.000000      4.000000
  0.500000  0.055556  0.000000      2.000000
  0.000000  0.083333  0.000000      2.000000
  0.041667  0.083333  0.000000      4.000000
  0.083333  0.083333  0.000000      4.000000
  0.125000  0.083333  0.000000      4.000000
  0.166667  0.083333  0.000000      4.000000
  0.208333  0.083333  0.000000      4.000000
  0.250000  0.083333  0.000000      4.000000
  0.291667  0.083333  0.000000      4.000000
  0.333333  0.083333  0.000000      4.000000
  0.375000  0.083333  0.000000      4.000000
  0.416667  0.083333  0.000000      4.000000
  0.458333  0.083333  0.000000      4.000000
  0.500000  0.083333  0.000000      2.000000
  0.000000  0.111111  0.000000      2.000000
  0.041667  0.111111  0.000000      4.000000
  0.083333  0.111111  0.000000      4.000000
  0.125000  0.111111  0.000000      4.000000
  0.166667  0.111111  0.000000      4.000000
  0.208333  0.111111  0.000000      4.000000
  0.250000  0.111111  0.000000      4.000000
  0.291667  0.111111  0.000000      4.000000
[...]
  0.458333  0.472222  0.000000      4.000000
  0.500000  0.472222  0.000000      2.000000
  0.000000  0.500000  0.000000      1.000000
  0.041667  0.500000  0.000000      2.000000
  0.083333  0.500000  0.000000      2.000000
  0.125000  0.500000  0.000000      2.000000
  0.166667  0.500000  0.000000      2.000000
  0.208333  0.500000  0.000000      2.000000
  0.250000  0.500000  0.000000      2.000000
  0.291667  0.500000  0.000000      2.000000
  0.333333  0.500000  0.000000      2.000000
  0.375000  0.500000  0.000000      2.000000
  0.416667  0.500000  0.000000      2.000000
  0.458333  0.500000  0.000000      2.000000
  0.500000  0.500000  0.000000      1.000000

 Following cartesian coordinates:
            Coordinates               Weight
  0.000000  0.000000  0.000000      1.000000
  0.009467  0.000000  0.000000      2.000000
  0.018934  0.000000  0.000000      2.000000
  0.028401  0.000000  0.000000      2.000000
  0.037868  0.000000  0.000000      2.000000
  0.047335  0.000000  0.000000      2.000000
  0.056802  0.000000  0.000000      2.000000
  0.066269  0.000000  0.000000      2.000000
  0.075736  0.000000  0.000000      2.000000
  0.085203  0.000000  0.000000      2.000000
  0.094670  0.000000  0.000000      2.000000
  0.104137  0.000000  0.000000      2.000000
  0.113604  0.000000  0.000000      1.000000
  0.000000  0.011313  0.000000      2.000000
  0.009467  0.011313  0.000000      4.000000
  0.018934  0.011313  0.000000      4.000000
  0.028401  0.011313  0.000000      4.000000
  0.037868  0.011313  0.000000      4.000000
  0.047335  0.011313  0.000000      4.000000
  0.056802  0.011313  0.000000      4.000000
  0.066269  0.011313  0.000000      4.000000
  0.075736  0.011313  0.000000      4.000000
  0.085203  0.011313  0.000000      4.000000
  0.094670  0.011313  0.000000      4.000000
  0.104137  0.011313  0.000000      4.000000
  0.113604  0.011313  0.000000      2.000000
  0.000000  0.022625  0.000000      2.000000
  0.009467  0.022625  0.000000      4.000000
  0.018934  0.022625  0.000000      4.000000
  0.028401  0.022625  0.000000      4.000000
  0.037868  0.022625  0.000000      4.000000
  0.047335  0.022625  0.000000      4.000000
  0.056802  0.022625  0.000000      4.000000
  0.066269  0.022625  0.000000      4.000000
  0.075736  0.022625  0.000000      4.000000
  0.085203  0.022625  0.000000      4.000000
  0.094670  0.022625  0.000000      4.000000
  0.104137  0.022625  0.000000      4.000000
  0.113604  0.022625  0.000000      2.000000
  0.000000  0.033938  0.000000      2.000000
  0.009467  0.033938  0.000000      4.000000
  0.018934  0.033938  0.000000      4.000000
  0.028401  0.033938  0.000000      4.000000
  0.037868  0.033938  0.000000      4.000000
  0.047335  0.033938  0.000000      4.000000
  0.056802  0.033938  0.000000      4.000000
  0.066269  0.033938  0.000000      4.000000
  0.075736  0.033938  0.000000      4.000000
  0.085203  0.033938  0.000000      4.000000
  0.094670  0.033938  0.000000      4.000000
  0.104137  0.033938  0.000000      4.000000
  0.113604  0.033938  0.000000      2.000000
  0.000000  0.045251  0.000000      2.000000
  0.009467  0.045251  0.000000      4.000000
  0.018934  0.045251  0.000000      4.000000
  0.028401  0.045251  0.000000      4.000000
  0.037868  0.045251  0.000000      4.000000
  0.047335  0.045251  0.000000      4.000000
  0.056802  0.045251  0.000000      4.000000
  0.066269  0.045251  0.000000      4.000000
[...]
  0.104137  0.192315  0.000000      4.000000
  0.113604  0.192315  0.000000      2.000000
  0.000000  0.203628  0.000000      1.000000
  0.009467  0.203628  0.000000      2.000000
  0.018934  0.203628  0.000000      2.000000
  0.028401  0.203628  0.000000      2.000000
  0.037868  0.203628  0.000000      2.000000
  0.047335  0.203628  0.000000      2.000000
  0.056802  0.203628  0.000000      2.000000
  0.066269  0.203628  0.000000      2.000000
  0.075736  0.203628  0.000000      2.000000
  0.085203  0.203628  0.000000      2.000000
  0.094670  0.203628  0.000000      2.000000
  0.104137  0.203628  0.000000      2.000000
  0.113604  0.203628  0.000000      1.000000

 I would recommend the setting:
   dimension x,y,z NGX =    64 NGY =   36 NGZ =  285
[...]
 k-point ** :   0.2917 0.2778 0.0000  plane waves:   42848
 k-point ** :   0.3333 0.2778 0.0000  plane waves:   42842
 k-point ** :   0.3750 0.2778 0.0000  plane waves:   42828
 k-point ** :   0.4167 0.2778 0.0000  plane waves:   42852
 k-point ** :   0.4583 0.2778 0.0000  plane waves:   42857
 k-point ** :   0.5000 0.2778 0.0000  plane waves:   42874
 k-point ** :   0.0000 0.3056 0.0000  plane waves:   42808
 k-point ** :   0.0417 0.3056 0.0000  plane waves:   42813
 k-point ** :   0.0833 0.3056 0.0000  plane waves:   42825
 k-point ** :   0.1250 0.3056 0.0000  plane waves:   42865
 k-point ** :   0.1667 0.3056 0.0000  plane waves:   42870
 k-point ** :   0.2083 0.3056 0.0000  plane waves:   42871
 k-point ** :   0.2500 0.3056 0.0000  plane waves:   42848
 k-point ** :   0.2917 0.3056 0.0000  plane waves:   42857
 k-point ** :   0.3333 0.3056 0.0000  plane waves:   42854
 k-point ** :   0.3750 0.3056 0.0000  plane waves:   42858
 k-point ** :   0.4167 0.3056 0.0000  plane waves:   42865
 k-point ** :   0.4583 0.3056 0.0000  plane waves:   42877
 k-point ** :   0.5000 0.3056 0.0000  plane waves:   42902
 k-point ** :   0.0000 0.3333 0.0000  plane waves:   42824
 k-point ** :   0.0417 0.3333 0.0000  plane waves:   42827
 k-point ** :   0.0833 0.3333 0.0000  plane waves:   42824
[...]
 k-point ** :   0.4583 0.4722 0.0000  plane waves:   42948
 k-point ** :   0.5000 0.4722 0.0000  plane waves:   42956
 k-point ** :   0.0000 0.5000 0.0000  plane waves:   42738
 k-point ** :   0.0417 0.5000 0.0000  plane waves:   42750
 k-point ** :   0.0833 0.5000 0.0000  plane waves:   42796
 k-point ** :   0.1250 0.5000 0.0000  plane waves:   42812
 k-point ** :   0.1667 0.5000 0.0000  plane waves:   42834
 k-point ** :   0.2083 0.5000 0.0000  plane waves:   42880
 k-point ** :   0.2500 0.5000 0.0000  plane waves:   42904
 k-point ** :   0.2917 0.5000 0.0000  plane waves:   42964
 k-point ** :   0.3333 0.5000 0.0000  plane waves:   42956
 k-point ** :   0.3750 0.5000 0.0000  plane waves:   42974
 k-point ** :   0.4167 0.5000 0.0000  plane waves:   42936
 k-point ** :   0.4583 0.5000 0.0000  plane waves:   42960
 k-point ** :   0.5000 0.5000 0.0000  plane waves:   43000

 maximum and minimum number of plane-waves per node :     21500    21314

 maximum number of plane-waves:     43000
 maximum index in each direction:
   IXMAX=   16   IYMAX=    8   IZMAX=   71
   IXMIN=  -16   IYMIN=   -9   IZMIN=  -71

 WARNING: aliasing errors must be expected set NGX to  66 to avoid them
 NGY is ok and might be reduce to  36
 NGZ is ok and might be reduce to 286
 aliasing errors are usually negligible using standard VASP settings
 and one can safely disregard these warnings

 parallel 3D FFT for wavefunctions:
    minimum data exchange during FFTs selected (reduces bandwidth)
 parallel 3D FFT for charge:
    minimum data exchange during FFTs selected (reduces bandwidth)

 Broyden mixing: mesh for mixing (old mesh)
   NGX = 33   NGY = 17   NGZ =143
  (NGX  =128   NGY  = 72   NGZ  =576)
  gives a total of  80223 points

 initial charge density was supplied:
 charge density of overlapping atoms calculated
 number of electron      16.0000000 magnetization
 keeping initial charge density in first step

 Maximum index for augmentation-charges         4575 (set IRDMAX)

 First call to EWALD:  gamma=   0.298
 Maximum number of real-space cells 4x 6x 1
 Maximum number of reciprocal cells 2x 1x 8

 FEWALD executed in parallel

----------------------------------------- Iteration    1(   1)  ---------------------------------------

 eigenvalue-minimisations  :  5928
 total energy-change (2. order) : 0.1862362E+03  (-0.1061350E+04)
 number of electron      16.0000000 magnetization
 augmentation part       16.0000000 magnetization

 Free energy of the ion-electron system (eV)
  alpha Z        PSCENC =         6.18334092
  Ewald energy   TEWEN  =      2422.62110259
  -Hartree energ DENC   =     -2852.91826878
  -exchange      EXHF   =         0.00000000
  -V(xc)+E(xc)   XCENC  =        54.76132946
  PAW double counting   =       151.32577238     -155.92769107
  entropy T*S    EENTRO =        -0.00153873
  eigenvalues    EBANDS =       -28.43141064
  atomic energy  EATOM  =       588.62352690
  free energy    TOTEN  =       186.23616304 eV

  energy without entropy =      186.23770178  energy(sigma->0) =      186.23693241

[...]

 eigenvalue-minimisations  : 10396
 total energy-change (2. order) :-0.1953329E+03  (-0.1727160E+03)
 number of electron      16.0000000 magnetization
 augmentation part       16.0000000 magnetization

[...]

 Broyden mixing:
  rms(total) = 0.70318E+00    rms(broyden)= 0.70318E+00
  rms(prec ) = 0.76665E+00
  weight for this iteration     100.00

[...]

 eigenvalues of (default mixing * dielectric matrix)
  average eigenvalue GAMMA=   2.3163
  2.3163

[...]

WARNING in EDDRMM: call to ZHEGV failed, returncode =   6  3  1
WARNING in EDDRMM: call to ZHEGV failed, returncode =   6  3  1
WARNING in EDDRMM: call to ZHEGV failed, returncode =   6  3  1

[...]

 average (electrostatic) potential at core
  the test charge radii are     0.6991
  (the norm of the test charge is              1.0000)
       1 -58.3399       2 -58.3399       3 -58.3399       4 -58.3399

 E-fermi :  -2.8376     XC(G=0):  -2.1870     alpha+bet : -1.9046

 k-point     1 :       0.0000    0.0000    0.0000
  band No.  band energies     occupation
      1     -22.0463      2.00000
      2     -17.3012      2.00000
      3     -15.8019      2.00000
      4     -10.1989      2.00000
      5      -8.7385      2.00000
      6      -6.0459      2.00000
      7      -5.7177      2.00000
      8      -5.3782      2.00000
      9      -1.2049      0.00000
     10       0.5489      0.00000
     11       1.3459      0.00000
     12       1.7365      0.00000

[...]

 soft charge-density along one line, spin component           1
         0         1         2         3         4         5         6         7         8         9
 total charge-density along one line

------------------------ aborting loop because EDIFF is reached ----------------------------------------

  FORCE on cell =-STRESS in cart. coord.  units (eV):
  Direction    XX          YY          ZZ          XY          YZ          ZX
  Alpha Z     6.18334     6.18334     6.18334
  Ewald    2951.35324  2955.64345 -3484.37577    -0.00000     0.00000    -0.00000
  Hartree  2893.02691  2894.47285 -2870.52824     0.00000    -0.00000    -0.00000
  E(xc)     -57.88254   -57.91511   -60.21678     0.00000    -0.00000    -0.00000
  Local   -6018.12988 -6023.20932  6149.83098    -0.00000    -0.00000     0.00000
  n-local   -12.82921   -13.78638   -12.42328     0.07039     0.00000     0.00000
  augment    -1.46589    -1.46851    -1.36317    -0.00000    -0.00000    -0.00000
  Kinetic   233.29958   240.07831   272.89157    -4.42633    -0.00000    -0.00000
  Fock        0.00000     0.00000     0.00000     0.00000     0.00000     0.00000
  Total      -6.44445    -0.00137    -0.00135     0.00000     0.00000     0.00000
  in kB     -48.97200    -0.01044    -0.01029     0.00000     0.00000     0.00000

 VOLUME and BASIS-vectors are now :
  energy-cutoff  :     2000.00
  volume of cell :      210.84
      direct lattice vectors                 reciprocal lattice vectors
     4.401251691  0.000000000  0.000000000     0.227208092  0.000000000  0.000000000
     0.000000000  2.455460621  0.000000000     0.000000000  0.407255564  0.000000000
     0.000000000  0.000000000 19.509202036     0.000000000  0.000000000  0.051257863

[...]

 FORCES acting on ions
    electron-ion (+dipol)            ewald-force                    non-local-force                 convergence-correction
   0.640E+01 0.936E-16 -.302E-08   -.639E+01 0.272E-14 0.296E-18   -.952E-02 0.000E+00 0.000E+00   -.296E-06 0.662E-15 -.776E-13
   -.640E+01 0.711E-14 -.120E-07   0.639E+01 -.378E-14 0.168E-17   0.952E-02 0.000E+00 0.103E-24   0.296E-06 -.761E-15 -.777E-13
   0.640E+01 -.211E-12 -.306E-08   -.639E+01 -.893E-16 -.290E-17   -.952E-02 0.000E+00 0.103E-24   -.296E-06 0.642E-15 -.775E-13
   -.640E+01 0.930E-17 -.120E-07   0.639E+01 -.659E-14 0.918E-18   0.952E-02 0.000E+00 0.000E+00   0.296E-06 -.719E-15 -.774E-13
   -.743E-06 -.204E-12 -.301E-07   0.533E-14 -.774E-14 -.193E-33   0.520E-17 0.000E+00 0.207E-24   0.673E-13 -.176E-15 -.310E-12

 POSITION                                       TOTAL-FORCE (eV/Angst)
      4.39857      0.00000      0.00000         0.000806      0.000000      0.000000
      0.73623      1.22773      0.00000        -0.000806     -0.000000      0.000000
      2.19794      1.22773      0.00000         0.000806     -0.000000      0.000000
      2.93685      0.00000      0.00000        -0.000806      0.000000      0.000000
    total drift:                               -0.000001     -0.000000     -0.000000

  FREE ENERGIE OF THE ION-ELECTRON SYSTEM (eV)
  free  energy   TOTEN  =       -36.82983235 eV

  energy  without entropy=      -36.82983235  energy(sigma->0) =      -36.82983235

 Quasi-Newton relaxation of ions (Broydens 2nd method)
  g(Force)  = 0.125E-06   g(Stress)= 0.000E+00

 Reset! Starting new Quasi-Newton update for ions

[...]

 d Force =-0.1617255E-06[-0.449E-06, 0.125E-06]  d Energy =-0.1510678E-06-0.107E-07
 d Force =-0.9940435E-03[-0.995E-03,-0.993E-03]  d Ewald  =-0.9940435E-03 0.437E-10

[...]

 retain information from N=  1 steps
 eigenvalues of (default step * inverse Hessian matrix)
  average eigenvalue of G=   0.2182
 eigenvalue spectrum of G is  0.2182

[...]

WARNING in EDDRMM: call to ZHEGV failed, returncode =   6  3  1

[...]

 d Force = 0.1756994E-06[ 0.619E-09, 0.351E-06]  d Energy = 0.1677629E-06 0.794E-08
 d Force = 0.7773047E-03[ 0.777E-03, 0.778E-03]  d Ewald  = 0.7773048E-03-0.205E-10

[...]

 eigenvalue-minimisations  :  4864
 total energy-change (2. order) : 0.5163656E-09  ( 0.5271622E-09)
 number of electron      16.0000000 magnetization
 augmentation part        0.3707351 magnetization

[...]

 eigenvalue-minimisations  :  2302
 total energy-change (2. order) :-0.5495622E-09  ( 0.1516318E-12)
 number of electron      16.0000000 magnetization
 augmentation part        0.3707351 magnetization

[...]

 d Force =-0.2503014E-12[-0.159E-11, 0.109E-11]  d Energy = 0.3433342E-10-0.346E-10
 d Force = 0.1372297E-05[ 0.137E-05, 0.137E-05]  d Ewald  = 0.1372296E-05 0.909E-12

[...]

 FEWALD executed in parallel

[...]

 eigenvalue-minimisations  :  4560
 total energy-change (2. order) : 0.5670699E-09  ( 0.5301874E-09)
 number of electron      16.0000000 magnetization
 augmentation part        0.3707351 magnetization

[...]

 eigenvalue-minimisations  :  1375
 total energy-change (2. order) :-0.5143193E-09  ( 0.2202354E-13)
 number of electron      16.0000000 magnetization
 augmentation part        0.3707351 magnetization

[...]

 eigenvalue-minimisations  :  1333
 total energy-change (2. order) :-0.6366463E-11  (-0.1052656E-13)
 number of electron      16.0000000 magnetization
 augmentation part        0.3707351 magnetization

 Broyden mixing:
  rms(total) = 0.10591E-08    rms(broyden)= 0.10591E-08
  rms(prec ) = 0.17256E-08
  weight for this iteration     100.00

 eigenvalues of (default mixing * dielectric matrix)
  average eigenvalue GAMMA=   2.2598
  0.8996  3.3288  2.5510

[...]

----------------------------------------- Iteration    5(   5)  ---------------------------------------

 eigenvalue-minimisations  :  1337
 total energy-change (2. order) : 0.1023182E-10  (-0.2894804E-14)
 number of electron      16.0000000 magnetization
 augmentation part        0.3707351 magnetization

 Free energy of the ion-electron system (eV)
  alpha Z        PSCENC =         6.18334092
  Ewald energy   TEWEN  =      2422.62131877
  -Hartree energ DENC   =     -2916.97172148
  -exchange      EXHF   =         0.00000000
  -V(xc)+E(xc)   XCENC  =        57.06592329
  PAW double counting   =       267.21437826     -272.31867410
  entropy T*S    EENTRO =        -0.00000000
  eigenvalues    EBANDS =      -189.24792495
  atomic energy  EATOM  =       588.62352690
  free energy    TOTEN  =       -36.82983237 eV

  energy without entropy =      -36.82983237  energy(sigma->0) =      -36.82983237

 average (electrostatic) potential at core
  the test charge radii are     0.6991
  (the norm of the test charge is              1.0000)
       1 -58.3399       2 -58.3399       3 -58.3399       4 -58.3399

 E-fermi :  -2.8373     XC(G=0):  -2.1843     alpha+bet : -1.9046

[...]

 k-point   247 :       0.5000    0.5000    0.0000
  band No.  band energies     occupation
      1     -16.8107      2.00000
      2     -16.8107      2.00000
      3     -15.8355      2.00000
      4     -15.8355      2.00000
      5      -9.3259      2.00000
      6      -9.3259      2.00000
      7      -4.9920      2.00000
      8      -4.9920      2.00000
      9      -1.1688      0.00000
     10      -1.1688      0.00000
     11       3.7600      0.00000
     12       3.7600      0.00000

 soft charge-density along one line, spin component           1
         0         1         2         3         4         5         6         7         8         9
 total charge-density along one line

------------------------ aborting loop because EDIFF is reached ----------------------------------------

  FORCE on cell =-STRESS in cart. coord.  units (eV):
  Direction    XX          YY          ZZ          XY          YZ          ZX
  Alpha Z     6.18334     6.18334     6.18334
  Ewald    2951.34607  2955.65083 -3484.37577     0.00000     0.00000    -0.00000
  Hartree  2893.02595  2894.47401 -2870.52824    -0.00000    -0.00000    -0.00000
  E(xc)     -57.88258   -57.91509   -60.21679    -0.00000    -0.00000    -0.00000
  Local   -6018.12300 -6023.21650  6149.83094    -0.00000    -0.00000     0.00000
  n-local   -12.82927   -13.78632   -12.42329     0.07039    -0.00000     0.00000
  augment    -1.46588    -1.46853    -1.36317     0.00000    -0.00000     0.00000
  Kinetic   233.30079   240.07723   272.89166    -4.42636     0.00000    -0.00000
  Fock        0.00000     0.00000     0.00000     0.00000     0.00000     0.00000
  Total      -6.44458    -0.00102    -0.00133     0.00000     0.00000     0.00000
  in kB     -48.97298    -0.00775    -0.01011     0.00000     0.00000     0.00000

 VOLUME and BASIS-vectors are now :
  energy-cutoff  :     2000.00
  volume of cell :      210.84
      direct lattice vectors                 reciprocal lattice vectors
     4.401251691  0.000000000  0.000000000     0.227208092  0.000000000  0.000000000
     0.000000000  2.455460621  0.000000000     0.000000000  0.407255564  0.000000000
     0.000000000  0.000000000 19.509202036     0.000000000  0.000000000  0.051257863

  length of vectors
     4.401251691  2.455460621 19.509202036     0.227208092  0.407255564  0.051257863

 FORCES acting on ions
    electron-ion (+dipol)            ewald-force                    non-local-force                 convergence-correction
   0.640E+01 0.841E-16 -.304E-08   -.639E+01 -.824E-14 0.203E-17   -.981E-02 -.104E-16 0.000E+00   0.159E-08 -.127E-14 0.459E-12
   -.640E+01 0.211E-12 -.120E-07   0.639E+01 0.316E-14 0.324E-18   0.981E-02 0.104E-16 0.000E+00   -.159E-08 0.119E-14 0.456E-12
   0.640E+01 -.207E-12 -.305E-08   -.639E+01 -.703E-14 -.324E-18   -.981E-02 0.104E-16 0.000E+00   0.159E-08 0.189E-14 0.472E-12
   -.640E+01 0.646E-15 -.120E-07   0.639E+01 0.437E-14 -.203E-17   0.981E-02 0.104E-16 0.000E+00   -.159E-08 -.225E-14 0.486E-12
   -.743E-06 0.446E-14 -.301E-07   0.533E-14 -.774E-14 0.000E+00   -.347E-17 0.208E-16 0.000E+00   -.886E-15 -.445E-15 0.187E-11

 POSITION                                       TOTAL-FORCE (eV/Angst)
      4.39857     -0.00000     -0.00000        -0.000000     -0.000000      0.000000
      0.73622      1.22773      0.00000         0.000000     -0.000000      0.000000
      2.19795      1.22773     -0.00000        -0.000000      0.000000      0.000000
      2.93685     -0.00000      0.00000         0.000000      0.000000      0.000000
    total drift:                               -0.000001     -0.000000     -0.000000

  FREE ENERGIE OF THE ION-ELECTRON SYSTEM (eV)
  free  energy   TOTEN  =       -36.82983237 eV

  energy  without entropy=      -36.82983237  energy(sigma->0) =      -36.82983237

 d Force = 0.4592709E-12[-0.268E-13, 0.945E-12]  d Energy =-0.7889867E-10 0.794E-10
 d Force =-0.8139845E-06[-0.814E-06,-0.814E-06]  d Ewald  =-0.8139841E-06-0.455E-12

 Quasi-Newton relaxation of ions (Broydens 2nd method)
  g(Force)  = 0.855E-14   g(Stress)= 0.000E+00

 retain information from N=  1 steps
 eigenvalues of (default step * inverse Hessian matrix)
  average eigenvalue of G=   0.0865
 eigenvalue spectrum of G is  0.0865

 reached required accuracy - stopping structural energy minimisation