 vasp.5.3.5 31Mar14 (build Mar 02 2015 18:14:16) complex

 executed on             LinuxIFC date 2018.08.09  14:52:36

 INCAR:
 POTCAR:   PAW_PBE C 08Apr2002
 POTCAR:   PAW_PBE C 08Apr2002
   VRHFIN =C: s2p2

   TITEL  = PAW_PBE C 08Apr2002
   POMASS =   12.011; ZVAL   =    4.000    mass and valenz
   ENMAX  =  400.000; ENMIN  =  300.000 eV
   QCUT   =   -5.516; QGAM   =   11.032    optimization parameters

   Description
     l     E      TYP  RCUT    TYP  RCUT
     0   .000     23  1.200
     0   .000     23  1.200
     1   .000     23  1.500
     1  2.500     23  1.500
     2   .000      7  1.500

 PAW_PBE C 08Apr2002                    :

 POSCAR: MD-kMC export data
  positions in direct lattice
  velocities in cartesian coordinates
 exchange correlation table for  LEXCH =        8
   RHO(1)=    0.500       N(1)  =     2000
   RHO(2)=  100.500       N(2)  =     4000

 ion  position               nearest neighbor table
   1  1.000  0.000  0.000-   2 1.43   2 1.43   4 1.44
   2  0.167  0.500  0.000-   1 1.43   1 1.43   3 1.44
   3  0.500  0.500  0.000-   4 1.43   4 1.43   2 1.44
   4  0.667  0.000  0.000-   3 1.43   3 1.43   1 1.44

  LATTYP: Found a simple orthorhombic cell.
 ALAT       =     2.4628770354
 B/A-ratio  =     1.7523319204
 C/A-ratio  =     8.0538609058

  Lattice vectors:

 A1 = (   0.0000000000,  -2.4628770354,   0.0000000000)
 A2 = (  -4.3157780451,   0.0000000000,   0.0000000000)
 A3 = (   0.0000000000,   0.0000000000, -19.8356690714)

Analysis of symmetry for initial positions (statically):
 Subroutine PRICEL returns following result:

  LATTYP: Found a base centered orthorhombic cell.
 ALAT       =     2.4628770354
 B/A-ratio  =     1.7523319204
 C/A-ratio  =     8.0538609058

[...]

   2 primitive cells build up your supercell.

 Routine SETGRP: Setting up the symmetry group for a
 simple orthorhombic supercell.

 Subroutine GETGRP returns: Found  8 space group operations
 (whereof  4 operations were pure point group operations)
 out of a pool of  8 trial point group operations.

The static configuration has the point symmetry C_2v.
 The point group associated with its full space group is D_2h.

Analysis of symmetry for dynamics (positions and initial velocities):
 Subroutine PRICEL returns following result:

  LATTYP: Found a base centered orthorhombic cell.
 ALAT       =     2.4628770354
 B/A-ratio  =     1.7523319204
 C/A-ratio  =     8.0538609058

  Lattice vectors:

 A1 = (   2.1578890225,  -1.2314385177,   0.0000000000)
 A2 = (  -2.1578890225,  -1.2314385177,   0.0000000000)
 A3 = (   0.0000000000,   0.0000000000, -19.8356690714)

   2 primitive cells build up your supercell.

 Routine SETGRP: Setting up the symmetry group for a
 simple orthorhombic supercell.

 Subroutine GETGRP returns: Found  8 space group operations
 (whereof  4 operations were pure point group operations)
 out of a pool of  8 trial point group operations.

The dynamic configuration has the point symmetry C_2v.
 The point group associated with its full space group is D_2h.

 KPOINTS: Automatic mesh

Automatic generation of k-mesh.
Space group operators:
 irot       det(A)        alpha          n_x          n_y          n_z        tau_x        tau_y        tau_z
    1     1.000000     0.000000     1.000000     0.000000     0.000000     0.000000     0.000000     0.000000
    2    -1.000000   180.000000     0.000000     0.000000     1.000000     0.000000     0.000000     0.000000
    3     1.000000   180.000000     1.000000     0.000000     0.000000     0.000000     0.000000     0.000000
    4    -1.000000   180.000000     0.000000     1.000000     0.000000     0.000000     0.000000     0.000000
    5    -1.000000     0.000000     1.000000     0.000000     0.000000     0.166667    -0.500000     0.000000
    6     1.000000   180.000000     0.000000     0.000000     1.000000     0.166667    -0.500000     0.000000
    7    -1.000000   180.000000     1.000000     0.000000     0.000000     0.166667    -0.500000     0.000000
    8     1.000000   180.000000     0.000000     1.000000     0.000000     0.166667    -0.500000     0.000000

 Subroutine IBZKPT returns following result:

 Found    247 irreducible k-points:

 Following reciprocal coordinates:
            Coordinates               Weight
  0.000000  0.000000  0.000000      1.000000
  0.041667  0.000000  0.000000      2.000000
  0.083333  0.000000  0.000000      2.000000
  0.125000  0.000000  0.000000      2.000000
  0.166667  0.000000  0.000000      2.000000
  0.208333  0.000000  0.000000      2.000000
  0.250000  0.000000  0.000000      2.000000
  0.291667  0.000000  0.000000      2.000000
  0.333333  0.000000  0.000000      2.000000
  0.375000  0.000000  0.000000      2.000000
  0.416667  0.000000  0.000000      2.000000
  0.458333  0.000000  0.000000      2.000000
  0.500000  0.000000  0.000000      1.000000
  0.000000  0.027778  0.000000      2.000000
  0.041667  0.027778  0.000000      4.000000
  0.083333  0.027778  0.000000      4.000000
  0.125000  0.027778  0.000000      4.000000
  0.166667  0.027778  0.000000      4.000000
  0.208333  0.027778  0.000000      4.000000
  0.250000  0.027778  0.000000      4.000000
  0.291667  0.027778  0.000000      4.000000
  0.333333  0.027778  0.000000      4.000000
  0.375000  0.027778  0.000000      4.000000
  0.416667  0.027778  0.000000      4.000000
  0.458333  0.027778  0.000000      4.000000
  0.500000  0.027778  0.000000      2.000000
  0.000000  0.055556  0.000000      2.000000
  0.041667  0.055556  0.000000      4.000000
  0.083333  0.055556  0.000000      4.000000
  0.125000  0.055556  0.000000      4.000000
  0.166667  0.055556  0.000000      4.000000
  0.208333  0.055556  0.000000      4.000000
  0.250000  0.055556  0.000000      4.000000
  0.291667  0.055556  0.000000      4.000000
  0.333333  0.055556  0.000000      4.000000
  0.375000  0.055556  0.000000      4.000000
  0.416667  0.055556  0.000000      4.000000
  0.458333  0.055556  0.000000      4.000000
  0.500000  0.055556  0.000000      2.000000
  0.000000  0.083333  0.000000      2.000000
  0.041667  0.083333  0.000000      4.000000
  0.083333  0.083333  0.000000      4.000000
  0.125000  0.083333  0.000000      4.000000
  0.166667  0.083333  0.000000      4.000000
  0.208333  0.083333  0.000000      4.000000
  0.250000  0.083333  0.000000      4.000000
  0.291667  0.083333  0.000000      4.000000
  0.333333  0.083333  0.000000      4.000000
  0.375000  0.083333  0.000000      4.000000
  0.416667  0.083333  0.000000      4.000000
  0.458333  0.083333  0.000000      4.000000
  0.500000  0.083333  0.000000      2.000000
  0.000000  0.111111  0.000000      2.000000
  0.041667  0.111111  0.000000      4.000000
  0.083333  0.111111  0.000000      4.000000
  0.125000  0.111111  0.000000      4.000000
  0.166667  0.111111  0.000000      4.000000
  0.208333  0.111111  0.000000      4.000000
  0.250000  0.111111  0.000000      4.000000
  0.291667  0.111111  0.000000      4.000000
[...]
  0.458333  0.472222  0.000000      4.000000
  0.500000  0.472222  0.000000      2.000000
  0.000000  0.500000  0.000000      1.000000
  0.041667  0.500000  0.000000      2.000000
  0.083333  0.500000  0.000000      2.000000
  0.125000  0.500000  0.000000      2.000000
  0.166667  0.500000  0.000000      2.000000
  0.208333  0.500000  0.000000      2.000000
  0.250000  0.500000  0.000000      2.000000
  0.291667  0.500000  0.000000      2.000000
  0.333333  0.500000  0.000000      2.000000
  0.375000  0.500000  0.000000      2.000000
  0.416667  0.500000  0.000000      2.000000
  0.458333  0.500000  0.000000      2.000000
  0.500000  0.500000  0.000000      1.000000

 Following cartesian coordinates:
            Coordinates               Weight
  0.000000  0.000000  0.000000      1.000000
  0.009654  0.000000  0.000000      2.000000
  0.019309  0.000000  0.000000      2.000000
  0.028963  0.000000  0.000000      2.000000
  0.038618  0.000000  0.000000      2.000000
  0.048272  0.000000  0.000000      2.000000
  0.057927  0.000000  0.000000      2.000000
  0.067581  0.000000  0.000000      2.000000
  0.077236  0.000000  0.000000      2.000000
  0.086890  0.000000  0.000000      2.000000
  0.096545  0.000000  0.000000      2.000000
  0.106199  0.000000  0.000000      2.000000
  0.115854  0.000000  0.000000      1.000000
  0.000000  0.011279  0.000000      2.000000
  0.009654  0.011279  0.000000      4.000000
  0.019309  0.011279  0.000000      4.000000
  0.028963  0.011279  0.000000      4.000000
  0.038618  0.011279  0.000000      4.000000
  0.048272  0.011279  0.000000      4.000000
  0.057927  0.011279  0.000000      4.000000
  0.067581  0.011279  0.000000      4.000000
  0.077236  0.011279  0.000000      4.000000
  0.086890  0.011279  0.000000      4.000000
  0.096545  0.011279  0.000000      4.000000
  0.106199  0.011279  0.000000      4.000000
  0.115854  0.011279  0.000000      2.000000
  0.000000  0.022557  0.000000      2.000000
  0.009654  0.022557  0.000000      4.000000
  0.019309  0.022557  0.000000      4.000000
  0.028963  0.022557  0.000000      4.000000
  0.038618  0.022557  0.000000      4.000000
  0.048272  0.022557  0.000000      4.000000
  0.057927  0.022557  0.000000      4.000000
  0.067581  0.022557  0.000000      4.000000
  0.077236  0.022557  0.000000      4.000000
  0.086890  0.022557  0.000000      4.000000
  0.096545  0.022557  0.000000      4.000000
  0.106199  0.022557  0.000000      4.000000
  0.115854  0.022557  0.000000      2.000000
  0.000000  0.033836  0.000000      2.000000
  0.009654  0.033836  0.000000      4.000000
  0.019309  0.033836  0.000000      4.000000
  0.028963  0.033836  0.000000      4.000000
  0.038618  0.033836  0.000000      4.000000
  0.048272  0.033836  0.000000      4.000000
  0.057927  0.033836  0.000000      4.000000
  0.067581  0.033836  0.000000      4.000000
  0.077236  0.033836  0.000000      4.000000
  0.086890  0.033836  0.000000      4.000000
  0.096545  0.033836  0.000000      4.000000
  0.106199  0.033836  0.000000      4.000000
  0.115854  0.033836  0.000000      2.000000
  0.000000  0.045114  0.000000      2.000000
  0.009654  0.045114  0.000000      4.000000
  0.019309  0.045114  0.000000      4.000000
  0.028963  0.045114  0.000000      4.000000
  0.038618  0.045114  0.000000      4.000000
  0.048272  0.045114  0.000000      4.000000
  0.057927  0.045114  0.000000      4.000000
  0.067581  0.045114  0.000000      4.000000
[...]
  0.106199  0.191736  0.000000      4.000000
  0.115854  0.191736  0.000000      2.000000
  0.000000  0.203015  0.000000      1.000000
  0.009654  0.203015  0.000000      2.000000
  0.019309  0.203015  0.000000      2.000000
  0.028963  0.203015  0.000000      2.000000
  0.038618  0.203015  0.000000      2.000000
  0.048272  0.203015  0.000000      2.000000
  0.057927  0.203015  0.000000      2.000000
  0.067581  0.203015  0.000000      2.000000
  0.077236  0.203015  0.000000      2.000000
  0.086890  0.203015  0.000000      2.000000
  0.096545  0.203015  0.000000      2.000000
  0.106199  0.203015  0.000000      2.000000
  0.115854  0.203015  0.000000      1.000000

 I would recommend the setting:
   dimension x,y,z NGX =    63 NGY =   36 NGZ =  289
[...]
 k-point ** :   0.2500 0.2500 0.0000  plane waves:   42817
 k-point ** :   0.2917 0.2500 0.0000  plane waves:   42827
 k-point ** :   0.3333 0.2500 0.0000  plane waves:   42827
 k-point ** :   0.3750 0.2500 0.0000  plane waves:   42822
 k-point ** :   0.4167 0.2500 0.0000  plane waves:   42838
 k-point ** :   0.4583 0.2500 0.0000  plane waves:   42814
 k-point ** :   0.5000 0.2500 0.0000  plane waves:   42836
 k-point ** :   0.0000 0.2778 0.0000  plane waves:   42858
 k-point ** :   0.0417 0.2778 0.0000  plane waves:   42866
 k-point ** :   0.0833 0.2778 0.0000  plane waves:   42846
 k-point ** :   0.1250 0.2778 0.0000  plane waves:   42861
 k-point ** :   0.1667 0.2778 0.0000  plane waves:   42837
 k-point ** :   0.2083 0.2778 0.0000  plane waves:   42819
 k-point ** :   0.2500 0.2778 0.0000  plane waves:   42833
 k-point ** :   0.2917 0.2778 0.0000  plane waves:   42823
 k-point ** :   0.3333 0.2778 0.0000  plane waves:   42837
 k-point ** :   0.3750 0.2778 0.0000  plane waves:   42848
 k-point ** :   0.4167 0.2778 0.0000  plane waves:   42849
 k-point ** :   0.4583 0.2778 0.0000  plane waves:   42842
 k-point ** :   0.5000 0.2778 0.0000  plane waves:   42852
 k-point ** :   0.0000 0.3056 0.0000  plane waves:   42884
 k-point ** :   0.0417 0.3056 0.0000  plane waves:   42862
 k-point ** :   0.0833 0.3056 0.0000  plane waves:   42885
 k-point ** :   0.1250 0.3056 0.0000  plane waves:   42870
 k-point ** :   0.1667 0.3056 0.0000  plane waves:   42837
 k-point ** :   0.2083 0.3056 0.0000  plane waves:   42844
 k-point ** :   0.2500 0.3056 0.0000  plane waves:   42843
 k-point ** :   0.2917 0.3056 0.0000  plane waves:   42842
 k-point ** :   0.3333 0.3056 0.0000  plane waves:   42864
 k-point ** :   0.3750 0.3056 0.0000  plane waves:   42856
 k-point ** :   0.4167 0.3056 0.0000  plane waves:   42855
 k-point ** :   0.4583 0.3056 0.0000  plane waves:   42843
 k-point ** :   0.5000 0.3056 0.0000  plane waves:   42860
 k-point ** :   0.0000 0.3333 0.0000  plane waves:   42900
 k-point ** :   0.0417 0.3333 0.0000  plane waves:   42879
 k-point ** :   0.0833 0.3333 0.0000  plane waves:   42903
[...]
 k-point ** :   0.4583 0.4722 0.0000  plane waves:   42849
 k-point ** :   0.5000 0.4722 0.0000  plane waves:   42862
 k-point ** :   0.0000 0.5000 0.0000  plane waves:   42910
 k-point ** :   0.0417 0.5000 0.0000  plane waves:   42902
 k-point ** :   0.0833 0.5000 0.0000  plane waves:   42880
 k-point ** :   0.1250 0.5000 0.0000  plane waves:   42870
 k-point ** :   0.1667 0.5000 0.0000  plane waves:   42912
 k-point ** :   0.2083 0.5000 0.0000  plane waves:   42900
 k-point ** :   0.2500 0.5000 0.0000  plane waves:   42872
 k-point ** :   0.2917 0.5000 0.0000  plane waves:   42874
 k-point ** :   0.3333 0.5000 0.0000  plane waves:   42902
 k-point ** :   0.3750 0.5000 0.0000  plane waves:   42912
 k-point ** :   0.4167 0.5000 0.0000  plane waves:   42910
 k-point ** :   0.4583 0.5000 0.0000  plane waves:   42884
 k-point ** :   0.5000 0.5000 0.0000  plane waves:   42848

 maximum and minimum number of plane-waves per node :     21537    21217

 maximum number of plane-waves:     42934
 maximum index in each direction:
   IXMAX=   15   IYMAX=    8   IZMAX=   72
   IXMIN=  -16   IYMIN=   -9   IZMIN=  -72

 NGX is ok and might be reduce to  64
 NGY is ok and might be reduce to  36
 NGZ is ok and might be reduce to 290

 parallel 3D FFT for wavefunctions:
    minimum data exchange during FFTs selected (reduces bandwidth)
 parallel 3D FFT for charge:
    minimum data exchange during FFTs selected (reduces bandwidth)

 Broyden mixing: mesh for mixing (old mesh)
   NGX = 31   NGY = 17   NGZ =145
  (NGX  =128   NGY  = 72   NGZ  =588)
  gives a total of  76415 points

 initial charge density was supplied:
 charge density of overlapping atoms calculated
 number of electron      16.0000000 magnetization
 keeping initial charge density in first step

 Maximum index for augmentation-charges         4667 (set IRDMAX)

 First call to EWALD:  gamma=   0.298
 Maximum number of real-space cells 4x 6x 1
 Maximum number of reciprocal cells 2x 1x 8

 FEWALD executed in parallel

----------------------------------------- Iteration    1(   1)  ---------------------------------------

 eigenvalue-minimisations  :  5928
 total energy-change (2. order) : 0.1883688E+03  (-0.1060931E+04)
 number of electron      16.0000000 magnetization
 augmentation part       16.0000000 magnetization

 Free energy of the ion-electron system (eV)
  alpha Z        PSCENC =         6.18334092
  Ewald energy   TEWEN  =      2531.36074175
  -Hartree energ DENC   =     -2958.40116940
  -exchange      EXHF   =         0.00000000
  -V(xc)+E(xc)   XCENC  =        54.98539036
  PAW double counting   =       151.32577238     -155.92769107
  entropy T*S    EENTRO =        -0.00217571
  eigenvalues    EBANDS =       -29.77897504
  atomic energy  EATOM  =       588.62352690
  free energy    TOTEN  =       188.36876111 eV

  energy without entropy =      188.37093682  energy(sigma->0) =      188.36984897

[...]

 eigenvalue-minimisations  : 10540
 total energy-change (2. order) :-0.1980910E+03  (-0.1767420E+03)
 number of electron      16.0000000 magnetization
 augmentation part       16.0000000 magnetization

[...]

 Broyden mixing:
  rms(total) = 0.72519E+00    rms(broyden)= 0.72519E+00
  rms(prec ) = 0.78914E+00
  weight for this iteration     100.00

[...]

 eigenvalues of (default mixing * dielectric matrix)
  average eigenvalue GAMMA=   2.3185
  2.3185

[...]

WARNING in EDDRMM: call to ZHEGV failed, returncode =   6  3  1
WARNING in EDDRMM: call to ZHEGV failed, returncode =   6  3  1

[...]

 average (electrostatic) potential at core
  the test charge radii are     0.6991
  (the norm of the test charge is              1.0000)
       1 -58.2392       2 -58.2392       3 -58.2392       4 -58.2392

 E-fermi :  -2.7824     XC(G=0):  -2.1592     alpha+bet : -1.9046

 k-point     1 :       0.0000    0.0000    0.0000
  band No.  band energies     occupation
      1     -22.1850      2.00000
      2     -17.1186      2.00000
      3     -15.9197      2.00000
      4     -10.3059      2.00000
      5      -9.0138      2.00000
      6      -5.8773      2.00000
      7      -5.7609      2.00000
      8      -5.2023      2.00000
      9      -1.1218      0.00000
     10       0.5319      0.00000
     11       1.3312      0.00000
     12       1.7138      0.00000

[...]

 soft charge-density along one line, spin component           1
         0         1         2         3         4         5         6         7         8         9
 total charge-density along one line

------------------------ aborting loop because EDIFF is reached ----------------------------------------

  FORCE on cell =-STRESS in cart. coord.  units (eV):
  Direction    XX          YY          ZZ          XY          YZ          ZX
  Alpha Z     6.18334     6.18334     6.18334
  Ewald    3066.04120  3067.28590 -3601.96659     0.00000     0.00000    -0.00000
  Hartree  3002.38300  3002.82410 -2979.76319    -0.00000    -0.00000    -0.00000
  E(xc)     -58.18766   -58.19933   -60.52547    -0.00000    -0.00000    -0.00000
  Local   -6241.31028 -6242.79066  6375.93429     0.00000    -0.00000    -0.00000
  n-local   -13.56929   -13.90249   -12.65351     0.06043     0.00000     0.00000
  augment    -1.51609    -1.51720    -1.39738    -0.00000     0.00000     0.00000
  Kinetic   237.79290   240.11478   274.18717    -4.53890    -0.00000    -0.00000
  Fock        0.00000     0.00000     0.00000     0.00000     0.00000     0.00000
  Total      -2.18289    -0.00157    -0.00134     0.00000     0.00000     0.00000
  in kB     -16.58796    -0.01192    -0.01017     0.00000     0.00000     0.00000

 VOLUME and BASIS-vectors are now :
  energy-cutoff  :     2000.00
  volume of cell :      210.84
      direct lattice vectors                 reciprocal lattice vectors
     4.315778045  0.000000000  0.000000000     0.231707931  0.000000000  0.000000000
     0.000000000  2.462877035  0.000000000     0.000000000  0.406029203  0.000000000
     0.000000000  0.000000000 19.835669071     0.000000000  0.000000000  0.050414231

[...]

 FORCES acting on ions
    electron-ion (+dipol)            ewald-force                    non-local-force                 convergence-correction
   0.216E+01 0.417E-16 -.709E-09   -.216E+01 0.469E-14 -.152E-19   0.219E-02 -.104E-16 0.388E-25   -.417E-06 -.665E-15 0.192E-12
   -.216E+01 -.180E-12 -.692E-08   0.216E+01 -.106E-13 0.695E-18   -.219E-02 0.104E-16 0.000E+00   0.417E-06 0.121E-14 0.191E-12
   0.216E+01 -.205E-12 -.743E-09   -.216E+01 0.679E-14 -.744E-18   0.219E-02 0.104E-16 0.000E+00   -.417E-06 -.757E-15 0.192E-12
   -.216E+01 0.292E-15 -.693E-08   0.216E+01 -.852E-14 0.644E-19   -.219E-02 -.104E-16 0.000E+00   0.417E-06 0.125E-14 0.191E-12
   -.113E-05 -.385E-12 -.153E-07   0.222E-14 -.766E-14 0.481E-34   0.867E-18 0.000E+00 0.388E-25   -.402E-12 0.104E-14 0.767E-12

 POSITION                                       TOTAL-FORCE (eV/Angst)
      4.31472      0.00000      0.00000         0.001546      0.000000      0.000000
      0.72036      1.23144      0.00000        -0.001546     -0.000000      0.000000
      2.15683      1.23144      0.00000         0.001546     -0.000000      0.000000
      2.87825      0.00000      0.00000        -0.001546      0.000000      0.000000
    total drift:                               -0.000001     -0.000000     -0.000000

  FREE ENERGIE OF THE ION-ELECTRON SYSTEM (eV)
  free  energy   TOTEN  =       -36.91470519 eV

  energy  without entropy=      -36.91467475  energy(sigma->0) =      -36.91468997

 Quasi-Newton relaxation of ions (Broydens 2nd method)
  g(Force)  = 0.461E-06   g(Stress)= 0.000E+00

 Reset! Starting new Quasi-Newton update for ions

[...]

 d Force =-0.6823087E-06[-0.183E-05, 0.461E-06]  d Energy =-0.6748119E-06-0.750E-08
 d Force =-0.6471407E-03[-0.651E-03,-0.643E-03]  d Ewald  =-0.6471410E-03 0.320E-09

[...]

 retain information from N=  1 steps
 eigenvalues of (default step * inverse Hessian matrix)
  average eigenvalue of G=   0.2016
 eigenvalue spectrum of G is  0.2016

[...]

 d Force = 0.7289545E-06[ 0.316E-09, 0.146E-05]  d Energy = 0.7232380E-06 0.572E-08
 d Force = 0.5172813E-03[ 0.515E-03, 0.520E-03]  d Ewald  = 0.5172814E-03-0.166E-09

[...]

 FEWALD executed in parallel

[...]

 eigenvalue-minimisations  :  4668
 total energy-change (2. order) : 0.8300276E-09  ( 0.5699496E-09)
 number of electron      16.0000000 magnetization
 augmentation part        0.3781536 magnetization

[...]

 eigenvalue-minimisations  :  1551
 total energy-change (2. order) :-0.8675443E-09  (-0.3412908E-13)
 number of electron      16.0000000 magnetization
 augmentation part        0.3781536 magnetization

[...]

 eigenvalue-minimisations  :  1542
 total energy-change (2. order) : 0.1275566E-09  ( 0.2028419E-13)
 number of electron      16.0000000 magnetization
 augmentation part        0.3781536 magnetization

[...]

 Broyden mixing:
  rms(total) = 0.18021E-08    rms(broyden)= 0.18021E-08
  rms(prec ) = 0.42874E-08
  weight for this iteration     100.00

 eigenvalues of (default mixing * dielectric matrix)
  average eigenvalue GAMMA=   1.7699
  2.6614  1.3241  1.3241

[...]

----------------------------------------- Iteration    4(   5)  ---------------------------------------

 eigenvalue-minimisations  :  1490
 total energy-change (2. order) : 0.5456968E-10  (-0.2531103E-13)
 number of electron      16.0000000 magnetization
 augmentation part        0.3781536 magnetization

 Free energy of the ion-electron system (eV)
  alpha Z        PSCENC =         6.18334092
  Ewald energy   TEWEN  =      2531.36087150
  -Hartree energ DENC   =     -3025.44401877
  -exchange      EXHF   =         0.00000000
  -V(xc)+E(xc)   XCENC  =        57.37023518
  PAW double counting   =       273.74203457     -278.87572621
  entropy T*S    EENTRO =        -0.00003014
  eigenvalues    EBANDS =      -189.87493919
  atomic energy  EATOM  =       588.62352690
  free energy    TOTEN  =       -36.91470523 eV

  energy without entropy =      -36.91467509  energy(sigma->0) =      -36.91469016

 average (electrostatic) potential at core
  the test charge radii are     0.6991
  (the norm of the test charge is              1.0000)
       1 -58.2392       2 -58.2392       3 -58.2392       4 -58.2392

 E-fermi :  -2.7824     XC(G=0):  -2.1560     alpha+bet : -1.9046

[...]

 k-point   247 :       0.5000    0.5000    0.0000
  band No.  band energies     occupation
      1     -16.9503      2.00000
      2     -16.9503      2.00000
      3     -15.9266      2.00000
      4     -15.9266      2.00000
      5      -9.2213      2.00000
      6      -9.2213      2.00000
      7      -5.0712      2.00000
      8      -5.0712      2.00000
      9      -1.1044      0.00000
     10      -1.1044      0.00000
     11       4.3186      0.00000
     12       4.3186      0.00000

 soft charge-density along one line, spin component           1
         0         1         2         3         4         5         6         7         8         9
 total charge-density along one line

------------------------ aborting loop because EDIFF is reached ----------------------------------------

  FORCE on cell =-STRESS in cart. coord.  units (eV):
  Direction    XX          YY          ZZ          XY          YZ          ZX
  Alpha Z     6.18334     6.18334     6.18334
  Ewald    3066.02817  3067.29905 -3601.96659     0.00000     0.00000    -0.00000
  Hartree  3002.38123  3002.82598 -2979.76319     0.00000    -0.00000    -0.00000
  E(xc)     -58.18772   -58.19929   -60.52548    -0.00000    -0.00000    -0.00000
  Local   -6241.29792 -6242.80319  6375.93426    -0.00000    -0.00000    -0.00000
  n-local   -13.56940   -13.90239   -12.65351     0.06045     0.00000     0.00000
  augment    -1.51607    -1.51722    -1.39738     0.00000    -0.00000     0.00000
  Kinetic   237.79496   240.11280   274.18722    -4.53897     0.00000     0.00000
  Fock        0.00000     0.00000     0.00000     0.00000     0.00000     0.00000
  Total      -2.18341    -0.00091    -0.00133     0.00000     0.00000     0.00000
  in kB     -16.59193    -0.00692    -0.01010     0.00000     0.00000     0.00000

 VOLUME and BASIS-vectors are now :
  energy-cutoff  :     2000.00
  volume of cell :      210.84
      direct lattice vectors                 reciprocal lattice vectors
     4.315778045  0.000000000  0.000000000     0.231707931  0.000000000  0.000000000
     0.000000000  2.462877035  0.000000000     0.000000000  0.406029203  0.000000000
     0.000000000  0.000000000 19.835669071     0.000000000  0.000000000  0.050414231

  length of vectors
     4.315778045  2.462877035 19.835669071     0.231707931  0.406029203  0.050414231

 FORCES acting on ions
    electron-ion (+dipol)            ewald-force                    non-local-force                 convergence-correction
   0.216E+01 0.690E-15 -.770E-09   -.216E+01 0.360E-14 -.102E-17   0.164E-02 -.104E-16 0.000E+00   -.162E-07 -.185E-14 -.160E-11
   -.216E+01 0.197E-12 -.690E-08   0.216E+01 -.785E-14 0.137E-17   -.164E-02 0.104E-16 -.162E-26   0.162E-07 0.217E-14 -.159E-11
   0.216E+01 -.259E-12 -.731E-09   -.216E+01 0.402E-14 -.105E-17   0.164E-02 -.347E-17 -.162E-26   -.162E-07 0.554E-16 -.156E-11
   -.216E+01 0.148E-15 -.689E-08   0.216E+01 -.743E-14 0.708E-18   -.164E-02 0.347E-17 0.000E+00   0.162E-07 0.755E-16 -.156E-11
   -.113E-05 -.614E-13 -.153E-07   0.222E-14 -.766E-14 0.000E+00   0.434E-18 0.000E+00 -.323E-26   0.353E-14 0.446E-15 -.630E-11

 POSITION                                       TOTAL-FORCE (eV/Angst)
      4.31473      0.00000     -0.00000         0.000001      0.000000     -0.000000
      0.72034      1.23144      0.00000        -0.000001     -0.000000      0.000000
      2.15684      1.23144     -0.00000         0.000001     -0.000000     -0.000000
      2.87823      0.00000      0.00000        -0.000001      0.000000      0.000000
    total drift:                               -0.000001     -0.000000     -0.000000

  FREE ENERGIE OF THE ION-ELECTRON SYSTEM (eV)
  free  energy   TOTEN  =       -36.91470523 eV

  energy  without entropy=      -36.91467509  energy(sigma->0) =      -36.91469016

 d Force = 0.2074305E-13[-0.269E-13, 0.684E-13]  d Energy =-0.2027036E-09 0.203E-09
 d Force = 0.1115475E-06[ 0.112E-06, 0.112E-06]  d Ewald  = 0.1115482E-06-0.909E-12

 Quasi-Newton relaxation of ions (Broydens 2nd method)
  g(Force)  = 0.526E-13   g(Stress)= 0.000E+00

 retain information from N=  1 steps
 eigenvalues of (default step * inverse Hessian matrix)
  average eigenvalue of G=   0.1447
 eigenvalue spectrum of G is  0.1447

 reached required accuracy - stopping structural energy minimisation