 vasp.5.3.5 31Mar14 (build Mar 02 2015 18:14:16) complex

 executed on             LinuxIFC date 2018.08.07  16:12:10

 INCAR:
 POTCAR:   PAW_PBE C 08Apr2002
 POTCAR:   PAW_PBE C 08Apr2002
   VRHFIN =C: s2p2

   TITEL  = PAW_PBE C 08Apr2002
   POMASS =   12.011; ZVAL   =    4.000    mass and valenz
   ENMAX  =  400.000; ENMIN  =  300.000 eV
   QCUT   =   -5.516; QGAM   =   11.032    optimization parameters

   Description
     l     E      TYP  RCUT    TYP  RCUT
     0   .000     23  1.200
     0   .000     23  1.200
     1   .000     23  1.500
     1  2.500     23  1.500
     2   .000      7  1.500

 PAW_PBE C 08Apr2002                    :

 POSCAR: MD-kMC export data
  positions in direct lattice
  velocities in cartesian coordinates
 exchange correlation table for  LEXCH =        8
   RHO(1)=    0.500       N(1)  =     2000
   RHO(2)=  100.500       N(2)  =     4000

 ion  position               nearest neighbor table
   1  1.000  0.000  0.000-   2 1.43   2 1.43   4 1.43
   2  0.167  0.500  0.000-   1 1.43   1 1.43   3 1.43
   3  0.500  0.500  0.000-   4 1.43   4 1.43   2 1.43
   4  0.667  0.000  0.000-   3 1.43   3 1.43   1 1.43

  LATTYP: Found a simple orthorhombic cell.
 ALAT       =     2.4649657517
 B/A-ratio  =     1.7422649037
 C/A-ratio  =     8.0798226435

  Lattice vectors:

 A1 = (   0.0000000000,  -2.4649657517,   0.0000000000)
 A2 = (  -4.2946233178,   0.0000000000,   0.0000000000)
 A3 = (   0.0000000000,   0.0000000000, -19.9164860958)

Analysis of symmetry for initial positions (statically):
 Subroutine PRICEL returns following result:

  LATTYP: Found a base centered orthorhombic cell.
 ALAT       =     2.4649657517
 B/A-ratio  =     1.7422649037
 C/A-ratio  =     8.0798226435

[...]

   2 primitive cells build up your supercell.

 Routine SETGRP: Setting up the symmetry group for a
 simple orthorhombic supercell.

 Subroutine GETGRP returns: Found  8 space group operations
 (whereof  4 operations were pure point group operations)
 out of a pool of  8 trial point group operations.

The static configuration has the point symmetry C_2v.
 The point group associated with its full space group is D_2h.

Analysis of symmetry for dynamics (positions and initial velocities):
 Subroutine PRICEL returns following result:

  LATTYP: Found a base centered orthorhombic cell.
 ALAT       =     2.4649657517
 B/A-ratio  =     1.7422649037
 C/A-ratio  =     8.0798226435

  Lattice vectors:

 A1 = (   2.1473116589,  -1.2324828758,   0.0000000000)
 A2 = (  -2.1473116589,  -1.2324828758,   0.0000000000)
 A3 = (   0.0000000000,   0.0000000000, -19.9164860958)

   2 primitive cells build up your supercell.

 Routine SETGRP: Setting up the symmetry group for a
 simple orthorhombic supercell.

 Subroutine GETGRP returns: Found  8 space group operations
 (whereof  4 operations were pure point group operations)
 out of a pool of  8 trial point group operations.

The dynamic configuration has the point symmetry C_2v.
 The point group associated with its full space group is D_2h.

 KPOINTS: Automatic mesh

Automatic generation of k-mesh.
Space group operators:
 irot       det(A)        alpha          n_x          n_y          n_z        tau_x        tau_y        tau_z
    1     1.000000     0.000000     1.000000     0.000000     0.000000     0.000000     0.000000     0.000000
    2    -1.000000   180.000000     0.000000     0.000000     1.000000     0.000000     0.000000     0.000000
    3     1.000000   180.000000     1.000000     0.000000     0.000000     0.000000     0.000000     0.000000
    4    -1.000000   180.000000     0.000000     1.000000     0.000000     0.000000     0.000000     0.000000
    5    -1.000000     0.000000     1.000000     0.000000     0.000000     0.166667    -0.500000     0.000000
    6     1.000000   180.000000     0.000000     0.000000     1.000000     0.166667    -0.500000     0.000000
    7    -1.000000   180.000000     1.000000     0.000000     0.000000     0.166667    -0.500000     0.000000
    8     1.000000   180.000000     0.000000     1.000000     0.000000     0.166667    -0.500000     0.000000

 Subroutine IBZKPT returns following result:

 Found    247 irreducible k-points:

 Following reciprocal coordinates:
            Coordinates               Weight
  0.000000  0.000000  0.000000      1.000000
  0.041667  0.000000  0.000000      2.000000
  0.083333  0.000000  0.000000      2.000000
  0.125000  0.000000  0.000000      2.000000
  0.166667  0.000000  0.000000      2.000000
  0.208333  0.000000  0.000000      2.000000
  0.250000  0.000000  0.000000      2.000000
  0.291667  0.000000  0.000000      2.000000
  0.333333  0.000000  0.000000      2.000000
  0.375000  0.000000  0.000000      2.000000
  0.416667  0.000000  0.000000      2.000000
  0.458333  0.000000  0.000000      2.000000
  0.500000  0.000000  0.000000      1.000000
  0.000000  0.027778  0.000000      2.000000
  0.041667  0.027778  0.000000      4.000000
  0.083333  0.027778  0.000000      4.000000
  0.125000  0.027778  0.000000      4.000000
  0.166667  0.027778  0.000000      4.000000
  0.208333  0.027778  0.000000      4.000000
  0.250000  0.027778  0.000000      4.000000
  0.291667  0.027778  0.000000      4.000000
  0.333333  0.027778  0.000000      4.000000
  0.375000  0.027778  0.000000      4.000000
  0.416667  0.027778  0.000000      4.000000
  0.458333  0.027778  0.000000      4.000000
  0.500000  0.027778  0.000000      2.000000
  0.000000  0.055556  0.000000      2.000000
  0.041667  0.055556  0.000000      4.000000
  0.083333  0.055556  0.000000      4.000000
  0.125000  0.055556  0.000000      4.000000
  0.166667  0.055556  0.000000      4.000000
  0.208333  0.055556  0.000000      4.000000
  0.250000  0.055556  0.000000      4.000000
  0.291667  0.055556  0.000000      4.000000
  0.333333  0.055556  0.000000      4.000000
  0.375000  0.055556  0.000000      4.000000
  0.416667  0.055556  0.000000      4.000000
  0.458333  0.055556  0.000000      4.000000
  0.500000  0.055556  0.000000      2.000000
  0.000000  0.083333  0.000000      2.000000
  0.041667  0.083333  0.000000      4.000000
  0.083333  0.083333  0.000000      4.000000
  0.125000  0.083333  0.000000      4.000000
  0.166667  0.083333  0.000000      4.000000
  0.208333  0.083333  0.000000      4.000000
  0.250000  0.083333  0.000000      4.000000
  0.291667  0.083333  0.000000      4.000000
  0.333333  0.083333  0.000000      4.000000
  0.375000  0.083333  0.000000      4.000000
  0.416667  0.083333  0.000000      4.000000
  0.458333  0.083333  0.000000      4.000000
  0.500000  0.083333  0.000000      2.000000
  0.000000  0.111111  0.000000      2.000000
  0.041667  0.111111  0.000000      4.000000
  0.083333  0.111111  0.000000      4.000000
  0.125000  0.111111  0.000000      4.000000
  0.166667  0.111111  0.000000      4.000000
  0.208333  0.111111  0.000000      4.000000
  0.250000  0.111111  0.000000      4.000000
  0.291667  0.111111  0.000000      4.000000
[...]
  0.458333  0.472222  0.000000      4.000000
  0.500000  0.472222  0.000000      2.000000
  0.000000  0.500000  0.000000      1.000000
  0.041667  0.500000  0.000000      2.000000
  0.083333  0.500000  0.000000      2.000000
  0.125000  0.500000  0.000000      2.000000
  0.166667  0.500000  0.000000      2.000000
  0.208333  0.500000  0.000000      2.000000
  0.250000  0.500000  0.000000      2.000000
  0.291667  0.500000  0.000000      2.000000
  0.333333  0.500000  0.000000      2.000000
  0.375000  0.500000  0.000000      2.000000
  0.416667  0.500000  0.000000      2.000000
  0.458333  0.500000  0.000000      2.000000
  0.500000  0.500000  0.000000      1.000000

 Following cartesian coordinates:
            Coordinates               Weight
  0.000000  0.000000  0.000000      1.000000
  0.009702  0.000000  0.000000      2.000000
  0.019404  0.000000  0.000000      2.000000
  0.029106  0.000000  0.000000      2.000000
  0.038808  0.000000  0.000000      2.000000
  0.048510  0.000000  0.000000      2.000000
  0.058212  0.000000  0.000000      2.000000
  0.067914  0.000000  0.000000      2.000000
  0.077616  0.000000  0.000000      2.000000
  0.087318  0.000000  0.000000      2.000000
  0.097021  0.000000  0.000000      2.000000
  0.106723  0.000000  0.000000      2.000000
  0.116425  0.000000  0.000000      1.000000
  0.000000  0.011269  0.000000      2.000000
  0.009702  0.011269  0.000000      4.000000
  0.019404  0.011269  0.000000      4.000000
  0.029106  0.011269  0.000000      4.000000
  0.038808  0.011269  0.000000      4.000000
  0.048510  0.011269  0.000000      4.000000
  0.058212  0.011269  0.000000      4.000000
  0.067914  0.011269  0.000000      4.000000
  0.077616  0.011269  0.000000      4.000000
  0.087318  0.011269  0.000000      4.000000
  0.097021  0.011269  0.000000      4.000000
  0.106723  0.011269  0.000000      4.000000
  0.116425  0.011269  0.000000      2.000000
  0.000000  0.022538  0.000000      2.000000
  0.009702  0.022538  0.000000      4.000000
  0.019404  0.022538  0.000000      4.000000
  0.029106  0.022538  0.000000      4.000000
  0.038808  0.022538  0.000000      4.000000
  0.048510  0.022538  0.000000      4.000000
  0.058212  0.022538  0.000000      4.000000
  0.067914  0.022538  0.000000      4.000000
  0.077616  0.022538  0.000000      4.000000
  0.087318  0.022538  0.000000      4.000000
  0.097021  0.022538  0.000000      4.000000
  0.106723  0.022538  0.000000      4.000000
  0.116425  0.022538  0.000000      2.000000
  0.000000  0.033807  0.000000      2.000000
  0.009702  0.033807  0.000000      4.000000
  0.019404  0.033807  0.000000      4.000000
  0.029106  0.033807  0.000000      4.000000
  0.038808  0.033807  0.000000      4.000000
  0.048510  0.033807  0.000000      4.000000
  0.058212  0.033807  0.000000      4.000000
  0.067914  0.033807  0.000000      4.000000
  0.077616  0.033807  0.000000      4.000000
  0.087318  0.033807  0.000000      4.000000
  0.097021  0.033807  0.000000      4.000000
  0.106723  0.033807  0.000000      4.000000
  0.116425  0.033807  0.000000      2.000000
  0.000000  0.045076  0.000000      2.000000
  0.009702  0.045076  0.000000      4.000000
  0.019404  0.045076  0.000000      4.000000
  0.029106  0.045076  0.000000      4.000000
  0.038808  0.045076  0.000000      4.000000
  0.048510  0.045076  0.000000      4.000000
  0.058212  0.045076  0.000000      4.000000
  0.067914  0.045076  0.000000      4.000000
[...]
  0.106723  0.191574  0.000000      4.000000
  0.116425  0.191574  0.000000      2.000000
  0.000000  0.202843  0.000000      1.000000
  0.009702  0.202843  0.000000      2.000000
  0.019404  0.202843  0.000000      2.000000
  0.029106  0.202843  0.000000      2.000000
  0.038808  0.202843  0.000000      2.000000
  0.048510  0.202843  0.000000      2.000000
  0.058212  0.202843  0.000000      2.000000
  0.067914  0.202843  0.000000      2.000000
  0.077616  0.202843  0.000000      2.000000
  0.087318  0.202843  0.000000      2.000000
  0.097021  0.202843  0.000000      2.000000
  0.106723  0.202843  0.000000      2.000000
  0.116425  0.202843  0.000000      1.000000

 I would recommend the setting:
   dimension x,y,z NGX =    63 NGY =   36 NGZ =  290
[...]
 k-point ** :   0.2083 0.2778 0.0000  plane waves:   42839
 k-point ** :   0.2500 0.2778 0.0000  plane waves:   42839
 k-point ** :   0.2917 0.2778 0.0000  plane waves:   42832
 k-point ** :   0.3333 0.2778 0.0000  plane waves:   42816
 k-point ** :   0.3750 0.2778 0.0000  plane waves:   42806
 k-point ** :   0.4167 0.2778 0.0000  plane waves:   42836
 k-point ** :   0.4583 0.2778 0.0000  plane waves:   42853
 k-point ** :   0.5000 0.2778 0.0000  plane waves:   42840
 k-point ** :   0.0000 0.3056 0.0000  plane waves:   42890
 k-point ** :   0.0417 0.3056 0.0000  plane waves:   42882
 k-point ** :   0.0833 0.3056 0.0000  plane waves:   42895
 k-point ** :   0.1250 0.3056 0.0000  plane waves:   42878
 k-point ** :   0.1667 0.3056 0.0000  plane waves:   42876
 k-point ** :   0.2083 0.3056 0.0000  plane waves:   42884
 k-point ** :   0.2500 0.3056 0.0000  plane waves:   42842
 k-point ** :   0.2917 0.3056 0.0000  plane waves:   42854
 k-point ** :   0.3333 0.3056 0.0000  plane waves:   42848
 k-point ** :   0.3750 0.3056 0.0000  plane waves:   42835
 k-point ** :   0.4167 0.3056 0.0000  plane waves:   42837
 k-point ** :   0.4583 0.3056 0.0000  plane waves:   42837
 k-point ** :   0.5000 0.3056 0.0000  plane waves:   42850
 k-point ** :   0.0000 0.3333 0.0000  plane waves:   42894
 k-point ** :   0.0417 0.3333 0.0000  plane waves:   42896
 k-point ** :   0.0833 0.3333 0.0000  plane waves:   42896
[...]
 k-point ** :   0.4583 0.4722 0.0000  plane waves:   42801
 k-point ** :   0.5000 0.4722 0.0000  plane waves:   42788
 k-point ** :   0.0000 0.5000 0.0000  plane waves:   42950
 k-point ** :   0.0417 0.5000 0.0000  plane waves:   42922
 k-point ** :   0.0833 0.5000 0.0000  plane waves:   42932
 k-point ** :   0.1250 0.5000 0.0000  plane waves:   42918
 k-point ** :   0.1667 0.5000 0.0000  plane waves:   42902
 k-point ** :   0.2083 0.5000 0.0000  plane waves:   42928
 k-point ** :   0.2500 0.5000 0.0000  plane waves:   42924
 k-point ** :   0.2917 0.5000 0.0000  plane waves:   42892
 k-point ** :   0.3333 0.5000 0.0000  plane waves:   42896
 k-point ** :   0.3750 0.5000 0.0000  plane waves:   42844
 k-point ** :   0.4167 0.5000 0.0000  plane waves:   42830
 k-point ** :   0.4583 0.5000 0.0000  plane waves:   42808
 k-point ** :   0.5000 0.5000 0.0000  plane waves:   42796

 maximum and minimum number of plane-waves per node :     21482    21276

 maximum number of plane-waves:     42950
 maximum index in each direction:
   IXMAX=   15   IYMAX=    8   IZMAX=   72
   IXMIN=  -16   IYMIN=   -9   IZMIN=  -72

 NGX is ok and might be reduce to  64
 NGY is ok and might be reduce to  36
 NGZ is ok and might be reduce to 290

 parallel 3D FFT for wavefunctions:
    minimum data exchange during FFTs selected (reduces bandwidth)
 parallel 3D FFT for charge:
    minimum data exchange during FFTs selected (reduces bandwidth)

 Broyden mixing: mesh for mixing (old mesh)
   NGX = 31   NGY = 17   NGZ =145
  (NGX  =128   NGY  = 72   NGZ  =588)
  gives a total of  76415 points

 initial charge density was supplied:
 charge density of overlapping atoms calculated
 number of electron      16.0000000 magnetization
 keeping initial charge density in first step

 Maximum index for augmentation-charges         4677 (set IRDMAX)

 First call to EWALD:  gamma=   0.298
 Maximum number of real-space cells 4x 6x 1
 Maximum number of reciprocal cells 2x 1x 8

 FEWALD executed in parallel

----------------------------------------- Iteration    1(   1)  ---------------------------------------

 eigenvalue-minimisations  :  5928
 total energy-change (2. order) : 0.1893228E+03  (-0.1059570E+04)
 number of electron      16.0000000 magnetization
 augmentation part       16.0000000 magnetization

 Free energy of the ion-electron system (eV)
  alpha Z        PSCENC =         6.18334092
  Ewald energy   TEWEN  =      2558.59359561
  -Hartree energ DENC   =     -2984.81913737
  -exchange      EXHF   =         0.00000000
  -V(xc)+E(xc)   XCENC  =        55.04065330
  PAW double counting   =       151.32577238     -155.92769107
  entropy T*S    EENTRO =        -0.00169931
  eigenvalues    EBANDS =       -29.69558595
  atomic energy  EATOM  =       588.62352690
  free energy    TOTEN  =       189.32277543 eV

  energy without entropy =      189.32447474  energy(sigma->0) =      189.32362508

[...]

 eigenvalue-minimisations  : 10340
 total energy-change (2. order) :-0.1987678E+03  (-0.1756340E+03)
 number of electron      16.0000000 magnetization
 augmentation part       16.0000000 magnetization

[...]

 Broyden mixing:
  rms(total) = 0.73126E+00    rms(broyden)= 0.73126E+00
  rms(prec ) = 0.79536E+00
  weight for this iteration     100.00

[...]

 eigenvalues of (default mixing * dielectric matrix)
  average eigenvalue GAMMA=   2.3131
  2.3131

[...]

WARNING in EDDRMM: call to ZHEGV failed, returncode =   6  3  1
WARNING in EDDRMM: call to ZHEGV failed, returncode =   6  3  1

[...]

 average (electrostatic) potential at core
  the test charge radii are     0.6991
  (the norm of the test charge is              1.0000)
       1 -58.2145       2 -58.2145       3 -58.2145       4 -58.2145

 E-fermi :  -2.7683     XC(G=0):  -2.1520     alpha+bet : -1.9046

 k-point     1 :       0.0000    0.0000    0.0000
  band No.  band energies     occupation
      1     -22.2191      2.00000
      2     -17.0704      2.00000
      3     -15.9465      2.00000
      4     -10.3323      2.00000
      5      -9.0853      2.00000
      6      -5.8321      2.00000
      7      -5.7734      2.00000
      8      -5.1571      2.00000
      9      -1.0988      0.00000
     10       0.5278      0.00000
     11       1.3278      0.00000
     12       1.7074      0.00000

[...]

 soft charge-density along one line, spin component           1
         0         1         2         3         4         5         6         7         8         9
 total charge-density along one line

------------------------ aborting loop because EDIFF is reached ----------------------------------------

  FORCE on cell =-STRESS in cart. coord.  units (eV):
  Direction    XX          YY          ZZ          XY          YZ          ZX
  Alpha Z     6.18334     6.18334     6.18334
  Ewald    3094.67307  3095.29785 -3631.37757     0.00000     0.00000    -0.00000
  Hartree  3029.74836  3029.96894 -3007.10820     0.00000    -0.00000    -0.00000
  E(xc)     -58.26319   -58.26904   -60.60161     0.00000    -0.00000    -0.00000
  Local   -6297.09170 -6297.83285  6432.51004    -0.00000    -0.00000     0.00000
  n-local   -13.75683   -13.92618   -12.71012     0.05828    -0.00000    -0.00000
  augment    -1.52881    -1.52940    -1.40584     0.00000    -0.00000    -0.00000
  Kinetic   238.93881   240.10619   274.50861    -4.56888     0.00000     0.00000
  Fock        0.00000     0.00000     0.00000     0.00000     0.00000     0.00000
  Total      -1.09696    -0.00115    -0.00134     0.00000     0.00000     0.00000
  in kB      -8.33589    -0.00877    -0.01019     0.00000     0.00000     0.00000

 VOLUME and BASIS-vectors are now :
  energy-cutoff  :     2000.00
  volume of cell :      210.84
      direct lattice vectors                 reciprocal lattice vectors
     4.294623318  0.000000000  0.000000000     0.232849292  0.000000000  0.000000000
     0.000000000  2.464965752  0.000000000     0.000000000  0.405685150  0.000000000
     0.000000000  0.000000000 19.916486096     0.000000000  0.000000000  0.050209660

[...]

 FORCES acting on ions
    electron-ion (+dipol)            ewald-force                    non-local-force                 convergence-correction
   0.109E+01 0.420E-15 -.328E-09   -.109E+01 -.589E-14 0.000E+00   0.170E-02 0.347E-17 0.000E+00   -.253E-06 -.224E-14 0.194E-12
   -.109E+01 0.127E-13 -.599E-08   0.109E+01 0.446E-14 0.556E-18   -.170E-02 0.000E+00 0.000E+00   0.253E-06 -.660E-15 0.194E-12
   0.109E+01 -.205E-12 -.361E-09   -.109E+01 -.480E-14 0.000E+00   0.170E-02 0.347E-17 0.000E+00   -.253E-06 -.202E-14 0.194E-12
   -.109E+01 0.177E-15 -.602E-08   0.109E+01 0.555E-14 -.556E-18   -.170E-02 0.000E+00 0.000E+00   0.253E-06 -.885E-15 0.194E-12
   -.853E-06 -.191E-12 -.127E-07   -.200E-14 -.684E-15 0.000E+00   0.000E+00 0.694E-17 0.000E+00   0.126E-13 -.581E-14 0.776E-12

 POSITION                                       TOTAL-FORCE (eV/Angst)
      4.29408      0.00000      0.00000         0.001091      0.000000     -0.000000
      0.71631      1.23248      0.00000        -0.001091     -0.000000      0.000000
      2.14677      1.23248      0.00000         0.001091     -0.000000     -0.000000
      2.86362      0.00000      0.00000        -0.001091      0.000000      0.000000
    total drift:                               -0.000001     -0.000000     -0.000000

  FREE ENERGIE OF THE ION-ELECTRON SYSTEM (eV)
  free  energy   TOTEN  =       -36.92276507 eV

  energy  without entropy=      -36.92267533  energy(sigma->0) =      -36.92272020

 Quasi-Newton relaxation of ions (Broydens 2nd method)
  g(Force)  = 0.230E-06   g(Stress)= 0.000E+00

 Reset! Starting new Quasi-Newton update for ions

[...]

 d Force =-0.3403362E-06[-0.911E-06, 0.230E-06]  d Energy =-0.3375578E-06-0.278E-08
 d Force =-0.2319119E-03[-0.234E-03,-0.230E-03]  d Ewald  =-0.2319121E-03 0.116E-09

[...]

 retain information from N=  1 steps
 eigenvalues of (default step * inverse Hessian matrix)
  average eigenvalue of G=   0.2016
 eigenvalue spectrum of G is  0.2016

[...]

WARNING in EDDRMM: call to ZHEGV failed, returncode =   6  3  1

[...]

 d Force = 0.3633217E-06[-0.372E-09, 0.727E-06]  d Energy = 0.3619147E-06 0.141E-08
 d Force = 0.1854775E-03[ 0.184E-03, 0.187E-03]  d Ewald  = 0.1854776E-03-0.587E-10

[...]

 eigenvalue-minimisations  :  4608
 total energy-change (2. order) : 0.6752998E-09  ( 0.5704052E-09)
 number of electron      16.0000000 magnetization
 augmentation part        0.3799903 magnetization

[...]

 eigenvalue-minimisations  :  3114
 total energy-change (2. order) :-0.5926495E-09  ( 0.2860428E-12)
 number of electron      16.0000000 magnetization
 augmentation part        0.3799903 magnetization

[...]

 d Force =-0.5066859E-13[-0.292E-12, 0.191E-12]  d Energy =-0.2678462E-09 0.268E-09
 d Force =-0.9428413E-07[-0.943E-07,-0.943E-07]  d Ewald  =-0.9428413E-07 0.000E+00

[...]

 FEWALD executed in parallel

[...]

 eigenvalue-minimisations  :  1279
 total energy-change (2. order) :-0.2842171E-11  ( 0.1131605E-13)
 number of electron      16.0000000 magnetization
 augmentation part        0.3799903 magnetization

[...]

 eigenvalue-minimisations  :   954
 total energy-change (2. order) :-0.3166178E-09  (-0.1848727E-13)
 number of electron      16.0000000 magnetization
 augmentation part        0.3799903 magnetization

[...]

 eigenvalue-minimisations  :   990
 total energy-change (2. order) : 0.1974740E-09  (-0.1230292E-13)
 number of electron      16.0000000 magnetization
 augmentation part        0.3799903 magnetization

 Broyden mixing:
  rms(total) = 0.31469E-09    rms(broyden)= 0.31465E-09
  rms(prec ) = 0.33814E-09
  weight for this iteration     100.00

 eigenvalues of (default mixing * dielectric matrix)
  average eigenvalue GAMMA=   1.3397
  3.3345  2.6316  2.6316  1.3040  0.7638  0.7638  0.6773  0.6773  0.3728  0.2405

[...]

----------------------------------------- Iteration    5(  12)  ---------------------------------------

 eigenvalue-minimisations  :  1085
 total energy-change (2. order) : 0.2762590E-10  ( 0.3479932E-13)
 number of electron      16.0000000 magnetization
 augmentation part        0.3799903 magnetization

 Free energy of the ion-electron system (eV)
  alpha Z        PSCENC =         6.18334092
  Ewald energy   TEWEN  =      2558.59364208
  -Hartree energ DENC   =     -3052.60915449
  -exchange      EXHF   =         0.00000000
  -V(xc)+E(xc)   XCENC  =        57.44526751
  PAW double counting   =       275.38045422     -280.52158153
  entropy T*S    EENTRO =        -0.00008942
  eigenvalues    EBANDS =      -190.01817128
  atomic energy  EATOM  =       588.62352690
  free energy    TOTEN  =       -36.92276509 eV

  energy without entropy =      -36.92267567  energy(sigma->0) =      -36.92272038

 average (electrostatic) potential at core
  the test charge radii are     0.6991
  (the norm of the test charge is              1.0000)
       1 -58.2145       2 -58.2145       3 -58.2145       4 -58.2145

 E-fermi :  -2.7683     XC(G=0):  -2.1491     alpha+bet : -1.9046

[...]

 k-point   247 :       0.5000    0.5000    0.0000
  band No.  band energies     occupation
      1     -16.9851      2.00000
      2     -16.9851      2.00000
      3     -15.9497      2.00000
      4     -15.9497      2.00000
      5      -9.1908      2.00000
      6      -9.1908      2.00000
      7      -5.0907      2.00000
      8      -5.0907      2.00000
      9      -1.0898      0.00000
     10      -1.0898      0.00000
     11       4.4617      0.00000
     12       4.4617      0.00000

 soft charge-density along one line, spin component           1
         0         1         2         3         4         5         6         7         8         9
 total charge-density along one line

------------------------ aborting loop because EDIFF is reached ----------------------------------------

  FORCE on cell =-STRESS in cart. coord.  units (eV):
  Direction    XX          YY          ZZ          XY          YZ          ZX
  Alpha Z     6.18334     6.18334     6.18334
  Ewald    3094.66381  3095.30716 -3631.37757    -0.00000     0.00000     0.00000
  Hartree  3029.74710  3029.97026 -3007.10821     0.00000    -0.00000    -0.00000
  E(xc)     -58.26323   -58.26901   -60.60161    -0.00000    -0.00000    -0.00000
  Local   -6297.08294 -6297.84171  6432.51005     0.00000     0.00000    -0.00000
  n-local   -13.75691   -13.92610   -12.71013     0.05829     0.00000     0.00000
  augment    -1.52880    -1.52942    -1.40584     0.00000    -0.00000    -0.00000
  Kinetic   238.94028   240.10476   274.50864    -4.56893    -0.00000    -0.00000
  Fock        0.00000     0.00000     0.00000     0.00000     0.00000     0.00000
  Total      -1.09734    -0.00072    -0.00132     0.00000     0.00000     0.00000
  in kB      -8.33879    -0.00551    -0.01003     0.00000     0.00000     0.00000

 VOLUME and BASIS-vectors are now :
  energy-cutoff  :     2000.00
  volume of cell :      210.84
      direct lattice vectors                 reciprocal lattice vectors
     4.294623318  0.000000000  0.000000000     0.232849292  0.000000000  0.000000000
     0.000000000  2.464965752  0.000000000     0.000000000  0.405685150  0.000000000
     0.000000000  0.000000000 19.916486096     0.000000000  0.000000000  0.050209660

  length of vectors
     4.294623318  2.464965752 19.916486096     0.232849292  0.405685150  0.050209660

 FORCES acting on ions
    electron-ion (+dipol)            ewald-force                    non-local-force                 convergence-correction
   0.109E+01 0.705E-15 -.315E-09   -.110E+01 0.319E-14 0.124E-18   0.131E-02 0.104E-16 0.000E+00   -.225E-08 -.812E-15 -.107E-11
   -.109E+01 0.908E-14 -.597E-08   0.110E+01 -.404E-14 -.310E-18   -.131E-02 -.104E-16 0.000E+00   0.225E-08 0.104E-14 -.108E-11
   0.109E+01 0.587E-12 -.324E-09   -.110E+01 0.370E-14 0.310E-18   0.131E-02 0.104E-16 0.323E-26   -.225E-08 -.636E-15 -.109E-11
   -.109E+01 -.809E-15 -.601E-08   0.110E+01 -.353E-14 -.124E-18   -.131E-02 0.104E-16 -.182E-26   0.225E-08 0.850E-15 -.108E-11
   -.853E-06 0.596E-12 -.126E-07   -.200E-14 -.684E-15 -.241E-34   0.217E-18 0.208E-16 0.141E-26   0.734E-14 0.446E-15 -.432E-11

 POSITION                                       TOTAL-FORCE (eV/Angst)
      4.29409      0.00000      0.00000         0.000001     -0.000000      0.000000
      0.71630      1.23248     -0.00000        -0.000001      0.000000      0.000000
      2.14678      1.23248      0.00000         0.000001     -0.000000      0.000000
      2.86361      0.00000     -0.00000        -0.000001      0.000000      0.000000
    total drift:                               -0.000001      0.000000     -0.000000

  FREE ENERGIE OF THE ION-ELECTRON SYSTEM (eV)
  free  energy   TOTEN  =       -36.92276509 eV

  energy  without entropy=      -36.92267567  energy(sigma->0) =      -36.92272038

 d Force = 0.6922871E-13[-0.381E-13, 0.177E-12]  d Energy = 0.3785772E-10-0.378E-10
 d Force = 0.5704614E-07[ 0.570E-07, 0.570E-07]  d Ewald  = 0.5704624E-07 0.000E+00

 Quasi-Newton relaxation of ions (Broydens 2nd method)
  g(Force)  = 0.103E-12   g(Stress)= 0.000E+00

 retain information from N=  1 steps
 eigenvalues of (default step * inverse Hessian matrix)
  average eigenvalue of G=   0.0654
 eigenvalue spectrum of G is  0.0654

 reached required accuracy - stopping structural energy minimisation