 vasp.5.3.5 31Mar14 (build Mar 02 2015 18:14:16) complex

 executed on             LinuxIFC date 2018.08.09  14:20:42

 INCAR:
 POTCAR:   PAW_PBE C 08Apr2002
 POTCAR:   PAW_PBE C 08Apr2002
   VRHFIN =C: s2p2

   TITEL  = PAW_PBE C 08Apr2002
   POMASS =   12.011; ZVAL   =    4.000    mass and valenz
   ENMAX  =  400.000; ENMIN  =  300.000 eV
   QCUT   =   -5.516; QGAM   =   11.032    optimization parameters

   Description
     l     E      TYP  RCUT    TYP  RCUT
     0   .000     23  1.200
     0   .000     23  1.200
     1   .000     23  1.500
     1  2.500     23  1.500
     2   .000      7  1.500

 PAW_PBE C 08Apr2002                    :

 POSCAR: MD-kMC export data
  positions in direct lattice
  velocities in cartesian coordinates
 exchange correlation table for  LEXCH =        8
   RHO(1)=    0.500       N(1)  =     2000
   RHO(2)=  100.500       N(2)  =     4000

 ion  position               nearest neighbor table
   1  0.999  0.000  0.000-   2 1.43   2 1.43   4 1.46
   2  0.167  0.500  0.000-   1 1.43   1 1.43   3 1.46
   3  0.499  0.500  0.000-   4 1.43   4 1.43   2 1.46
   4  0.667  0.000  0.000-   3 1.43   3 1.43   1 1.46

  LATTYP: Found a simple orthorhombic cell.
 ALAT       =     2.4570337071
 B/A-ratio  =     1.7832855688
 C/A-ratio  =     7.9706629784

  Lattice vectors:

 A1 = (   0.0000000000,  -2.4570337071,   0.0000000000)
 A2 = (  -4.3815927521,   0.0000000000,   0.0000000000)
 A3 = (   0.0000000000,   0.0000000000, -19.5841876062)

Analysis of symmetry for initial positions (statically):
 Subroutine PRICEL returns following result:

  LATTYP: Found a base centered orthorhombic cell.
 ALAT       =     2.4570337071
 B/A-ratio  =     1.7832855688
 C/A-ratio  =     7.9706629784

[...]

   2 primitive cells build up your supercell.

 Routine SETGRP: Setting up the symmetry group for a
 simple orthorhombic supercell.

 Subroutine GETGRP returns: Found  8 space group operations
 (whereof  4 operations were pure point group operations)
 out of a pool of  8 trial point group operations.

The static configuration has the point symmetry C_2v.
 The point group associated with its full space group is D_2h.

Analysis of symmetry for dynamics (positions and initial velocities):
 Subroutine PRICEL returns following result:

  LATTYP: Found a base centered orthorhombic cell.
 ALAT       =     2.4570337071
 B/A-ratio  =     1.7832855688
 C/A-ratio  =     7.9706629784

  Lattice vectors:

 A1 = (   2.1907963761,  -1.2285168536,   0.0000000000)
 A2 = (  -2.1907963761,  -1.2285168536,   0.0000000000)
 A3 = (   0.0000000000,   0.0000000000, -19.5841876062)

   2 primitive cells build up your supercell.

 Routine SETGRP: Setting up the symmetry group for a
 simple orthorhombic supercell.

 Subroutine GETGRP returns: Found  8 space group operations
 (whereof  4 operations were pure point group operations)
 out of a pool of  8 trial point group operations.

The dynamic configuration has the point symmetry C_2v.
 The point group associated with its full space group is D_2h.

 KPOINTS: Automatic mesh

Automatic generation of k-mesh.
Space group operators:
 irot       det(A)        alpha          n_x          n_y          n_z        tau_x        tau_y        tau_z
    1     1.000000     0.000000     1.000000     0.000000     0.000000     0.000000     0.000000     0.000000
    2    -1.000000   180.000000     0.000000     0.000000     1.000000     0.000000     0.000000     0.000000
    3     1.000000   180.000000     1.000000     0.000000     0.000000     0.000000     0.000000     0.000000
    4    -1.000000   180.000000     0.000000     1.000000     0.000000     0.000000     0.000000     0.000000
    5    -1.000000     0.000000     1.000000     0.000000     0.000000     0.166667    -0.500000     0.000000
    6     1.000000   180.000000     0.000000     0.000000     1.000000     0.166667    -0.500000     0.000000
    7    -1.000000   180.000000     1.000000     0.000000     0.000000     0.166667    -0.500000     0.000000
    8     1.000000   180.000000     0.000000     1.000000     0.000000     0.166667    -0.500000     0.000000

 Subroutine IBZKPT returns following result:

 Found    247 irreducible k-points:

 Following reciprocal coordinates:
            Coordinates               Weight
  0.000000  0.000000  0.000000      1.000000
  0.041667  0.000000  0.000000      2.000000
  0.083333  0.000000  0.000000      2.000000
  0.125000  0.000000  0.000000      2.000000
  0.166667  0.000000  0.000000      2.000000
  0.208333  0.000000  0.000000      2.000000
  0.250000  0.000000  0.000000      2.000000
  0.291667  0.000000  0.000000      2.000000
  0.333333  0.000000  0.000000      2.000000
  0.375000  0.000000  0.000000      2.000000
  0.416667  0.000000  0.000000      2.000000
  0.458333  0.000000  0.000000      2.000000
  0.500000  0.000000  0.000000      1.000000
  0.000000  0.027778  0.000000      2.000000
  0.041667  0.027778  0.000000      4.000000
  0.083333  0.027778  0.000000      4.000000
  0.125000  0.027778  0.000000      4.000000
  0.166667  0.027778  0.000000      4.000000
  0.208333  0.027778  0.000000      4.000000
  0.250000  0.027778  0.000000      4.000000
  0.291667  0.027778  0.000000      4.000000
  0.333333  0.027778  0.000000      4.000000
  0.375000  0.027778  0.000000      4.000000
  0.416667  0.027778  0.000000      4.000000
  0.458333  0.027778  0.000000      4.000000
  0.500000  0.027778  0.000000      2.000000
  0.000000  0.055556  0.000000      2.000000
  0.041667  0.055556  0.000000      4.000000
  0.083333  0.055556  0.000000      4.000000
  0.125000  0.055556  0.000000      4.000000
  0.166667  0.055556  0.000000      4.000000
  0.208333  0.055556  0.000000      4.000000
  0.250000  0.055556  0.000000      4.000000
  0.291667  0.055556  0.000000      4.000000
  0.333333  0.055556  0.000000      4.000000
  0.375000  0.055556  0.000000      4.000000
  0.416667  0.055556  0.000000      4.000000
  0.458333  0.055556  0.000000      4.000000
  0.500000  0.055556  0.000000      2.000000
  0.000000  0.083333  0.000000      2.000000
  0.041667  0.083333  0.000000      4.000000
  0.083333  0.083333  0.000000      4.000000
  0.125000  0.083333  0.000000      4.000000
  0.166667  0.083333  0.000000      4.000000
  0.208333  0.083333  0.000000      4.000000
  0.250000  0.083333  0.000000      4.000000
  0.291667  0.083333  0.000000      4.000000
  0.333333  0.083333  0.000000      4.000000
  0.375000  0.083333  0.000000      4.000000
  0.416667  0.083333  0.000000      4.000000
  0.458333  0.083333  0.000000      4.000000
  0.500000  0.083333  0.000000      2.000000
  0.000000  0.111111  0.000000      2.000000
  0.041667  0.111111  0.000000      4.000000
  0.083333  0.111111  0.000000      4.000000
  0.125000  0.111111  0.000000      4.000000
  0.166667  0.111111  0.000000      4.000000
  0.208333  0.111111  0.000000      4.000000
  0.250000  0.111111  0.000000      4.000000
  0.291667  0.111111  0.000000      4.000000
[...]
  0.458333  0.472222  0.000000      4.000000
  0.500000  0.472222  0.000000      2.000000
  0.000000  0.500000  0.000000      1.000000
  0.041667  0.500000  0.000000      2.000000
  0.083333  0.500000  0.000000      2.000000
  0.125000  0.500000  0.000000      2.000000
  0.166667  0.500000  0.000000      2.000000
  0.208333  0.500000  0.000000      2.000000
  0.250000  0.500000  0.000000      2.000000
  0.291667  0.500000  0.000000      2.000000
  0.333333  0.500000  0.000000      2.000000
  0.375000  0.500000  0.000000      2.000000
  0.416667  0.500000  0.000000      2.000000
  0.458333  0.500000  0.000000      2.000000
  0.500000  0.500000  0.000000      1.000000

 Following cartesian coordinates:
            Coordinates               Weight
  0.000000  0.000000  0.000000      1.000000
  0.009509  0.000000  0.000000      2.000000
  0.019019  0.000000  0.000000      2.000000
  0.028528  0.000000  0.000000      2.000000
  0.038038  0.000000  0.000000      2.000000
  0.047547  0.000000  0.000000      2.000000
  0.057057  0.000000  0.000000      2.000000
  0.066566  0.000000  0.000000      2.000000
  0.076076  0.000000  0.000000      2.000000
  0.085585  0.000000  0.000000      2.000000
  0.095095  0.000000  0.000000      2.000000
  0.104604  0.000000  0.000000      2.000000
  0.114114  0.000000  0.000000      1.000000
  0.000000  0.011305  0.000000      2.000000
  0.009509  0.011305  0.000000      4.000000
  0.019019  0.011305  0.000000      4.000000
  0.028528  0.011305  0.000000      4.000000
  0.038038  0.011305  0.000000      4.000000
  0.047547  0.011305  0.000000      4.000000
  0.057057  0.011305  0.000000      4.000000
  0.066566  0.011305  0.000000      4.000000
  0.076076  0.011305  0.000000      4.000000
  0.085585  0.011305  0.000000      4.000000
  0.095095  0.011305  0.000000      4.000000
  0.104604  0.011305  0.000000      4.000000
  0.114114  0.011305  0.000000      2.000000
  0.000000  0.022611  0.000000      2.000000
  0.009509  0.022611  0.000000      4.000000
  0.019019  0.022611  0.000000      4.000000
  0.028528  0.022611  0.000000      4.000000
  0.038038  0.022611  0.000000      4.000000
  0.047547  0.022611  0.000000      4.000000
  0.057057  0.022611  0.000000      4.000000
  0.066566  0.022611  0.000000      4.000000
  0.076076  0.022611  0.000000      4.000000
  0.085585  0.022611  0.000000      4.000000
  0.095095  0.022611  0.000000      4.000000
  0.104604  0.022611  0.000000      4.000000
  0.114114  0.022611  0.000000      2.000000
  0.000000  0.033916  0.000000      2.000000
  0.009509  0.033916  0.000000      4.000000
  0.019019  0.033916  0.000000      4.000000
  0.028528  0.033916  0.000000      4.000000
  0.038038  0.033916  0.000000      4.000000
  0.047547  0.033916  0.000000      4.000000
  0.057057  0.033916  0.000000      4.000000
  0.066566  0.033916  0.000000      4.000000
  0.076076  0.033916  0.000000      4.000000
  0.085585  0.033916  0.000000      4.000000
  0.095095  0.033916  0.000000      4.000000
  0.104604  0.033916  0.000000      4.000000
  0.114114  0.033916  0.000000      2.000000
  0.000000  0.045222  0.000000      2.000000
  0.009509  0.045222  0.000000      4.000000
  0.019019  0.045222  0.000000      4.000000
  0.028528  0.045222  0.000000      4.000000
  0.038038  0.045222  0.000000      4.000000
  0.047547  0.045222  0.000000      4.000000
  0.057057  0.045222  0.000000      4.000000
  0.066566  0.045222  0.000000      4.000000
[...]
  0.104604  0.192192  0.000000      4.000000
  0.114114  0.192192  0.000000      2.000000
  0.000000  0.203497  0.000000      1.000000
  0.009509  0.203497  0.000000      2.000000
  0.019019  0.203497  0.000000      2.000000
  0.028528  0.203497  0.000000      2.000000
  0.038038  0.203497  0.000000      2.000000
  0.047547  0.203497  0.000000      2.000000
  0.057057  0.203497  0.000000      2.000000
  0.066566  0.203497  0.000000      2.000000
  0.076076  0.203497  0.000000      2.000000
  0.085585  0.203497  0.000000      2.000000
  0.095095  0.203497  0.000000      2.000000
  0.104604  0.203497  0.000000      2.000000
  0.114114  0.203497  0.000000      1.000000

 I would recommend the setting:
   dimension x,y,z NGX =    64 NGY =   36 NGZ =  286
[...]
 k-point ** :   0.3333 0.3056 0.0000  plane waves:   42864
 k-point ** :   0.3750 0.3056 0.0000  plane waves:   42874
 k-point ** :   0.4167 0.3056 0.0000  plane waves:   42884
 k-point ** :   0.4583 0.3056 0.0000  plane waves:   42888
 k-point ** :   0.5000 0.3056 0.0000  plane waves:   42888
 k-point ** :   0.0000 0.3333 0.0000  plane waves:   42814
 k-point ** :   0.0417 0.3333 0.0000  plane waves:   42820
 k-point ** :   0.0833 0.3333 0.0000  plane waves:   42840
[...]
 k-point ** :   0.4583 0.4722 0.0000  plane waves:   42972
 k-point ** :   0.5000 0.4722 0.0000  plane waves:   42944
 k-point ** :   0.0000 0.5000 0.0000  plane waves:   42834
 k-point ** :   0.0417 0.5000 0.0000  plane waves:   42820
 k-point ** :   0.0833 0.5000 0.0000  plane waves:   42824
 k-point ** :   0.1250 0.5000 0.0000  plane waves:   42860
 k-point ** :   0.1667 0.5000 0.0000  plane waves:   42860
 k-point ** :   0.2083 0.5000 0.0000  plane waves:   42894
 k-point ** :   0.2500 0.5000 0.0000  plane waves:   42888
 k-point ** :   0.2917 0.5000 0.0000  plane waves:   42922
 k-point ** :   0.3333 0.5000 0.0000  plane waves:   42932
 k-point ** :   0.3750 0.5000 0.0000  plane waves:   42910
 k-point ** :   0.4167 0.5000 0.0000  plane waves:   42944
 k-point ** :   0.4583 0.5000 0.0000  plane waves:   42944
 k-point ** :   0.5000 0.5000 0.0000  plane waves:   42976

 maximum and minimum number of plane-waves per node :     21495    21315

 maximum number of plane-waves:     42976
 maximum index in each direction:
   IXMAX=   15   IYMAX=    8   IZMAX=   71
   IXMIN=  -16   IYMIN=   -9   IZMIN=  -71

 NGX is ok and might be reduce to  64
 NGY is ok and might be reduce to  36
 NGZ is ok and might be reduce to 286

 parallel 3D FFT for wavefunctions:
    minimum data exchange during FFTs selected (reduces bandwidth)
 parallel 3D FFT for charge:
    minimum data exchange during FFTs selected (reduces bandwidth)

 Broyden mixing: mesh for mixing (old mesh)
   NGX = 31   NGY = 17   NGZ =143
  (NGX  =128   NGY  = 72   NGZ  =576)
  gives a total of  75361 points

 initial charge density was supplied:
 charge density of overlapping atoms calculated
 number of electron      16.0000000 magnetization
 keeping initial charge density in first step

 Maximum index for augmentation-charges         4569 (set IRDMAX)

 First call to EWALD:  gamma=   0.298
 Maximum number of real-space cells 4x 6x 1
 Maximum number of reciprocal cells 2x 1x 8

 FEWALD executed in parallel

----------------------------------------- Iteration    1(   1)  ---------------------------------------

 eigenvalue-minimisations  :  5928
 total energy-change (2. order) : 0.1870740E+03  (-0.1060337E+04)
 number of electron      16.0000000 magnetization
 augmentation part       16.0000000 magnetization

 Free energy of the ion-electron system (eV)
  alpha Z        PSCENC =         6.18334092
  Ewald energy   TEWEN  =      2447.41629545
  -Hartree energ DENC   =     -2876.97097173
  -exchange      EXHF   =         0.00000000
  -V(xc)+E(xc)   XCENC  =        54.81288835
  PAW double counting   =       151.32577238     -155.92769107
  entropy T*S    EENTRO =        -0.00241636
  eigenvalues    EBANDS =       -28.38678032
  atomic energy  EATOM  =       588.62352690
  free energy    TOTEN  =       187.07396453 eV

  energy without entropy =      187.07638089  energy(sigma->0) =      187.07517271

[...]

 eigenvalue-minimisations  : 10284
 total energy-change (2. order) :-0.1963379E+03  (-0.1733018E+03)
 number of electron      16.0000000 magnetization
 augmentation part       16.0000000 magnetization

[...]

 Broyden mixing:
  rms(total) = 0.70745E+00    rms(broyden)= 0.70745E+00
  rms(prec ) = 0.77089E+00
  weight for this iteration     100.00

[...]

 eigenvalues of (default mixing * dielectric matrix)
  average eigenvalue GAMMA=   2.3192
  2.3192

[...]

WARNING in EDDRMM: call to ZHEGV failed, returncode =   6  3  1
WARNING in EDDRMM: call to ZHEGV failed, returncode =   6  3  1
WARNING in EDDRMM: call to ZHEGV failed, returncode =   6  3  1
WARNING in EDDRMM: call to ZHEGV failed, returncode =   6  3  1
WARNING in EDDRMM: call to ZHEGV failed, returncode =   6  3  1
WARNING in EDDRMM: call to ZHEGV failed, returncode =   6  3  1
WARNING in EDDRMM: call to ZHEGV failed, returncode =   6  3  1
WARNING in EDDRMM: call to ZHEGV failed, returncode =   6  3  1
WARNING in EDDRMM: call to ZHEGV failed, returncode =   6  3  1
WARNING in EDDRMM: call to ZHEGV failed, returncode =   6  3  1
WARNING in EDDRMM: call to ZHEGV failed, returncode =   6  3  1
WARNING in EDDRMM: call to ZHEGV failed, returncode =   6  3  1

[...]

 average (electrostatic) potential at core
  the test charge radii are     0.6991
  (the norm of the test charge is              1.0000)
       1 -58.3166       2 -58.3166       3 -58.3166       4 -58.3166

 E-fermi :  -2.8252     XC(G=0):  -2.1778     alpha+bet : -1.9046

 k-point     1 :       0.0000    0.0000    0.0000
  band No.  band energies     occupation
      1     -22.0782      2.00000
      2     -17.2609      2.00000
      3     -15.8301      2.00000
      4     -10.2235      2.00000
      5      -8.8001      2.00000
      6      -6.0089      2.00000
      7      -5.7269      2.00000
      8      -5.3387      2.00000
      9      -1.1870      0.00000
     10       0.5451      0.00000
     11       1.3431      0.00000
     12       1.7367      0.00000

[...]

 soft charge-density along one line, spin component           1
         0         1         2         3         4         5         6         7         8         9
 total charge-density along one line

------------------------ aborting loop because EDIFF is reached ----------------------------------------

  FORCE on cell =-STRESS in cart. coord.  units (eV):
  Direction    XX          YY          ZZ          XY          YZ          ZX
  Alpha Z     6.18334     6.18334     6.18334
  Ewald    2977.55162  2981.07681 -3511.21234     0.00000     0.00000    -0.00000
  Hartree  2917.97579  2919.17463 -2895.44409    -0.00000    -0.00000    -0.00000
  E(xc)     -57.95258   -57.98072   -60.28780    -0.00000     0.00000    -0.00000
  Local   -6069.08246 -6073.25473  6201.41848    -0.00000     0.00000     0.00000
  n-local   -12.99716   -13.81558   -12.47640     0.06793    -0.00000     0.00000
  augment    -1.47723    -1.47962    -1.37103    -0.00000     0.00000     0.00000
  Kinetic   234.31124   240.09776   273.18850    -4.45097     0.00000    -0.00000
  Fock        0.00000     0.00000     0.00000     0.00000     0.00000     0.00000
  Total      -5.48743     0.00190    -0.00133     0.00000     0.00000     0.00000
  in kB     -41.69953     0.01447    -0.01014     0.00000     0.00000     0.00000

 VOLUME and BASIS-vectors are now :
  energy-cutoff  :     2000.00
  volume of cell :      210.84
      direct lattice vectors                 reciprocal lattice vectors
     4.381592752  0.000000000  0.000000000     0.228227509  0.000000000  0.000000000
     0.000000000  2.457033707  0.000000000     0.000000000  0.406994824  0.000000000
     0.000000000  0.000000000 19.584187606     0.000000000  0.000000000  0.051061602

[...]

 FORCES acting on ions
    electron-ion (+dipol)            ewald-force                    non-local-force                 convergence-correction
   0.543E+01 0.789E-15 -.249E-08   -.543E+01 0.668E-14 0.498E-18   -.580E-02 0.104E-16 0.000E+00   0.522E-08 -.177E-14 -.837E-13
   -.543E+01 -.284E-14 -.110E-07   0.543E+01 -.778E-14 0.126E-33   0.580E-02 -.104E-16 0.000E+00   -.522E-08 0.187E-14 -.833E-13
   0.543E+01 -.159E-12 -.248E-08   -.543E+01 0.118E-13 -.498E-18   -.580E-02 -.104E-16 0.000E+00   0.522E-08 -.168E-14 -.837E-13
   -.543E+01 0.522E-15 -.109E-07   0.543E+01 -.269E-14 -.193E-33   0.580E-02 0.104E-16 0.000E+00   -.522E-08 0.185E-14 -.832E-13
   -.936E-06 -.161E-12 -.269E-07   -.888E-15 0.797E-14 -.963E-34   0.607E-17 0.000E+00 0.000E+00   0.498E-13 0.263E-15 -.334E-12

 POSITION                                       TOTAL-FORCE (eV/Angst)
      4.37922      0.00000      0.00000        -0.001671     -0.000000     -0.000000
      0.73264      1.22852      0.00000         0.001671      0.000000      0.000000
      2.18842      1.22852      0.00000        -0.001671      0.000000     -0.000000
      2.92343      0.00000      0.00000         0.001671     -0.000000      0.000000
    total drift:                               -0.000001     -0.000000     -0.000000

  FREE ENERGIE OF THE ION-ELECTRON SYSTEM (eV)
  free  energy   TOTEN  =       -36.85654326 eV

  energy  without entropy=      -36.85654324  energy(sigma->0) =      -36.85654325

 Quasi-Newton relaxation of ions (Broydens 2nd method)
  g(Force)  = 0.539E-06   g(Stress)= 0.000E+00

 Reset! Starting new Quasi-Newton update for ions

[...]

 d Force =-0.7230175E-06[-0.199E-05, 0.539E-06]  d Energy =-0.7429163E-06 0.199E-07
 d Force = 0.1745659E-02[ 0.174E-02, 0.175E-02]  d Ewald  = 0.1745659E-02-0.397E-09

[...]

 retain information from N=  1 steps
 eigenvalues of (default step * inverse Hessian matrix)
  average eigenvalue of G=   0.2136
 eigenvalue spectrum of G is  0.2136

[...]

WARNING in EDDRMM: call to ZHEGV failed, returncode =   6  3  1

[...]

 d Force = 0.7817009E-06[ 0.225E-08, 0.156E-05]  d Energy = 0.7966009E-06-0.149E-07
 d Force =-0.1372111E-02[-0.137E-02,-0.137E-02]  d Ewald  =-0.1372111E-02 0.193E-09

[...]

 eigenvalue-minimisations  :  4772
 total energy-change (2. order) : 0.5405809E-09  ( 0.5281799E-09)
 number of electron      16.0000000 magnetization
 augmentation part        0.3724377 magnetization

[...]

 eigenvalue-minimisations  :  3151
 total energy-change (2. order) :-0.4888534E-09  ( 0.2618214E-12)
 number of electron      16.0000000 magnetization
 augmentation part        0.3724377 magnetization

[...]

 d Force =-0.4266572E-12[-0.410E-11, 0.324E-11]  d Energy = 0.6639311E-10-0.668E-10
 d Force =-0.1982731E-05[-0.198E-05,-0.198E-05]  d Ewald  =-0.1982731E-05 0.000E+00

[...]

 d Force = 0.1295854E-11[ 0.306E-12, 0.229E-11]  d Energy =-0.4752110E-10 0.488E-10
 d Force = 0.1106658E-05[ 0.111E-05, 0.111E-05]  d Ewald  = 0.1106659E-05-0.455E-12

[...]

 eigenvalue-minimisations  :  1164
 total energy-change (2. order) : 0.3561809E-09  (-0.8059397E-15)
 number of electron      16.0000000 magnetization
 augmentation part        0.3724377 magnetization

[...]

 d Force = 0.4155869E-13[ 0.359E-13, 0.473E-13]  d Energy =-0.1801936E-09 0.180E-09
 d Force = 0.1709645E-06[ 0.171E-06, 0.171E-06]  d Ewald  = 0.1709645E-06 0.000E+00

[...]

 FEWALD executed in parallel

[...]

 eigenvalue-minimisations  :  4652
 total energy-change (2. order) : 0.4905587E-09  ( 0.5360589E-09)
 number of electron      16.0000000 magnetization
 augmentation part        0.3724377 magnetization

[...]

 eigenvalue-minimisations  :   568
 total energy-change (2. order) :-0.2501110E-11  ( 0.5000116E-14)
 number of electron      16.0000000 magnetization
 augmentation part        0.3724377 magnetization

 Broyden mixing:
  rms(total) = 0.24677E-09    rms(broyden)= 0.24675E-09
  rms(prec ) = 0.34752E-09
  weight for this iteration     100.00

 eigenvalues of (default mixing * dielectric matrix)
  average eigenvalue GAMMA=   2.1610
  1.2010  2.6171  2.6648

[...]

----------------------------------------- Iteration    7(   5)  ---------------------------------------

 eigenvalue-minimisations  :   627
 total energy-change (2. order) :-0.5911716E-11  (-0.2894804E-14)
 number of electron      16.0000000 magnetization
 augmentation part        0.3724377 magnetization

 Free energy of the ion-electron system (eV)
  alpha Z        PSCENC =         6.18334092
  Ewald energy   TEWEN  =      2447.41592207
  -Hartree energ DENC   =     -2941.70600764
  -exchange      EXHF   =         0.00000000
  -V(xc)+E(xc)   XCENC  =        57.13592482
  PAW double counting   =       268.69828965     -273.80923802
  entropy T*S    EENTRO =        -0.00000001
  eigenvalues    EBANDS =      -189.39830199
  atomic energy  EATOM  =       588.62352690
  free energy    TOTEN  =       -36.85654331 eV

  energy without entropy =      -36.85654330  energy(sigma->0) =      -36.85654330

 average (electrostatic) potential at core
  the test charge radii are     0.6991
  (the norm of the test charge is              1.0000)
       1 -58.3166       2 -58.3166       3 -58.3166       4 -58.3166

 E-fermi :  -2.8252     XC(G=0):  -2.1778     alpha+bet : -1.9046

[...]

 k-point   247 :       0.5000    0.5000    0.0000
  band No.  band energies     occupation
      1     -16.8427      2.00000
      2     -16.8427      2.00000
      3     -15.8559      2.00000
      4     -15.8559      2.00000
      5      -9.3045      2.00000
      6      -9.3045      2.00000
      7      -5.0105      2.00000
      8      -5.0105      2.00000
      9      -1.1531      0.00000
     10      -1.1531      0.00000
     11       3.8857      0.00000
     12       3.8857      0.00000

 soft charge-density along one line, spin component           1
         0         1         2         3         4         5         6         7         8         9
 total charge-density along one line

------------------------ aborting loop because EDIFF is reached ----------------------------------------

  FORCE on cell =-STRESS in cart. coord.  units (eV):
  Direction    XX          YY          ZZ          XY          YZ          ZX
  Alpha Z     6.18334     6.18334     6.18334
  Ewald    2977.56629  2981.06177 -3511.21234    -0.00000     0.00000    -0.00000
  Hartree  2917.97778  2919.17234 -2895.44412    -0.00000    -0.00000    -0.00000
  E(xc)     -57.95250   -57.98076   -60.28779    -0.00000    -0.00000    -0.00000
  Local   -6069.09653 -6073.24020  6201.41860     0.00000    -0.00000     0.00000
  n-local   -12.99703   -13.81570   -12.47639     0.06792    -0.00000    -0.00000
  augment    -1.47725    -1.47959    -1.37103     0.00000    -0.00000     0.00000
  Kinetic   234.30881   240.09997   273.18839    -4.45090     0.00000     0.00000
  Fock        0.00000     0.00000     0.00000     0.00000     0.00000     0.00000
  Total      -5.48708     0.00118    -0.00133     0.00000     0.00000     0.00000
  in kB     -41.69688     0.00896    -0.01012     0.00000     0.00000     0.00000

 VOLUME and BASIS-vectors are now :
  energy-cutoff  :     2000.00
  volume of cell :      210.84
      direct lattice vectors                 reciprocal lattice vectors
     4.381592752  0.000000000  0.000000000     0.228227509  0.000000000  0.000000000
     0.000000000  2.457033707  0.000000000     0.000000000  0.406994824  0.000000000
     0.000000000  0.000000000 19.584187606     0.000000000  0.000000000  0.051061602

  length of vectors
     4.381592752  2.457033707 19.584187606     0.228227509  0.406994824  0.051061602

 FORCES acting on ions
    electron-ion (+dipol)            ewald-force                    non-local-force                 convergence-correction
   0.543E+01 0.108E-15 -.253E-08   -.542E+01 0.119E-14 -.123E-17   -.520E-02 0.139E-16 0.000E+00   -.336E-09 -.167E-14 -.830E-12
   -.543E+01 0.200E-12 -.110E-07   0.542E+01 -.992E-18 -.254E-18   0.520E-02 -.347E-17 0.000E+00   0.336E-09 0.558E-15 -.832E-12
   0.543E+01 0.694E-12 -.249E-08   -.542E+01 0.398E-14 0.254E-18   -.520E-02 0.139E-16 0.000E+00   -.336E-09 -.156E-14 -.825E-12
   -.543E+01 0.122E-14 -.110E-07   0.542E+01 0.280E-14 0.123E-17   0.520E-02 -.104E-16 0.000E+00   0.336E-09 0.471E-15 -.825E-12
   -.935E-06 0.896E-12 -.269E-07   -.888E-15 0.797E-14 0.000E+00   0.347E-17 0.139E-16 0.000E+00   0.307E-14 -.220E-14 -.331E-11

 POSITION                                       TOTAL-FORCE (eV/Angst)
      4.37920     -0.00000     -0.00000         0.000001     -0.000000      0.000000
      0.73265      1.22852      0.00000        -0.000001      0.000000     -0.000000
      2.18841      1.22852     -0.00000         0.000001     -0.000000      0.000000
      2.92345     -0.00000      0.00000        -0.000001      0.000000     -0.000000
    total drift:                               -0.000001      0.000000     -0.000000

  FREE ENERGIE OF THE ION-ELECTRON SYSTEM (eV)
  free  energy   TOTEN  =       -36.85654331 eV

  energy  without entropy=      -36.85654330  energy(sigma->0) =      -36.85654330

 d Force = 0.1781383E-13[-0.773E-13, 0.113E-12]  d Energy = 0.3433342E-10-0.343E-10
 d Force = 0.5382492E-06[ 0.538E-06, 0.538E-06]  d Ewald  = 0.5382490E-06 0.000E+00

 Quasi-Newton relaxation of ions (Broydens 2nd method)
  g(Force)  = 0.117E-12   g(Stress)= 0.000E+00

 retain information from N=  1 steps
 eigenvalues of (default step * inverse Hessian matrix)
  average eigenvalue of G=   0.2687
 eigenvalue spectrum of G is  0.2687

 reached required accuracy - stopping structural energy minimisation