 vasp.5.3.5 31Mar14 (build Mar 02 2015 18:14:16) complex

 executed on             LinuxIFC date 2018.08.09  21:16:59

 INCAR:
 POTCAR:   PAW_PBE C 08Apr2002
 POTCAR:   PAW_PBE C 08Apr2002
   VRHFIN =C: s2p2

   TITEL  = PAW_PBE C 08Apr2002
   POMASS =   12.011; ZVAL   =    4.000    mass and valenz
   ENMAX  =  400.000; ENMIN  =  300.000 eV
   QCUT   =   -5.516; QGAM   =   11.032    optimization parameters

   Description
     l     E      TYP  RCUT    TYP  RCUT
     0   .000     23  1.200
     0   .000     23  1.200
     1   .000     23  1.500
     1  2.500     23  1.500
     2   .000      7  1.500

 PAW_PBE C 08Apr2002                    :

 POSCAR: MD-kMC export data
  positions in direct lattice
  velocities in cartesian coordinates
 exchange correlation table for  LEXCH =        8
   RHO(1)=    0.500       N(1)  =     2000
   RHO(2)=  100.500       N(2)  =     4000

 ion  position               nearest neighbor table
   1  0.001  0.000  0.000-   4 1.42   2 1.45   2 1.45
   2  0.166  0.500  0.000-   3 1.42   1 1.45   1 1.45
   3  0.501  0.500  0.000-   2 1.42   4 1.45   4 1.45
   4  0.666  0.000  0.000-   1 1.42   3 1.45   3 1.45

  LATTYP: Found a simple orthorhombic cell.
 ALAT       =     2.5288614596
 B/A-ratio  =     1.6826621703
 C/A-ratio  =     7.7477685869

  Lattice vectors:

 A1 = (   0.0000000000,  -2.5288614596,   0.0000000000)
 A2 = (  -4.2552195119,   0.0000000000,   0.0000000000)
 A3 = (   0.0000000000,   0.0000000000, -19.5930333770)

Analysis of symmetry for initial positions (statically):
 Subroutine PRICEL returns following result:

  LATTYP: Found a base centered orthorhombic cell.
 ALAT       =     2.5288614596
 B/A-ratio  =     1.6826621703
 C/A-ratio  =     7.7477685869

[...]

   2 primitive cells build up your supercell.

 Routine SETGRP: Setting up the symmetry group for a
 simple orthorhombic supercell.

 Subroutine GETGRP returns: Found  8 space group operations
 (whereof  4 operations were pure point group operations)
 out of a pool of  8 trial point group operations.

The static configuration has the point symmetry C_2v.
 The point group associated with its full space group is D_2h.

Analysis of symmetry for dynamics (positions and initial velocities):
 Subroutine PRICEL returns following result:

  LATTYP: Found a base centered orthorhombic cell.
 ALAT       =     2.5288614596
 B/A-ratio  =     1.6826621703
 C/A-ratio  =     7.7477685869

  Lattice vectors:

 A1 = (   2.1276097560,  -1.2644307298,   0.0000000000)
 A2 = (  -2.1276097560,  -1.2644307298,   0.0000000000)
 A3 = (   0.0000000000,   0.0000000000, -19.5930333770)

   2 primitive cells build up your supercell.

 Routine SETGRP: Setting up the symmetry group for a
 simple orthorhombic supercell.

 Subroutine GETGRP returns: Found  8 space group operations
 (whereof  4 operations were pure point group operations)
 out of a pool of  8 trial point group operations.

The dynamic configuration has the point symmetry C_2v.
 The point group associated with its full space group is D_2h.

 KPOINTS: Automatic mesh

Automatic generation of k-mesh.
Space group operators:
 irot       det(A)        alpha          n_x          n_y          n_z        tau_x        tau_y        tau_z
    1     1.000000     0.000000     1.000000     0.000000     0.000000     0.000000     0.000000     0.000000
    2    -1.000000   179.999999     0.000000     0.000000     1.000000     0.000000     0.000000     0.000000
    3     1.000000   180.000000     1.000000     0.000000     0.000000     0.000000     0.000000     0.000000
    4    -1.000000   180.000000     0.000000     1.000000     0.000000     0.000000     0.000000     0.000000
    5    -1.000000     0.000000     1.000000     0.000000     0.000000     0.166667    -0.500000     0.000000
    6     1.000000   179.999999     0.000000     0.000000     1.000000     0.166667    -0.500000     0.000000
    7    -1.000000   180.000000     1.000000     0.000000     0.000000     0.166667    -0.500000     0.000000
    8     1.000000   180.000000     0.000000     1.000000     0.000000     0.166667    -0.500000     0.000000

 Subroutine IBZKPT returns following result:

 Found    247 irreducible k-points:

 Following reciprocal coordinates:
            Coordinates               Weight
  0.000000  0.000000  0.000000      1.000000
  0.041667  0.000000  0.000000      2.000000
  0.083333  0.000000  0.000000      2.000000
  0.125000  0.000000  0.000000      2.000000
  0.166667  0.000000  0.000000      2.000000
  0.208333  0.000000  0.000000      2.000000
  0.250000  0.000000  0.000000      2.000000
  0.291667  0.000000  0.000000      2.000000
  0.333333  0.000000  0.000000      2.000000
  0.375000  0.000000  0.000000      2.000000
  0.416667  0.000000  0.000000      2.000000
  0.458333  0.000000  0.000000      2.000000
  0.500000  0.000000  0.000000      1.000000
  0.000000  0.027778  0.000000      2.000000
  0.041667  0.027778  0.000000      4.000000
  0.083333  0.027778  0.000000      4.000000
  0.125000  0.027778  0.000000      4.000000
  0.166667  0.027778  0.000000      4.000000
  0.208333  0.027778  0.000000      4.000000
  0.250000  0.027778  0.000000      4.000000
  0.291667  0.027778  0.000000      4.000000
  0.333333  0.027778  0.000000      4.000000
  0.375000  0.027778  0.000000      4.000000
  0.416667  0.027778  0.000000      4.000000
  0.458333  0.027778  0.000000      4.000000
  0.500000  0.027778  0.000000      2.000000
  0.000000  0.055556  0.000000      2.000000
  0.041667  0.055556  0.000000      4.000000
  0.083333  0.055556  0.000000      4.000000
  0.125000  0.055556  0.000000      4.000000
  0.166667  0.055556  0.000000      4.000000
  0.208333  0.055556  0.000000      4.000000
  0.250000  0.055556  0.000000      4.000000
  0.291667  0.055556  0.000000      4.000000
  0.333333  0.055556  0.000000      4.000000
  0.375000  0.055556  0.000000      4.000000
  0.416667  0.055556  0.000000      4.000000
  0.458333  0.055556  0.000000      4.000000
  0.500000  0.055556  0.000000      2.000000
  0.000000  0.083333  0.000000      2.000000
  0.041667  0.083333  0.000000      4.000000
  0.083333  0.083333  0.000000      4.000000
  0.125000  0.083333  0.000000      4.000000
  0.166667  0.083333  0.000000      4.000000
  0.208333  0.083333  0.000000      4.000000
  0.250000  0.083333  0.000000      4.000000
  0.291667  0.083333  0.000000      4.000000
  0.333333  0.083333  0.000000      4.000000
  0.375000  0.083333  0.000000      4.000000
  0.416667  0.083333  0.000000      4.000000
  0.458333  0.083333  0.000000      4.000000
  0.500000  0.083333  0.000000      2.000000
  0.000000  0.111111  0.000000      2.000000
  0.041667  0.111111  0.000000      4.000000
  0.083333  0.111111  0.000000      4.000000
  0.125000  0.111111  0.000000      4.000000
  0.166667  0.111111  0.000000      4.000000
  0.208333  0.111111  0.000000      4.000000
  0.250000  0.111111  0.000000      4.000000
  0.291667  0.111111  0.000000      4.000000
[...]
  0.458333  0.472222  0.000000      4.000000
  0.500000  0.472222  0.000000      2.000000
  0.000000  0.500000  0.000000      1.000000
  0.041667  0.500000  0.000000      2.000000
  0.083333  0.500000  0.000000      2.000000
  0.125000  0.500000  0.000000      2.000000
  0.166667  0.500000  0.000000      2.000000
  0.208333  0.500000  0.000000      2.000000
  0.250000  0.500000  0.000000      2.000000
  0.291667  0.500000  0.000000      2.000000
  0.333333  0.500000  0.000000      2.000000
  0.375000  0.500000  0.000000      2.000000
  0.416667  0.500000  0.000000      2.000000
  0.458333  0.500000  0.000000      2.000000
  0.500000  0.500000  0.000000      1.000000

 Following cartesian coordinates:
            Coordinates               Weight
  0.000000  0.000000  0.000000      1.000000
  0.009792  0.000000  0.000000      2.000000
  0.019584  0.000000  0.000000      2.000000
  0.029376  0.000000  0.000000      2.000000
  0.039168  0.000000  0.000000      2.000000
  0.048959  0.000000  0.000000      2.000000
  0.058751  0.000000  0.000000      2.000000
  0.068543  0.000000  0.000000      2.000000
  0.078335  0.000000  0.000000      2.000000
  0.088127  0.000000  0.000000      2.000000
  0.097919  0.000000  0.000000      2.000000
  0.107711  0.000000  0.000000      2.000000
  0.117503  0.000000  0.000000      1.000000
  0.000000  0.010984  0.000000      2.000000
  0.009792  0.010984  0.000000      4.000000
  0.019584  0.010984  0.000000      4.000000
  0.029376  0.010984  0.000000      4.000000
  0.039168  0.010984  0.000000      4.000000
  0.048959  0.010984  0.000000      4.000000
  0.058751  0.010984  0.000000      4.000000
  0.068543  0.010984  0.000000      4.000000
  0.078335  0.010984  0.000000      4.000000
  0.088127  0.010984  0.000000      4.000000
  0.097919  0.010984  0.000000      4.000000
  0.107711  0.010984  0.000000      4.000000
  0.117503  0.010984  0.000000      2.000000
  0.000000  0.021969  0.000000      2.000000
  0.009792  0.021969  0.000000      4.000000
  0.019584  0.021969  0.000000      4.000000
  0.029376  0.021969  0.000000      4.000000
  0.039168  0.021969  0.000000      4.000000
  0.048959  0.021969  0.000000      4.000000
  0.058751  0.021969  0.000000      4.000000
  0.068543  0.021969  0.000000      4.000000
  0.078335  0.021969  0.000000      4.000000
  0.088127  0.021969  0.000000      4.000000
  0.097919  0.021969  0.000000      4.000000
  0.107711  0.021969  0.000000      4.000000
  0.117503  0.021969  0.000000      2.000000
  0.000000  0.032953  0.000000      2.000000
  0.009792  0.032953  0.000000      4.000000
  0.019584  0.032953  0.000000      4.000000
  0.029376  0.032953  0.000000      4.000000
  0.039168  0.032953  0.000000      4.000000
  0.048959  0.032953  0.000000      4.000000
  0.058751  0.032953  0.000000      4.000000
  0.068543  0.032953  0.000000      4.000000
  0.078335  0.032953  0.000000      4.000000
  0.088127  0.032953  0.000000      4.000000
  0.097919  0.032953  0.000000      4.000000
  0.107711  0.032953  0.000000      4.000000
  0.117503  0.032953  0.000000      2.000000
  0.000000  0.043937  0.000000      2.000000
  0.009792  0.043937  0.000000      4.000000
  0.019584  0.043937  0.000000      4.000000
  0.029376  0.043937  0.000000      4.000000
  0.039168  0.043937  0.000000      4.000000
  0.048959  0.043937  0.000000      4.000000
  0.058751  0.043937  0.000000      4.000000
  0.068543  0.043937  0.000000      4.000000
[...]
  0.107711  0.186733  0.000000      4.000000
  0.117503  0.186733  0.000000      2.000000
  0.000000  0.197717  0.000000      1.000000
  0.009792  0.197717  0.000000      2.000000
  0.019584  0.197717  0.000000      2.000000
  0.029376  0.197717  0.000000      2.000000
  0.039168  0.197717  0.000000      2.000000
  0.048959  0.197717  0.000000      2.000000
  0.058751  0.197717  0.000000      2.000000
  0.068543  0.197717  0.000000      2.000000
  0.078335  0.197717  0.000000      2.000000
  0.088127  0.197717  0.000000      2.000000
  0.097919  0.197717  0.000000      2.000000
  0.107711  0.197717  0.000000      2.000000
  0.117503  0.197717  0.000000      1.000000

 I would recommend the setting:
   dimension x,y,z NGX =    62 NGY =   37 NGZ =  286
[...]
 k-point ** :   0.0417 0.2778 0.0000  plane waves:   42842
 k-point ** :   0.0833 0.2778 0.0000  plane waves:   42852
 k-point ** :   0.1250 0.2778 0.0000  plane waves:   42828
 k-point ** :   0.1667 0.2778 0.0000  plane waves:   42833
 k-point ** :   0.2083 0.2778 0.0000  plane waves:   42840
 k-point ** :   0.2500 0.2778 0.0000  plane waves:   42809
 k-point ** :   0.2917 0.2778 0.0000  plane waves:   42815
 k-point ** :   0.3333 0.2778 0.0000  plane waves:   42800
 k-point ** :   0.3750 0.2778 0.0000  plane waves:   42786
 k-point ** :   0.4167 0.2778 0.0000  plane waves:   42787
 k-point ** :   0.4583 0.2778 0.0000  plane waves:   42743
 k-point ** :   0.5000 0.2778 0.0000  plane waves:   42768
 k-point ** :   0.0000 0.3056 0.0000  plane waves:   42884
 k-point ** :   0.0417 0.3056 0.0000  plane waves:   42881
 k-point ** :   0.0833 0.3056 0.0000  plane waves:   42867
 k-point ** :   0.1250 0.3056 0.0000  plane waves:   42859
 k-point ** :   0.1667 0.3056 0.0000  plane waves:   42846
 k-point ** :   0.2083 0.3056 0.0000  plane waves:   42834
 k-point ** :   0.2500 0.3056 0.0000  plane waves:   42835
 k-point ** :   0.2917 0.3056 0.0000  plane waves:   42808
 k-point ** :   0.3333 0.3056 0.0000  plane waves:   42811
 k-point ** :   0.3750 0.3056 0.0000  plane waves:   42791
 k-point ** :   0.4167 0.3056 0.0000  plane waves:   42785
 k-point ** :   0.4583 0.3056 0.0000  plane waves:   42780
 k-point ** :   0.5000 0.3056 0.0000  plane waves:   42774
 k-point ** :   0.0000 0.3333 0.0000  plane waves:   42898
 k-point ** :   0.0417 0.3333 0.0000  plane waves:   42899
 k-point ** :   0.0833 0.3333 0.0000  plane waves:   42869
[...]
 k-point ** :   0.4583 0.4722 0.0000  plane waves:   42786
 k-point ** :   0.5000 0.4722 0.0000  plane waves:   42764
 k-point ** :   0.0000 0.5000 0.0000  plane waves:   42862
 k-point ** :   0.0417 0.5000 0.0000  plane waves:   42840
 k-point ** :   0.0833 0.5000 0.0000  plane waves:   42854
 k-point ** :   0.1250 0.5000 0.0000  plane waves:   42862
 k-point ** :   0.1667 0.5000 0.0000  plane waves:   42878
 k-point ** :   0.2083 0.5000 0.0000  plane waves:   42902
 k-point ** :   0.2500 0.5000 0.0000  plane waves:   42898
 k-point ** :   0.2917 0.5000 0.0000  plane waves:   42874
 k-point ** :   0.3333 0.5000 0.0000  plane waves:   42860
 k-point ** :   0.3750 0.5000 0.0000  plane waves:   42826
 k-point ** :   0.4167 0.5000 0.0000  plane waves:   42818
 k-point ** :   0.4583 0.5000 0.0000  plane waves:   42774
 k-point ** :   0.5000 0.5000 0.0000  plane waves:   42772

 maximum and minimum number of plane-waves per node :     21494    21353

 maximum number of plane-waves:     42922
 maximum index in each direction:
   IXMAX=   15   IYMAX=    9   IZMAX=   71
   IXMIN=  -16   IYMIN=   -9   IZMIN=  -71

 NGX is ok and might be reduce to  64
 NGY is ok and might be reduce to  38
 NGZ is ok and might be reduce to 286

 parallel 3D FFT for wavefunctions:
    minimum data exchange during FFTs selected (reduces bandwidth)
 parallel 3D FFT for charge:
    minimum data exchange during FFTs selected (reduces bandwidth)

 Broyden mixing: mesh for mixing (old mesh)
   NGX = 31   NGY = 19   NGZ =143
  (NGX  =128   NGY  = 80   NGZ  =576)
  gives a total of  84227 points

 initial charge density was supplied:
 charge density of overlapping atoms calculated
 number of electron      16.0000000 magnetization
 keeping initial charge density in first step

 Maximum index for augmentation-charges         5075 (set IRDMAX)

 First call to EWALD:  gamma=   0.298
 Maximum number of real-space cells 4x 6x 1
 Maximum number of reciprocal cells 2x 1x 8

 FEWALD executed in parallel

----------------------------------------- Iteration    1(   1)  ---------------------------------------

 eigenvalue-minimisations  :  5928
 total energy-change (2. order) : 0.1868130E+03  (-0.1055897E+04)
 number of electron      16.0000000 magnetization
 augmentation part       16.0000000 magnetization

 Free energy of the ion-electron system (eV)
  alpha Z        PSCENC =         6.18334092
  Ewald energy   TEWEN  =      2450.34193281
  -Hartree energ DENC   =     -2879.81234321
  -exchange      EXHF   =         0.00000000
  -V(xc)+E(xc)   XCENC  =        54.81880289
  PAW double counting   =       151.32577238     -155.92769107
  entropy T*S    EENTRO =        -0.00125543
  eigenvalues    EBANDS =       -28.73910745
  atomic energy  EATOM  =       588.62352690
  free energy    TOTEN  =       186.81297875 eV

  energy without entropy =      186.81423418  energy(sigma->0) =      186.81360646

[...]

 eigenvalue-minimisations  : 10584
 total energy-change (2. order) :-0.1967712E+03  (-0.1761214E+03)
 number of electron      16.0000000 magnetization
 augmentation part       16.0000000 magnetization

[...]

 Broyden mixing:
  rms(total) = 0.71031E+00    rms(broyden)= 0.71031E+00
  rms(prec ) = 0.77406E+00
  weight for this iteration     100.00

[...]

 eigenvalues of (default mixing * dielectric matrix)
  average eigenvalue GAMMA=   2.3097
  2.3097

[...]

 average (electrostatic) potential at core
  the test charge radii are     0.6991
  (the norm of the test charge is              1.0000)
       1 -58.3140       2 -58.3140       3 -58.3140       4 -58.3140

 E-fermi :  -2.8237     XC(G=0):  -2.1770     alpha+bet : -1.9046

 k-point     1 :       0.0000    0.0000    0.0000
  band No.  band energies     occupation
      1     -22.0819      2.00000
      2     -16.7054      2.00000
      3     -15.8647      2.00000
      4     -10.2264      2.00000
      5      -9.4734      2.00000
      6      -5.9909      2.00000
      7      -5.7420      2.00000
      8      -4.9055      2.00000
      9      -1.1426      0.00000
     10       0.5446      0.00000
     11       1.3427      0.00000
     12       3.4819      0.00000

[...]

 soft charge-density along one line, spin component           1
         0         1         2         3         4         5         6         7         8         9
 total charge-density along one line

------------------------ aborting loop because EDIFF is reached ----------------------------------------

  FORCE on cell =-STRESS in cart. coord.  units (eV):
  Direction    XX          YY          ZZ          XY          YZ          ZX
  Alpha Z     6.18334     6.18334     6.18334
  Ewald    2983.96269  2980.76398 -3514.38496     0.00000     0.00000     0.00000
  Hartree  2922.00813  2921.00744 -2898.39023    -0.00000    -0.00000    -0.00000
  E(xc)     -57.98929   -57.95943   -60.29591    -0.00000     0.00000    -0.00000
  Local   -6078.93212 -6075.33552  6207.51812    -0.00000     0.00000    -0.00000
  n-local   -13.82016   -13.01382   -12.48188     0.08822    -0.00000     0.00000
  augment    -1.48140    -1.47803    -1.37189    -0.00000     0.00000     0.00000
  Kinetic   240.06784   234.45980   273.22206    -4.64055     0.00000    -0.00000
  Fock        0.00000     0.00000     0.00000     0.00000     0.00000     0.00000
  Total      -0.00096    -5.37225    -0.00134     0.00000     0.00000     0.00000
  in kB      -0.00731   -40.82421    -0.01017     0.00000     0.00000     0.00000

 VOLUME and BASIS-vectors are now :
  energy-cutoff  :     2000.00
  volume of cell :      210.84
      direct lattice vectors                 reciprocal lattice vectors
     4.255219512  0.000000000  0.000000000     0.235005503  0.000000000  0.000000000
     0.000000000  2.528861460  0.000000000     0.000000000  0.395434869  0.000000000
     0.000000000  0.000000000 19.593033377     0.000000000  0.000000000  0.051038549

[...]

 FORCES acting on ions
    electron-ion (+dipol)            ewald-force                    non-local-force                 convergence-correction
   -.529E+01 -.846E-15 0.796E-09   0.529E+01 0.911E-14 0.607E-18   0.769E-02 -.347E-17 0.000E+00   0.479E-09 -.335E-14 -.810E-13
   0.529E+01 -.569E-14 -.224E-08   -.529E+01 -.295E-14 -.557E-18   -.769E-02 0.347E-17 -.258E-25   -.479E-09 -.620E-16 -.810E-13
   -.529E+01 -.202E-12 0.805E-09   0.529E+01 0.413E-14 0.260E-18   0.769E-02 -.104E-16 0.000E+00   0.479E-09 -.211E-14 -.812E-13
   0.529E+01 -.990E-15 -.222E-08   -.529E+01 -.792E-14 -.311E-18   -.769E-02 0.173E-16 0.000E+00   -.479E-09 -.128E-14 -.810E-13
   -.259E-06 -.210E-12 -.285E-08   0.888E-15 0.237E-14 -.481E-34   -.173E-17 0.694E-17 -.258E-25   0.117E-13 -.680E-14 -.324E-12

 POSITION                                       TOTAL-FORCE (eV/Angst)
      0.00271      0.00000      0.00000        -0.001030      0.000000     -0.000000
      0.70649      1.26443      0.00000         0.001030     -0.000000      0.000000
      2.13032      1.26443      0.00000        -0.001030      0.000000     -0.000000
      2.83410      0.00000      0.00000         0.001030     -0.000000      0.000000
    total drift:                               -0.000000     -0.000000     -0.000000

  FREE ENERGIE OF THE ION-ELECTRON SYSTEM (eV)
  free  energy   TOTEN  =       -36.85872239 eV

  energy  without entropy=      -36.85872238  energy(sigma->0) =      -36.85872239

 Quasi-Newton relaxation of ions (Broydens 2nd method)
  g(Force)  = 0.205E-06   g(Stress)= 0.000E+00

 Reset! Starting new Quasi-Newton update for ions

[...]

 d Force =-0.3066661E-06[-0.818E-06, 0.205E-06]  d Energy =-0.2959381E-06-0.107E-07
 d Force =-0.1052511E-02[-0.105E-02,-0.105E-02]  d Ewald  =-0.1052510E-02-0.960E-10

[...]

 retain information from N=  1 steps
 eigenvalues of (default step * inverse Hessian matrix)
  average eigenvalue of G=   0.2002
 eigenvalue spectrum of G is  0.2002

[...]

 d Force = 0.3276771E-06[ 0.102E-08, 0.654E-06]  d Energy = 0.3187073E-06 0.897E-08
 d Force = 0.8420601E-03[ 0.841E-03, 0.843E-03]  d Ewald  = 0.8420601E-03 0.487E-10

[...]

 eigenvalue-minimisations  :  4724
 total energy-change (2. order) : 0.6274377E-09  ( 0.5945309E-09)
 number of electron      16.0000000 magnetization
 augmentation part        0.3726259 magnetization

[...]

 eigenvalue-minimisations  :  2544
 total energy-change (2. order) :-0.7069048E-09  ( 0.1591608E-12)
 number of electron      16.0000000 magnetization
 augmentation part        0.3726259 magnetization

[...]

 d Force =-0.3638361E-12[-0.231E-11, 0.159E-11]  d Energy =-0.2085017E-09 0.208E-09
 d Force = 0.1310350E-05[ 0.131E-05, 0.131E-05]  d Ewald  = 0.1310350E-05-0.909E-12

[...]

 FEWALD executed in parallel

[...]

 eigenvalue-minimisations  :  1385
 total energy-change (2. order) :-0.4353069E-09  (-0.1925209E-13)
 number of electron      16.0000000 magnetization
 augmentation part        0.3726259 magnetization

[...]

 eigenvalue-minimisations  :  1375
 total energy-change (2. order) : 0.2465868E-09  (-0.1321165E-13)
 number of electron      16.0000000 magnetization
 augmentation part        0.3726259 magnetization

[...]

 eigenvalue-minimisations  :  1364
 total energy-change (2. order) :-0.1286935E-09  ( 0.2215512E-13)
 number of electron      16.0000000 magnetization
 augmentation part        0.3726259 magnetization

[...]

 Broyden mixing:
  rms(total) = 0.42096E-09    rms(broyden)= 0.42095E-09
  rms(prec ) = 0.66413E-09
  weight for this iteration     100.00

 eigenvalues of (default mixing * dielectric matrix)
  average eigenvalue GAMMA=   2.1332
  4.0115  2.6824  2.1846  1.0198  0.7676

[...]

----------------------------------------- Iteration    5(   7)  ---------------------------------------

 eigenvalue-minimisations  :  1340
 total energy-change (2. order) : 0.5820766E-10  ( 0.1250029E-14)
 number of electron      16.0000000 magnetization
 augmentation part        0.3726259 magnetization

 Free energy of the ion-electron system (eV)
  alpha Z        PSCENC =         6.18334092
  Ewald energy   TEWEN  =      2450.34214273
  -Hartree energ DENC   =     -2944.62553030
  -exchange      EXHF   =         0.00000000
  -V(xc)+E(xc)   XCENC  =        57.14394570
  PAW double counting   =       268.86858758     -273.98030002
  entropy T*S    EENTRO =        -0.00000001
  eigenvalues    EBANDS =      -189.41443591
  atomic energy  EATOM  =       588.62352690
  free energy    TOTEN  =       -36.85872242 eV

  energy without entropy =      -36.85872240  energy(sigma->0) =      -36.85872241

 average (electrostatic) potential at core
  the test charge radii are     0.6991
  (the norm of the test charge is              1.0000)
       1 -58.3140       2 -58.3140       3 -58.3140       4 -58.3140

 E-fermi :  -2.8237     XC(G=0):  -2.1770     alpha+bet : -1.9046

[...]

 k-point   247 :       0.5000    0.5000    0.0000
  band No.  band energies     occupation
      1     -17.1212      2.00000
      2     -17.1212      2.00000
      3     -15.8427      2.00000
      4     -15.8427      2.00000
      5      -8.9688      2.00000
      6      -8.9688      2.00000
      7      -5.2267      2.00000
      8      -5.2267      2.00000
      9      -1.1728      0.00000
     10      -1.1728      0.00000
     11       4.5911      0.00000
     12       4.5911      0.00000

 soft charge-density along one line, spin component           1
         0         1         2         3         4         5         6         7         8         9
 total charge-density along one line

------------------------ aborting loop because EDIFF is reached ----------------------------------------

  FORCE on cell =-STRESS in cart. coord.  units (eV):
  Direction    XX          YY          ZZ          XY          YZ          ZX
  Alpha Z     6.18334     6.18334     6.18334
  Ewald    2983.97126  2980.75562 -3514.38496     0.00000     0.00000    -0.00000
  Hartree  2922.00937  2921.00638 -2898.39021     0.00000    -0.00000    -0.00000
  E(xc)     -57.98927   -57.95947   -60.29592     0.00000     0.00000    -0.00000
  Local   -6078.94023 -6075.32766  6207.51806    -0.00000     0.00000     0.00000
  n-local   -13.82009   -13.01389   -12.48189     0.08821     0.00000    -0.00000
  augment    -1.48142    -1.47802    -1.37189     0.00000    -0.00000     0.00000
  Kinetic   240.06662   234.46114   273.22213    -4.64051    -0.00000     0.00000
  Fock        0.00000     0.00000     0.00000     0.00000     0.00000     0.00000
  Total      -0.00042    -5.37257    -0.00134     0.00000     0.00000     0.00000
  in kB      -0.00319   -40.82667    -0.01016     0.00000     0.00000     0.00000

 VOLUME and BASIS-vectors are now :
  energy-cutoff  :     2000.00
  volume of cell :      210.84
      direct lattice vectors                 reciprocal lattice vectors
     4.255219512  0.000000000  0.000000000     0.235005503  0.000000000  0.000000000
     0.000000000  2.528861460  0.000000000     0.000000000  0.395434869  0.000000000
     0.000000000  0.000000000 19.593033377     0.000000000  0.000000000  0.051038549

  length of vectors
     4.255219512  2.528861460 19.593033377     0.235005503  0.395434869  0.051038549

 FORCES acting on ions
    electron-ion (+dipol)            ewald-force                    non-local-force                 convergence-correction
   -.530E+01 -.191E-15 0.796E-09   0.529E+01 0.342E-14 0.803E-18   0.805E-02 0.243E-16 -.194E-25   0.108E-08 -.119E-14 0.224E-12
   0.530E+01 -.441E-14 -.224E-08   -.529E+01 0.173E-14 -.232E-18   -.805E-02 -.104E-16 0.194E-25   -.108E-08 -.864E-15 0.224E-12
   -.530E+01 -.200E-12 0.790E-09   0.529E+01 -.541E-15 -.156E-17   0.805E-02 -.104E-16 -.129E-25   0.108E-08 0.232E-14 0.226E-12
   0.530E+01 -.948E-15 -.226E-08   -.529E+01 -.223E-14 0.991E-18   -.805E-02 -.347E-17 0.129E-25   -.108E-08 -.420E-14 0.226E-12
   -.259E-06 -.206E-12 -.292E-08   0.888E-15 0.237E-14 0.000E+00   -.520E-17 0.000E+00 0.000E+00   0.374E-14 -.393E-14 0.901E-12

 POSITION                                       TOTAL-FORCE (eV/Angst)
      0.00270      0.00000     -0.00000        -0.000001     -0.000000      0.000000
      0.70650      1.26443      0.00000         0.000001      0.000000     -0.000000
      2.13031      1.26443     -0.00000        -0.000001     -0.000000      0.000000
      2.83411     -0.00000      0.00000         0.000001      0.000000     -0.000000
    total drift:                               -0.000000     -0.000000     -0.000000

  FREE ENERGIE OF THE ION-ELECTRON SYSTEM (eV)
  free  energy   TOTEN  =       -36.85872242 eV

  energy  without entropy=      -36.85872240  energy(sigma->0) =      -36.85872241

 d Force = 0.7503278E-12[ 0.128E-12, 0.137E-11]  d Energy = 0.6536993E-10-0.646E-10
 d Force =-0.7774194E-06[-0.777E-06,-0.777E-06]  d Ewald  =-0.7774202E-06 0.909E-12

 Quasi-Newton relaxation of ions (Broydens 2nd method)
  g(Force)  = 0.146E-12   g(Stress)= 0.000E+00

 retain information from N=  1 steps
 eigenvalues of (default step * inverse Hessian matrix)
  average eigenvalue of G=   0.0899
 eigenvalue spectrum of G is  0.0899

 reached required accuracy - stopping structural energy minimisation