 vasp.5.3.5 31Mar14 (build Mar 02 2015 18:14:16) complex

 executed on             LinuxIFC date 2018.08.09  18:43:48

 INCAR:
 POTCAR:   PAW_PBE C 08Apr2002
 POTCAR:   PAW_PBE C 08Apr2002
   VRHFIN =C: s2p2

   TITEL  = PAW_PBE C 08Apr2002
   POMASS =   12.011; ZVAL   =    4.000    mass and valenz
   ENMAX  =  400.000; ENMIN  =  300.000 eV
   QCUT   =   -5.516; QGAM   =   11.032    optimization parameters

   Description
     l     E      TYP  RCUT    TYP  RCUT
     0   .000     23  1.200
     0   .000     23  1.200
     1   .000     23  1.500
     1  2.500     23  1.500
     2   .000      7  1.500

 PAW_PBE C 08Apr2002                    :

 POSCAR: MD-kMC export data
  positions in direct lattice
  velocities in cartesian coordinates
 exchange correlation table for  LEXCH =        8
   RHO(1)=    0.500       N(1)  =     2000
   RHO(2)=  100.500       N(2)  =     4000

 ion  position               nearest neighbor table
   1  0.000  0.000  0.000-   4 1.42   2 1.43   2 1.43
   2  0.167  0.500  0.000-   3 1.42   1 1.43   1 1.43
   3  0.500  0.500  0.000-   2 1.42   4 1.43   4 1.43
   4  0.667  0.000  0.000-   1 1.42   3 1.43   3 1.43

  LATTYP: Found a simple orthorhombic cell.
 ALAT       =     2.4795130069
 B/A-ratio  =     1.7218812317
 C/A-ratio  =     8.0324183572

  Lattice vectors:

 A1 = (   0.0000000000,  -2.4795130069,   0.0000000000)
 A2 = (  -4.2694269102,   0.0000000000,   0.0000000000)
 A3 = (   0.0000000000,   0.0000000000, -19.9164857933)

Analysis of symmetry for initial positions (statically):
 Subroutine PRICEL returns following result:

  LATTYP: Found a base centered orthorhombic cell.
 ALAT       =     2.4795130069
 B/A-ratio  =     1.7218812317
 C/A-ratio  =     8.0324183572

[...]

   2 primitive cells build up your supercell.

 Routine SETGRP: Setting up the symmetry group for a
 simple orthorhombic supercell.

 Subroutine GETGRP returns: Found  8 space group operations
 (whereof  4 operations were pure point group operations)
 out of a pool of  8 trial point group operations.

The static configuration has the point symmetry C_2v.
 The point group associated with its full space group is D_2h.

Analysis of symmetry for dynamics (positions and initial velocities):
 Subroutine PRICEL returns following result:

  LATTYP: Found a base centered orthorhombic cell.
 ALAT       =     2.4795130069
 B/A-ratio  =     1.7218812317
 C/A-ratio  =     8.0324183572

  Lattice vectors:

 A1 = (   2.1347134551,  -1.2397565034,   0.0000000000)
 A2 = (  -2.1347134551,  -1.2397565034,   0.0000000000)
 A3 = (   0.0000000000,   0.0000000000, -19.9164857933)

   2 primitive cells build up your supercell.

 Routine SETGRP: Setting up the symmetry group for a
 simple orthorhombic supercell.

 Subroutine GETGRP returns: Found  8 space group operations
 (whereof  4 operations were pure point group operations)
 out of a pool of  8 trial point group operations.

The dynamic configuration has the point symmetry C_2v.
 The point group associated with its full space group is D_2h.

 KPOINTS: Automatic mesh

Automatic generation of k-mesh.
Space group operators:
 irot       det(A)        alpha          n_x          n_y          n_z        tau_x        tau_y        tau_z
    1     1.000000     0.000000     1.000000     0.000000     0.000000     0.000000     0.000000     0.000000
    2    -1.000000   180.000000     0.000000     0.000000     1.000000     0.000000     0.000000     0.000000
    3     1.000000   179.999999     1.000000     0.000000     0.000000     0.000000     0.000000     0.000000
    4    -1.000000   180.000000     0.000000     1.000000     0.000000     0.000000     0.000000     0.000000
    5    -1.000000     0.000000     1.000000     0.000000     0.000000     0.166667    -0.500000     0.000000
    6     1.000000   180.000000     0.000000     0.000000     1.000000     0.166667    -0.500000     0.000000
    7    -1.000000   179.999999     1.000000     0.000000     0.000000     0.166667    -0.500000     0.000000
    8     1.000000   180.000000     0.000000     1.000000     0.000000     0.166667    -0.500000     0.000000

 Subroutine IBZKPT returns following result:

 Found    247 irreducible k-points:

 Following reciprocal coordinates:
            Coordinates               Weight
  0.000000  0.000000  0.000000      1.000000
  0.041667  0.000000  0.000000      2.000000
  0.083333  0.000000  0.000000      2.000000
  0.125000  0.000000  0.000000      2.000000
  0.166667  0.000000  0.000000      2.000000
  0.208333  0.000000  0.000000      2.000000
  0.250000  0.000000  0.000000      2.000000
  0.291667  0.000000  0.000000      2.000000
  0.333333  0.000000  0.000000      2.000000
  0.375000  0.000000  0.000000      2.000000
  0.416667  0.000000  0.000000      2.000000
  0.458333  0.000000  0.000000      2.000000
  0.500000  0.000000  0.000000      1.000000
  0.000000  0.027778  0.000000      2.000000
  0.041667  0.027778  0.000000      4.000000
  0.083333  0.027778  0.000000      4.000000
  0.125000  0.027778  0.000000      4.000000
  0.166667  0.027778  0.000000      4.000000
  0.208333  0.027778  0.000000      4.000000
  0.250000  0.027778  0.000000      4.000000
  0.291667  0.027778  0.000000      4.000000
  0.333333  0.027778  0.000000      4.000000
  0.375000  0.027778  0.000000      4.000000
  0.416667  0.027778  0.000000      4.000000
  0.458333  0.027778  0.000000      4.000000
  0.500000  0.027778  0.000000      2.000000
  0.000000  0.055556  0.000000      2.000000
  0.041667  0.055556  0.000000      4.000000
  0.083333  0.055556  0.000000      4.000000
  0.125000  0.055556  0.000000      4.000000
  0.166667  0.055556  0.000000      4.000000
  0.208333  0.055556  0.000000      4.000000
  0.250000  0.055556  0.000000      4.000000
  0.291667  0.055556  0.000000      4.000000
  0.333333  0.055556  0.000000      4.000000
  0.375000  0.055556  0.000000      4.000000
  0.416667  0.055556  0.000000      4.000000
  0.458333  0.055556  0.000000      4.000000
  0.500000  0.055556  0.000000      2.000000
  0.000000  0.083333  0.000000      2.000000
  0.041667  0.083333  0.000000      4.000000
  0.083333  0.083333  0.000000      4.000000
  0.125000  0.083333  0.000000      4.000000
  0.166667  0.083333  0.000000      4.000000
  0.208333  0.083333  0.000000      4.000000
  0.250000  0.083333  0.000000      4.000000
  0.291667  0.083333  0.000000      4.000000
  0.333333  0.083333  0.000000      4.000000
  0.375000  0.083333  0.000000      4.000000
  0.416667  0.083333  0.000000      4.000000
  0.458333  0.083333  0.000000      4.000000
  0.500000  0.083333  0.000000      2.000000
  0.000000  0.111111  0.000000      2.000000
  0.041667  0.111111  0.000000      4.000000
  0.083333  0.111111  0.000000      4.000000
  0.125000  0.111111  0.000000      4.000000
  0.166667  0.111111  0.000000      4.000000
  0.208333  0.111111  0.000000      4.000000
  0.250000  0.111111  0.000000      4.000000
  0.291667  0.111111  0.000000      4.000000
[...]
  0.458333  0.472222  0.000000      4.000000
  0.500000  0.472222  0.000000      2.000000
  0.000000  0.500000  0.000000      1.000000
  0.041667  0.500000  0.000000      2.000000
  0.083333  0.500000  0.000000      2.000000
  0.125000  0.500000  0.000000      2.000000
  0.166667  0.500000  0.000000      2.000000
  0.208333  0.500000  0.000000      2.000000
  0.250000  0.500000  0.000000      2.000000
  0.291667  0.500000  0.000000      2.000000
  0.333333  0.500000  0.000000      2.000000
  0.375000  0.500000  0.000000      2.000000
  0.416667  0.500000  0.000000      2.000000
  0.458333  0.500000  0.000000      2.000000
  0.500000  0.500000  0.000000      1.000000

 Following cartesian coordinates:
            Coordinates               Weight
  0.000000  0.000000  0.000000      1.000000
  0.009759  0.000000  0.000000      2.000000
  0.019519  0.000000  0.000000      2.000000
  0.029278  0.000000  0.000000      2.000000
  0.039037  0.000000  0.000000      2.000000
  0.048797  0.000000  0.000000      2.000000
  0.058556  0.000000  0.000000      2.000000
  0.068315  0.000000  0.000000      2.000000
  0.078074  0.000000  0.000000      2.000000
  0.087834  0.000000  0.000000      2.000000
  0.097593  0.000000  0.000000      2.000000
  0.107352  0.000000  0.000000      2.000000
  0.117112  0.000000  0.000000      1.000000
  0.000000  0.011203  0.000000      2.000000
  0.009759  0.011203  0.000000      4.000000
  0.019519  0.011203  0.000000      4.000000
  0.029278  0.011203  0.000000      4.000000
  0.039037  0.011203  0.000000      4.000000
  0.048797  0.011203  0.000000      4.000000
  0.058556  0.011203  0.000000      4.000000
  0.068315  0.011203  0.000000      4.000000
  0.078074  0.011203  0.000000      4.000000
  0.087834  0.011203  0.000000      4.000000
  0.097593  0.011203  0.000000      4.000000
  0.107352  0.011203  0.000000      4.000000
  0.117112  0.011203  0.000000      2.000000
  0.000000  0.022406  0.000000      2.000000
  0.009759  0.022406  0.000000      4.000000
  0.019519  0.022406  0.000000      4.000000
  0.029278  0.022406  0.000000      4.000000
  0.039037  0.022406  0.000000      4.000000
  0.048797  0.022406  0.000000      4.000000
  0.058556  0.022406  0.000000      4.000000
  0.068315  0.022406  0.000000      4.000000
  0.078074  0.022406  0.000000      4.000000
  0.087834  0.022406  0.000000      4.000000
  0.097593  0.022406  0.000000      4.000000
  0.107352  0.022406  0.000000      4.000000
  0.117112  0.022406  0.000000      2.000000
  0.000000  0.033609  0.000000      2.000000
  0.009759  0.033609  0.000000      4.000000
  0.019519  0.033609  0.000000      4.000000
  0.029278  0.033609  0.000000      4.000000
  0.039037  0.033609  0.000000      4.000000
  0.048797  0.033609  0.000000      4.000000
  0.058556  0.033609  0.000000      4.000000
  0.068315  0.033609  0.000000      4.000000
  0.078074  0.033609  0.000000      4.000000
  0.087834  0.033609  0.000000      4.000000
  0.097593  0.033609  0.000000      4.000000
  0.107352  0.033609  0.000000      4.000000
  0.117112  0.033609  0.000000      2.000000
  0.000000  0.044812  0.000000      2.000000
  0.009759  0.044812  0.000000      4.000000
  0.019519  0.044812  0.000000      4.000000
  0.029278  0.044812  0.000000      4.000000
  0.039037  0.044812  0.000000      4.000000
  0.048797  0.044812  0.000000      4.000000
  0.058556  0.044812  0.000000      4.000000
  0.068315  0.044812  0.000000      4.000000
[...]
  0.107352  0.190450  0.000000      4.000000
  0.117112  0.190450  0.000000      2.000000
  0.000000  0.201653  0.000000      1.000000
  0.009759  0.201653  0.000000      2.000000
  0.019519  0.201653  0.000000      2.000000
  0.029278  0.201653  0.000000      2.000000
  0.039037  0.201653  0.000000      2.000000
  0.048797  0.201653  0.000000      2.000000
  0.058556  0.201653  0.000000      2.000000
  0.068315  0.201653  0.000000      2.000000
  0.078074  0.201653  0.000000      2.000000
  0.087834  0.201653  0.000000      2.000000
  0.097593  0.201653  0.000000      2.000000
  0.107352  0.201653  0.000000      2.000000
  0.117112  0.201653  0.000000      1.000000

 I would recommend the setting:
   dimension x,y,z NGX =    62 NGY =   36 NGZ =  290
[...]
 k-point ** :   0.5000 0.2222 0.0000  plane waves:   42802
 k-point ** :   0.0000 0.2500 0.0000  plane waves:   42916
 k-point ** :   0.0417 0.2500 0.0000  plane waves:   42878
 k-point ** :   0.0833 0.2500 0.0000  plane waves:   42868
 k-point ** :   0.1250 0.2500 0.0000  plane waves:   42866
 k-point ** :   0.1667 0.2500 0.0000  plane waves:   42847
 k-point ** :   0.2083 0.2500 0.0000  plane waves:   42840
 k-point ** :   0.2500 0.2500 0.0000  plane waves:   42836
 k-point ** :   0.2917 0.2500 0.0000  plane waves:   42828
 k-point ** :   0.3333 0.2500 0.0000  plane waves:   42828
 k-point ** :   0.3750 0.2500 0.0000  plane waves:   42822
 k-point ** :   0.4167 0.2500 0.0000  plane waves:   42790
 k-point ** :   0.4583 0.2500 0.0000  plane waves:   42784
 k-point ** :   0.5000 0.2500 0.0000  plane waves:   42802
 k-point ** :   0.0000 0.2778 0.0000  plane waves:   42932
 k-point ** :   0.0417 0.2778 0.0000  plane waves:   42904
 k-point ** :   0.0833 0.2778 0.0000  plane waves:   42878
 k-point ** :   0.1250 0.2778 0.0000  plane waves:   42868
 k-point ** :   0.1667 0.2778 0.0000  plane waves:   42879
 k-point ** :   0.2083 0.2778 0.0000  plane waves:   42875
 k-point ** :   0.2500 0.2778 0.0000  plane waves:   42838
 k-point ** :   0.2917 0.2778 0.0000  plane waves:   42814
 k-point ** :   0.3333 0.2778 0.0000  plane waves:   42824
 k-point ** :   0.3750 0.2778 0.0000  plane waves:   42823
 k-point ** :   0.4167 0.2778 0.0000  plane waves:   42797
 k-point ** :   0.4583 0.2778 0.0000  plane waves:   42796
 k-point ** :   0.5000 0.2778 0.0000  plane waves:   42790
 k-point ** :   0.0000 0.3056 0.0000  plane waves:   42900
 k-point ** :   0.0417 0.3056 0.0000  plane waves:   42938
 k-point ** :   0.0833 0.3056 0.0000  plane waves:   42909
 k-point ** :   0.1250 0.3056 0.0000  plane waves:   42884
 k-point ** :   0.1667 0.3056 0.0000  plane waves:   42867
 k-point ** :   0.2083 0.3056 0.0000  plane waves:   42869
 k-point ** :   0.2500 0.3056 0.0000  plane waves:   42860
 k-point ** :   0.2917 0.3056 0.0000  plane waves:   42821
 k-point ** :   0.3333 0.3056 0.0000  plane waves:   42814
 k-point ** :   0.3750 0.3056 0.0000  plane waves:   42812
 k-point ** :   0.4167 0.3056 0.0000  plane waves:   42818
 k-point ** :   0.4583 0.3056 0.0000  plane waves:   42817
 k-point ** :   0.5000 0.3056 0.0000  plane waves:   42808
 k-point ** :   0.0000 0.3333 0.0000  plane waves:   42930
 k-point ** :   0.0417 0.3333 0.0000  plane waves:   42932
 k-point ** :   0.0833 0.3333 0.0000  plane waves:   42908
[...]
 k-point ** :   0.4583 0.4722 0.0000  plane waves:   42786
 k-point ** :   0.5000 0.4722 0.0000  plane waves:   42810
 k-point ** :   0.0000 0.5000 0.0000  plane waves:   42918
 k-point ** :   0.0417 0.5000 0.0000  plane waves:   42908
 k-point ** :   0.0833 0.5000 0.0000  plane waves:   42932
 k-point ** :   0.1250 0.5000 0.0000  plane waves:   42916
 k-point ** :   0.1667 0.5000 0.0000  plane waves:   42944
 k-point ** :   0.2083 0.5000 0.0000  plane waves:   42950
 k-point ** :   0.2500 0.5000 0.0000  plane waves:   42922
 k-point ** :   0.2917 0.5000 0.0000  plane waves:   42902
 k-point ** :   0.3333 0.5000 0.0000  plane waves:   42854
 k-point ** :   0.3750 0.5000 0.0000  plane waves:   42816
 k-point ** :   0.4167 0.5000 0.0000  plane waves:   42816
 k-point ** :   0.4583 0.5000 0.0000  plane waves:   42758
 k-point ** :   0.5000 0.5000 0.0000  plane waves:   42764

 maximum and minimum number of plane-waves per node :     21506    21274

 maximum number of plane-waves:     42950
 maximum index in each direction:
   IXMAX=   15   IYMAX=    9   IZMAX=   72
   IXMIN=  -16   IYMIN=   -9   IZMIN=  -72

 NGX is ok and might be reduce to  64
 WARNING: aliasing errors must be expected set NGY to  38 to avoid them
 NGZ is ok and might be reduce to 290
 aliasing errors are usually negligible using standard VASP settings
 and one can safely disregard these warnings

 parallel 3D FFT for wavefunctions:
    minimum data exchange during FFTs selected (reduces bandwidth)
 parallel 3D FFT for charge:
    minimum data exchange during FFTs selected (reduces bandwidth)

 Broyden mixing: mesh for mixing (old mesh)
   NGX = 31   NGY = 19   NGZ =145
  (NGX  =128   NGY  = 72   NGZ  =588)
  gives a total of  85405 points

 initial charge density was supplied:
 charge density of overlapping atoms calculated
 number of electron      16.0000000 magnetization
 keeping initial charge density in first step

 Maximum index for augmentation-charges         4657 (set IRDMAX)

 First call to EWALD:  gamma=   0.298
 Maximum number of real-space cells 4x 6x 1
 Maximum number of reciprocal cells 2x 1x 8

 FEWALD executed in parallel

----------------------------------------- Iteration    1(   1)  ---------------------------------------

 eigenvalue-minimisations  :  5928
 total energy-change (2. order) : 0.1895739E+03  (-0.1062731E+04)
 number of electron      16.0000000 magnetization
 augmentation part       16.0000000 magnetization

 Free energy of the ion-electron system (eV)
  alpha Z        PSCENC =         6.18334092
  Ewald energy   TEWEN  =      2558.59341551
  -Hartree energ DENC   =     -2984.81900663
  -exchange      EXHF   =         0.00000000
  -V(xc)+E(xc)   XCENC  =        55.04065125
  PAW double counting   =       151.32577238     -155.92769107
  entropy T*S    EENTRO =        -0.00126066
  eigenvalues    EBANDS =       -29.44481948
  atomic energy  EATOM  =       588.62352690
  free energy    TOTEN  =       189.57392913 eV

  energy without entropy =      189.57518979  energy(sigma->0) =      189.57455946

[...]

 eigenvalue-minimisations  : 10436
 total energy-change (2. order) :-0.1986362E+03  (-0.1763379E+03)
 number of electron      16.0000000 magnetization
 augmentation part       16.0000000 magnetization

[...]

 Broyden mixing:
  rms(total) = 0.73046E+00    rms(broyden)= 0.73046E+00
  rms(prec ) = 0.79440E+00
  weight for this iteration     100.00

[...]

 eigenvalues of (default mixing * dielectric matrix)
  average eigenvalue GAMMA=   2.3167
  2.3167

[...]

WARNING in EDDRMM: call to ZHEGV failed, returncode =   6  3  1
WARNING in EDDRMM: call to ZHEGV failed, returncode =   6  3  1

[...]

 average (electrostatic) potential at core
  the test charge radii are     0.6991
  (the norm of the test charge is              1.0000)
       1 -58.2145       2 -58.2145       3 -58.2145       4 -58.2145

 E-fermi :  -2.7683     XC(G=0):  -2.1525     alpha+bet : -1.9046

 k-point     1 :       0.0000    0.0000    0.0000
  band No.  band energies     occupation
      1     -22.2191      2.00000
      2     -16.9566      2.00000
      3     -15.9505      2.00000
      4     -10.3323      2.00000
      5      -9.2264      2.00000
      6      -5.8316      2.00000
      7      -5.7739      2.00000
      8      -5.0688      2.00000
      9      -1.0866      0.00000
     10       0.5278      0.00000
     11       1.3276      0.00000
     12       1.7065      0.00000

[...]

 soft charge-density along one line, spin component           1
         0         1         2         3         4         5         6         7         8         9
 total charge-density along one line

------------------------ aborting loop because EDIFF is reached ----------------------------------------

  FORCE on cell =-STRESS in cart. coord.  units (eV):
  Direction    XX          YY          ZZ          XY          YZ          ZX
  Alpha Z     6.18334     6.18334     6.18334
  Ewald    3095.28785  3094.68278 -3631.37746     0.00000     0.00000    -0.00000
  Hartree  3029.96438  3029.75269 -3007.10813     0.00000    -0.00000    -0.00000
  E(xc)     -58.26910   -58.26312   -60.60160    -0.00000    -0.00000    -0.00000
  Local   -6297.81760 -6297.10647  6432.50987     0.00000    -0.00000    -0.00000
  n-local   -13.92616   -13.75684   -12.71013     0.06291    -0.00000     0.00000
  augment    -1.52946    -1.52878    -1.40584     0.00000     0.00000    -0.00000
  Kinetic   240.10576   238.93922   274.50861    -4.60992     0.00000    -0.00000
  Fock        0.00000     0.00000     0.00000     0.00000     0.00000     0.00000
  Total      -0.00099    -1.09717    -0.00133     0.00000     0.00000     0.00000
  in kB      -0.00753    -8.33753    -0.01009     0.00000     0.00000     0.00000

 VOLUME and BASIS-vectors are now :
  energy-cutoff  :     2000.00
  volume of cell :      210.84
      direct lattice vectors                 reciprocal lattice vectors
     4.269426910  0.000000000  0.000000000     0.234223473  0.000000000  0.000000000
     0.000000000  2.479513007  0.000000000     0.000000000  0.403305003  0.000000000
     0.000000000  0.000000000 19.916485793     0.000000000  0.000000000  0.050209661

[...]

 FORCES acting on ions
    electron-ion (+dipol)            ewald-force                    non-local-force                 convergence-correction
   -.109E+01 0.120E-14 0.288E-09   0.109E+01 -.518E-14 -.676E-31   -.166E-02 0.347E-17 0.310E-24   0.730E-06 -.168E-14 0.195E-12
   0.109E+01 0.113E-13 -.456E-08   -.109E+01 0.440E-14 0.491E-18   0.166E-02 0.000E+00 0.000E+00   -.730E-06 -.102E-14 0.195E-12
   -.109E+01 0.589E-12 0.302E-09   0.109E+01 -.668E-14 0.676E-31   -.166E-02 0.347E-17 0.000E+00   0.730E-06 -.175E-14 0.196E-12
   0.109E+01 -.489E-15 -.457E-08   -.109E+01 0.289E-14 -.491E-18   0.166E-02 0.000E+00 -.207E-24   -.730E-06 -.911E-15 0.195E-12
   -.367E-06 0.601E-12 -.854E-08   -.111E-14 -.457E-14 0.000E+00   0.867E-18 0.694E-17 0.103E-24   -.664E-12 -.535E-14 0.782E-12

 POSITION                                       TOTAL-FORCE (eV/Angst)
      0.00056      0.00000      0.00000        -0.001167      0.000000      0.000000
      0.71101      1.23976      0.00000         0.001167     -0.000000     -0.000000
      2.13528      1.23976      0.00000        -0.001167      0.000000      0.000000
      2.84572      0.00000      0.00000         0.001167     -0.000000     -0.000000
    total drift:                               -0.000000      0.000000     -0.000000

  FREE ENERGIE OF THE ION-ELECTRON SYSTEM (eV)
  free  energy   TOTEN  =       -36.92275666 eV

  energy  without entropy=      -36.92266694  energy(sigma->0) =      -36.92271180

 Quasi-Newton relaxation of ions (Broydens 2nd method)
  g(Force)  = 0.263E-06   g(Stress)= 0.000E+00

 Reset! Starting new Quasi-Newton update for ions

[...]

 d Force =-0.3979427E-06[-0.106E-05, 0.263E-06]  d Energy =-0.3948138E-06-0.313E-08
 d Force =-0.2472183E-03[-0.249E-03,-0.245E-03]  d Ewald  =-0.2472182E-03-0.143E-09

[...]

 retain information from N=  1 steps
 eigenvalues of (default step * inverse Hessian matrix)
  average eigenvalue of G=   0.1990
 eigenvalue spectrum of G is  0.1990

 FEWALD executed in parallel

[...]

 eigenvalue-minimisations  :  5933
 total energy-change (2. order) :-0.1160879E-07  (-0.3586338E-07)
 number of electron      16.0000000 magnetization
 augmentation part        0.3799901 magnetization

[...]

WARNING in EDDRMM: call to ZHEGV failed, returncode =   6  3  1

[...]

 Broyden mixing:
  rms(total) = 0.48990E-05    rms(broyden)= 0.48990E-05
  rms(prec ) = 0.50354E-05
  weight for this iteration     100.00

 eigenvalues of (default mixing * dielectric matrix)
  average eigenvalue GAMMA=   2.1976
  3.3578  0.9908  2.2442

[...]

----------------------------------------- Iteration    3(   5)  ---------------------------------------

 eigenvalue-minimisations  :  4203
 total energy-change (2. order) : 0.2421530E-10  (-0.2523511E-10)
 number of electron      16.0000000 magnetization
 augmentation part        0.3799902 magnetization

 Free energy of the ion-electron system (eV)
  alpha Z        PSCENC =         6.18334092
  Ewald energy   TEWEN  =      2558.59346433
  -Hartree energ DENC   =     -3052.60900880
  -exchange      EXHF   =         0.00000000
  -V(xc)+E(xc)   XCENC  =        57.44526489
  PAW double counting   =       275.38040075     -280.52152782
  entropy T*S    EENTRO =        -0.00008940
  eigenvalues    EBANDS =      -190.01812847
  atomic energy  EATOM  =       588.62352690
  free energy    TOTEN  =       -36.92275669 eV

  energy without entropy =      -36.92266729  energy(sigma->0) =      -36.92271199

 average (electrostatic) potential at core
  the test charge radii are     0.6991
  (the norm of the test charge is              1.0000)
       1 -58.2145       2 -58.2145       3 -58.2145       4 -58.2145

 E-fermi :  -2.7683     XC(G=0):  -2.1493     alpha+bet : -1.9046

[...]

 k-point   247 :       0.5000    0.5000    0.0000
  band No.  band energies     occupation
      1     -17.0420      2.00000
      2     -17.0420      2.00000
      3     -15.9475      2.00000
      4     -15.9475      2.00000
      5      -9.1205      2.00000
      6      -9.1205      2.00000
      7      -5.1350      2.00000
      8      -5.1350      2.00000
      9      -1.0956      0.00000
     10      -1.0956      0.00000
     11       4.6056      0.00000
     12       4.6056      0.00000

 soft charge-density along one line, spin component           1
         0         1         2         3         4         5         6         7         8         9
 total charge-density along one line

------------------------ aborting loop because EDIFF is reached ----------------------------------------

  FORCE on cell =-STRESS in cart. coord.  units (eV):
  Direction    XX          YY          ZZ          XY          YZ          ZX
  Alpha Z     6.18334     6.18334     6.18334
  Ewald    3095.29764  3094.67303 -3631.37746    -0.00000     0.00000     0.00000
  Hartree  3029.96574  3029.75139 -3007.10812    -0.00000    -0.00000    -0.00000
  E(xc)     -58.26907   -58.26316   -60.60161    -0.00000    -0.00000     0.00000
  Local   -6297.82684 -6297.09730  6432.50986    -0.00000     0.00000     0.00000
  n-local   -13.92608   -13.75692   -12.71013     0.06290     0.00000    -0.00000
  augment    -1.52948    -1.52876    -1.40584     0.00000     0.00000     0.00000
  Kinetic   240.10428   238.94073   274.50863    -4.60986    -0.00000     0.00000
  Fock        0.00000     0.00000     0.00000     0.00000     0.00000     0.00000
  Total      -0.00047    -1.09764    -0.00132     0.00000     0.00000     0.00000
  in kB      -0.00354    -8.34107    -0.01007     0.00000     0.00000     0.00000

 VOLUME and BASIS-vectors are now :
  energy-cutoff  :     2000.00
  volume of cell :      210.84
      direct lattice vectors                 reciprocal lattice vectors
     4.269426910  0.000000000  0.000000000     0.234223473  0.000000000  0.000000000
     0.000000000  2.479513007  0.000000000     0.000000000  0.403305003  0.000000000
     0.000000000  0.000000000 19.916485793     0.000000000  0.000000000  0.050209661

  length of vectors
     4.269426910  2.479513007 19.916485793     0.234223473  0.403305003  0.050209661

 FORCES acting on ions
    electron-ion (+dipol)            ewald-force                    non-local-force                 convergence-correction
   -.109E+01 0.732E-16 0.283E-09   0.109E+01 -.258E-14 -.571E-18   -.124E-02 -.139E-16 0.000E+00   -.320E-04 -.258E-14 -.203E-11
   0.109E+01 0.199E-12 -.458E-08   -.109E+01 -.817E-15 -.129E-18   0.124E-02 0.104E-16 0.000E+00   0.320E-04 0.274E-15 -.203E-11
   -.109E+01 -.196E-12 0.277E-09   0.109E+01 -.147E-14 0.571E-18   -.124E-02 0.000E+00 0.000E+00   -.320E-04 -.505E-14 -.203E-11
   0.109E+01 0.181E-15 -.456E-08   -.109E+01 0.297E-15 0.129E-18   0.124E-02 0.347E-17 0.000E+00   0.320E-04 0.197E-14 -.202E-11
   -.367E-06 0.292E-14 -.858E-08   -.111E-14 -.457E-14 -.481E-34   -.217E-18 0.000E+00 0.000E+00   0.215E-10 -.539E-14 -.812E-11

 POSITION                                       TOTAL-FORCE (eV/Angst)
      0.00055      0.00000      0.00000        -0.000001      0.000000      0.000000
      0.71102      1.23976     -0.00000         0.000001     -0.000000     -0.000000
      2.13526      1.23976      0.00000        -0.000001     -0.000000      0.000000
      2.84573     -0.00000     -0.00000         0.000001      0.000000     -0.000000
    total drift:                               -0.000000     -0.000000     -0.000000

  FREE ENERGIE OF THE ION-ELECTRON SYSTEM (eV)
  free  energy   TOTEN  =       -36.92275669 eV

  energy  without entropy=      -36.92266729  energy(sigma->0) =      -36.92271199

 d Force = 0.4240462E-06[-0.114E-09, 0.848E-06]  d Energy = 0.4223134E-06 0.173E-08
 d Force = 0.1983910E-03[ 0.197E-03, 0.200E-03]  d Ewald  = 0.1983909E-03 0.741E-10

 Quasi-Newton relaxation of ions (Broydens 2nd method)
  g(Force)  = 0.776E-13   g(Stress)= 0.000E+00

 retain information from N=  1 steps
 eigenvalues of (default step * inverse Hessian matrix)
  average eigenvalue of G=   0.1989
 eigenvalue spectrum of G is  0.1989

 reached required accuracy - stopping structural energy minimisation