 vasp.5.3.5 31Mar14 (build Mar 02 2015 18:14:16) complex

 executed on             LinuxIFC date 2018.08.10  14:47:48

 INCAR:
 POTCAR:   PAW_PBE C 08Apr2002
 POTCAR:   PAW_PBE C 08Apr2002
   VRHFIN =C: s2p2

   TITEL  = PAW_PBE C 08Apr2002
   POMASS =   12.011; ZVAL   =    4.000    mass and valenz
   ENMAX  =  400.000; ENMIN  =  300.000 eV
   QCUT   =   -5.516; QGAM   =   11.032    optimization parameters

   Description
     l     E      TYP  RCUT    TYP  RCUT
     0   .000     23  1.200
     0   .000     23  1.200
     1   .000     23  1.500
     1  2.500     23  1.500
     2   .000      7  1.500

 PAW_PBE C 08Apr2002                    :

 POSCAR: MD-kMC export data
  positions in direct lattice
  velocities in cartesian coordinates
 exchange correlation table for  LEXCH =        8
   RHO(1)=    0.500       N(1)  =     2000
   RHO(2)=  100.500       N(2)  =     4000

 ion  position               nearest neighbor table
   1  0.999  0.000  0.000-   2 1.43   2 1.43   4 1.46
   2  0.167  0.500  0.000-   1 1.43   1 1.43   3 1.46
   3  0.499  0.500  0.000-   4 1.43   4 1.43   2 1.46
   4  0.667  0.000  0.000-   3 1.43   3 1.43   1 1.46

  LATTYP: Found a simple orthorhombic cell.
 ALAT       =     2.4570954236
 B/A-ratio  =     1.7829798785
 C/A-ratio  =     7.9714288412

  Lattice vectors:

 A1 = (   0.0000000000,  -2.4570954236,   0.0000000000)
 A2 = (  -4.3809516998,   0.0000000000,   0.0000000000)
 A3 = (   0.0000000000,   0.0000000000, -19.5865613250)

Analysis of symmetry for initial positions (statically):
 Subroutine PRICEL returns following result:

  LATTYP: Found a base centered orthorhombic cell.
 ALAT       =     2.4570954236
 B/A-ratio  =     1.7829798785
 C/A-ratio  =     7.9714288412

[...]

   2 primitive cells build up your supercell.

 Routine SETGRP: Setting up the symmetry group for a
 simple orthorhombic supercell.

 Subroutine GETGRP returns: Found  8 space group operations
 (whereof  4 operations were pure point group operations)
 out of a pool of  8 trial point group operations.

The static configuration has the point symmetry C_2v.
 The point group associated with its full space group is D_2h.

Analysis of symmetry for dynamics (positions and initial velocities):
 Subroutine PRICEL returns following result:

  LATTYP: Found a base centered orthorhombic cell.
 ALAT       =     2.4570954236
 B/A-ratio  =     1.7829798785
 C/A-ratio  =     7.9714288412

  Lattice vectors:

 A1 = (   2.1904758499,  -1.2285477118,   0.0000000000)
 A2 = (  -2.1904758499,  -1.2285477118,   0.0000000000)
 A3 = (   0.0000000000,   0.0000000000, -19.5865613250)

   2 primitive cells build up your supercell.

 Routine SETGRP: Setting up the symmetry group for a
 simple orthorhombic supercell.

 Subroutine GETGRP returns: Found  8 space group operations
 (whereof  4 operations were pure point group operations)
 out of a pool of  8 trial point group operations.

The dynamic configuration has the point symmetry C_2v.
 The point group associated with its full space group is D_2h.

 KPOINTS: Automatic mesh

Automatic generation of k-mesh.
Space group operators:
 irot       det(A)        alpha          n_x          n_y          n_z        tau_x        tau_y        tau_z
    1     1.000000     0.000000     1.000000     0.000000     0.000000     0.000000     0.000000     0.000000
    2    -1.000000   180.000000     0.000000     0.000000     1.000000     0.000000     0.000000     0.000000
    3     1.000000   180.000000     1.000000     0.000000     0.000000     0.000000     0.000000     0.000000
    4    -1.000000   180.000000     0.000000     1.000000     0.000000     0.000000     0.000000     0.000000
    5    -1.000000     0.000000     1.000000     0.000000     0.000000     0.166667    -0.500000     0.000000
    6     1.000000   180.000000     0.000000     0.000000     1.000000     0.166667    -0.500000     0.000000
    7    -1.000000   180.000000     1.000000     0.000000     0.000000     0.166667    -0.500000     0.000000
    8     1.000000   180.000000     0.000000     1.000000     0.000000     0.166667    -0.500000     0.000000

 Subroutine IBZKPT returns following result:

 Found    247 irreducible k-points:

 Following reciprocal coordinates:
            Coordinates               Weight
  0.000000  0.000000  0.000000      1.000000
  0.041667  0.000000  0.000000      2.000000
  0.083333  0.000000  0.000000      2.000000
  0.125000  0.000000  0.000000      2.000000
  0.166667  0.000000  0.000000      2.000000
  0.208333  0.000000  0.000000      2.000000
  0.250000  0.000000  0.000000      2.000000
  0.291667  0.000000  0.000000      2.000000
  0.333333  0.000000  0.000000      2.000000
  0.375000  0.000000  0.000000      2.000000
  0.416667  0.000000  0.000000      2.000000
  0.458333  0.000000  0.000000      2.000000
  0.500000  0.000000  0.000000      1.000000
  0.000000  0.027778  0.000000      2.000000
  0.041667  0.027778  0.000000      4.000000
  0.083333  0.027778  0.000000      4.000000
  0.125000  0.027778  0.000000      4.000000
  0.166667  0.027778  0.000000      4.000000
  0.208333  0.027778  0.000000      4.000000
  0.250000  0.027778  0.000000      4.000000
  0.291667  0.027778  0.000000      4.000000
  0.333333  0.027778  0.000000      4.000000
  0.375000  0.027778  0.000000      4.000000
  0.416667  0.027778  0.000000      4.000000
  0.458333  0.027778  0.000000      4.000000
  0.500000  0.027778  0.000000      2.000000
  0.000000  0.055556  0.000000      2.000000
  0.041667  0.055556  0.000000      4.000000
  0.083333  0.055556  0.000000      4.000000
  0.125000  0.055556  0.000000      4.000000
  0.166667  0.055556  0.000000      4.000000
  0.208333  0.055556  0.000000      4.000000
  0.250000  0.055556  0.000000      4.000000
  0.291667  0.055556  0.000000      4.000000
  0.333333  0.055556  0.000000      4.000000
  0.375000  0.055556  0.000000      4.000000
  0.416667  0.055556  0.000000      4.000000
  0.458333  0.055556  0.000000      4.000000
  0.500000  0.055556  0.000000      2.000000
  0.000000  0.083333  0.000000      2.000000
  0.041667  0.083333  0.000000      4.000000
  0.083333  0.083333  0.000000      4.000000
  0.125000  0.083333  0.000000      4.000000
  0.166667  0.083333  0.000000      4.000000
  0.208333  0.083333  0.000000      4.000000
  0.250000  0.083333  0.000000      4.000000
  0.291667  0.083333  0.000000      4.000000
  0.333333  0.083333  0.000000      4.000000
  0.375000  0.083333  0.000000      4.000000
  0.416667  0.083333  0.000000      4.000000
  0.458333  0.083333  0.000000      4.000000
  0.500000  0.083333  0.000000      2.000000
  0.000000  0.111111  0.000000      2.000000
  0.041667  0.111111  0.000000      4.000000
  0.083333  0.111111  0.000000      4.000000
  0.125000  0.111111  0.000000      4.000000
  0.166667  0.111111  0.000000      4.000000
  0.208333  0.111111  0.000000      4.000000
  0.250000  0.111111  0.000000      4.000000
  0.291667  0.111111  0.000000      4.000000
[...]
  0.458333  0.472222  0.000000      4.000000
  0.500000  0.472222  0.000000      2.000000
  0.000000  0.500000  0.000000      1.000000
  0.041667  0.500000  0.000000      2.000000
  0.083333  0.500000  0.000000      2.000000
  0.125000  0.500000  0.000000      2.000000
  0.166667  0.500000  0.000000      2.000000
  0.208333  0.500000  0.000000      2.000000
  0.250000  0.500000  0.000000      2.000000
  0.291667  0.500000  0.000000      2.000000
  0.333333  0.500000  0.000000      2.000000
  0.375000  0.500000  0.000000      2.000000
  0.416667  0.500000  0.000000      2.000000
  0.458333  0.500000  0.000000      2.000000
  0.500000  0.500000  0.000000      1.000000

 Following cartesian coordinates:
            Coordinates               Weight
  0.000000  0.000000  0.000000      1.000000
  0.009511  0.000000  0.000000      2.000000
  0.019022  0.000000  0.000000      2.000000
  0.028533  0.000000  0.000000      2.000000
  0.038043  0.000000  0.000000      2.000000
  0.047554  0.000000  0.000000      2.000000
  0.057065  0.000000  0.000000      2.000000
  0.066576  0.000000  0.000000      2.000000
  0.076087  0.000000  0.000000      2.000000
  0.085598  0.000000  0.000000      2.000000
  0.095109  0.000000  0.000000      2.000000
  0.104620  0.000000  0.000000      2.000000
  0.114130  0.000000  0.000000      1.000000
  0.000000  0.011305  0.000000      2.000000
  0.009511  0.011305  0.000000      4.000000
  0.019022  0.011305  0.000000      4.000000
  0.028533  0.011305  0.000000      4.000000
  0.038043  0.011305  0.000000      4.000000
  0.047554  0.011305  0.000000      4.000000
  0.057065  0.011305  0.000000      4.000000
  0.066576  0.011305  0.000000      4.000000
  0.076087  0.011305  0.000000      4.000000
  0.085598  0.011305  0.000000      4.000000
  0.095109  0.011305  0.000000      4.000000
  0.104620  0.011305  0.000000      4.000000
  0.114130  0.011305  0.000000      2.000000
  0.000000  0.022610  0.000000      2.000000
  0.009511  0.022610  0.000000      4.000000
  0.019022  0.022610  0.000000      4.000000
  0.028533  0.022610  0.000000      4.000000
  0.038043  0.022610  0.000000      4.000000
  0.047554  0.022610  0.000000      4.000000
  0.057065  0.022610  0.000000      4.000000
  0.066576  0.022610  0.000000      4.000000
  0.076087  0.022610  0.000000      4.000000
  0.085598  0.022610  0.000000      4.000000
  0.095109  0.022610  0.000000      4.000000
  0.104620  0.022610  0.000000      4.000000
  0.114130  0.022610  0.000000      2.000000
  0.000000  0.033915  0.000000      2.000000
  0.009511  0.033915  0.000000      4.000000
  0.019022  0.033915  0.000000      4.000000
  0.028533  0.033915  0.000000      4.000000
  0.038043  0.033915  0.000000      4.000000
  0.047554  0.033915  0.000000      4.000000
  0.057065  0.033915  0.000000      4.000000
  0.066576  0.033915  0.000000      4.000000
  0.076087  0.033915  0.000000      4.000000
  0.085598  0.033915  0.000000      4.000000
  0.095109  0.033915  0.000000      4.000000
  0.104620  0.033915  0.000000      4.000000
  0.114130  0.033915  0.000000      2.000000
  0.000000  0.045221  0.000000      2.000000
  0.009511  0.045221  0.000000      4.000000
  0.019022  0.045221  0.000000      4.000000
  0.028533  0.045221  0.000000      4.000000
  0.038043  0.045221  0.000000      4.000000
  0.047554  0.045221  0.000000      4.000000
  0.057065  0.045221  0.000000      4.000000
  0.066576  0.045221  0.000000      4.000000
[...]
  0.104620  0.192187  0.000000      4.000000
  0.114130  0.192187  0.000000      2.000000
  0.000000  0.203492  0.000000      1.000000
  0.009511  0.203492  0.000000      2.000000
  0.019022  0.203492  0.000000      2.000000
  0.028533  0.203492  0.000000      2.000000
  0.038043  0.203492  0.000000      2.000000
  0.047554  0.203492  0.000000      2.000000
  0.057065  0.203492  0.000000      2.000000
  0.066576  0.203492  0.000000      2.000000
  0.076087  0.203492  0.000000      2.000000
  0.085598  0.203492  0.000000      2.000000
  0.095109  0.203492  0.000000      2.000000
  0.104620  0.203492  0.000000      2.000000
  0.114130  0.203492  0.000000      1.000000

 I would recommend the setting:
   dimension x,y,z NGX =    64 NGY =   36 NGZ =  286
[...]
 k-point ** :   0.1667 0.3056 0.0000  plane waves:   42861
 k-point ** :   0.2083 0.3056 0.0000  plane waves:   42867
 k-point ** :   0.2500 0.3056 0.0000  plane waves:   42857
 k-point ** :   0.2917 0.3056 0.0000  plane waves:   42867
 k-point ** :   0.3333 0.3056 0.0000  plane waves:   42864
 k-point ** :   0.3750 0.3056 0.0000  plane waves:   42880
 k-point ** :   0.4167 0.3056 0.0000  plane waves:   42886
 k-point ** :   0.4583 0.3056 0.0000  plane waves:   42882
 k-point ** :   0.5000 0.3056 0.0000  plane waves:   42888
 k-point ** :   0.0000 0.3333 0.0000  plane waves:   42814
 k-point ** :   0.0417 0.3333 0.0000  plane waves:   42820
 k-point ** :   0.0833 0.3333 0.0000  plane waves:   42836
[...]
 k-point ** :   0.4583 0.4722 0.0000  plane waves:   42972
 k-point ** :   0.5000 0.4722 0.0000  plane waves:   42944
 k-point ** :   0.0000 0.5000 0.0000  plane waves:   42834
 k-point ** :   0.0417 0.5000 0.0000  plane waves:   42828
 k-point ** :   0.0833 0.5000 0.0000  plane waves:   42832
 k-point ** :   0.1250 0.5000 0.0000  plane waves:   42864
 k-point ** :   0.1667 0.5000 0.0000  plane waves:   42860
 k-point ** :   0.2083 0.5000 0.0000  plane waves:   42890
 k-point ** :   0.2500 0.5000 0.0000  plane waves:   42874
 k-point ** :   0.2917 0.5000 0.0000  plane waves:   42926
 k-point ** :   0.3333 0.5000 0.0000  plane waves:   42924
 k-point ** :   0.3750 0.5000 0.0000  plane waves:   42914
 k-point ** :   0.4167 0.5000 0.0000  plane waves:   42940
 k-point ** :   0.4583 0.5000 0.0000  plane waves:   42952
 k-point ** :   0.5000 0.5000 0.0000  plane waves:   42968

 maximum and minimum number of plane-waves per node :     21498    21320

 maximum number of plane-waves:     42972
 maximum index in each direction:
   IXMAX=   15   IYMAX=    8   IZMAX=   71
   IXMIN=  -16   IYMIN=   -9   IZMIN=  -71

 NGX is ok and might be reduce to  64
 NGY is ok and might be reduce to  36
 NGZ is ok and might be reduce to 286

 parallel 3D FFT for wavefunctions:
    minimum data exchange during FFTs selected (reduces bandwidth)
 parallel 3D FFT for charge:
    minimum data exchange during FFTs selected (reduces bandwidth)

 Broyden mixing: mesh for mixing (old mesh)
   NGX = 31   NGY = 17   NGZ =143
  (NGX  =128   NGY  = 72   NGZ  =576)
  gives a total of  75361 points

 initial charge density was supplied:
 charge density of overlapping atoms calculated
 number of electron      16.0000000 magnetization
 keeping initial charge density in first step

 Maximum index for augmentation-charges         4569 (set IRDMAX)

 First call to EWALD:  gamma=   0.298
 Maximum number of real-space cells 4x 6x 1
 Maximum number of reciprocal cells 2x 1x 8

 FEWALD executed in parallel

----------------------------------------- Iteration    1(   1)  ---------------------------------------

 eigenvalue-minimisations  :  5928
 total energy-change (2. order) : 0.1876198E+03  (-0.1068036E+04)
 number of electron      16.0000000 magnetization
 augmentation part       16.0000000 magnetization

 Free energy of the ion-electron system (eV)
  alpha Z        PSCENC =         6.18334092
  Ewald energy   TEWEN  =      2448.20273867
  -Hartree energ DENC   =     -2877.73401160
  -exchange      EXHF   =         0.00000000
  -V(xc)+E(xc)   XCENC  =        54.81451521
  PAW double counting   =       151.32577238     -155.92769107
  entropy T*S    EENTRO =        -0.00145975
  eigenvalues    EBANDS =       -27.86689447
  atomic energy  EATOM  =       588.62352690
  free energy    TOTEN  =       187.61983720 eV

  energy without entropy =      187.62129695  energy(sigma->0) =      187.62056707

[...]

 eigenvalue-minimisations  : 10336
 total energy-change (2. order) :-0.1966025E+03  (-0.1748290E+03)
 number of electron      16.0000000 magnetization
 augmentation part       16.0000000 magnetization

[...]

 Broyden mixing:
  rms(total) = 0.70810E+00    rms(broyden)= 0.70810E+00
  rms(prec ) = 0.77156E+00
  weight for this iteration     100.00

[...]

 eigenvalues of (default mixing * dielectric matrix)
  average eigenvalue GAMMA=   2.3105
  2.3105

[...]

WARNING in EDDRMM: call to ZHEGV failed, returncode =   6  3  1
WARNING in EDDRMM: call to ZHEGV failed, returncode =   6  3  1
WARNING in EDDRMM: call to ZHEGV failed, returncode =   6  3  1
WARNING in EDDRMM: call to ZHEGV failed, returncode =   6  3  1
WARNING in EDDRMM: call to ZHEGV failed, returncode =   6  3  1
WARNING in EDDRMM: call to ZHEGV failed, returncode =   6  3  1
WARNING in EDDRMM: call to ZHEGV failed, returncode =   6  3  1
WARNING in EDDRMM: call to ZHEGV failed, returncode =   6  3  1
WARNING in EDDRMM: call to ZHEGV failed, returncode =   6  3  1
WARNING in EDDRMM: call to ZHEGV failed, returncode =   6  3  1
WARNING in EDDRMM: call to ZHEGV failed, returncode =   6  3  1
WARNING in EDDRMM: call to ZHEGV failed, returncode =   6  3  1
WARNING in EDDRMM: call to ZHEGV failed, returncode =   6  3  1
WARNING in EDDRMM: call to ZHEGV failed, returncode =   6  3  1

[...]

 average (electrostatic) potential at core
  the test charge radii are     0.6991
  (the norm of the test charge is              1.0000)
       1 -58.3159       2 -58.3159       3 -58.3159       4 -58.3159

 E-fermi :  -2.8248     XC(G=0):  -2.1803     alpha+bet : -1.9046

 k-point     1 :       0.0000    0.0000    0.0000
  band No.  band energies     occupation
      1     -22.0793      2.00000
      2     -17.2594      2.00000
      3     -15.8312      2.00000
      4     -10.2243      2.00000
      5      -8.8020      2.00000
      6      -6.0080      2.00000
      7      -5.7269      2.00000
      8      -5.3373      2.00000
      9      -1.1866      0.00000
     10       0.5448      0.00000
     11       1.3424      0.00000
     12       1.7305      0.00000

[...]

 soft charge-density along one line, spin component           1
         0         1         2         3         4         5         6         7         8         9
 total charge-density along one line

------------------------ aborting loop because EDIFF is reached ----------------------------------------

  FORCE on cell =-STRESS in cart. coord.  units (eV):
  Direction    XX          YY          ZZ          XY          YZ          ZX
  Alpha Z     6.18334     6.18334     6.18334
  Ewald    2978.39213  2981.87396 -3512.06356     0.00000     0.00000     0.00000
  Hartree  2918.76864  2919.95674 -2896.23452     0.00000    -0.00000    -0.00000
  E(xc)     -57.95475   -57.98281   -60.29004    -0.00000    -0.00000    -0.00000
  Local   -6070.70790 -6074.83296  6203.05494    -0.00000     0.00000     0.00000
  n-local   -13.00253   -13.81643   -12.47807     0.06785     0.00000     0.00000
  augment    -1.47760    -1.47995    -1.37127     0.00000     0.00000     0.00000
  Kinetic   234.34280   240.09875   273.19782    -4.45175    -0.00000    -0.00000
  Fock        0.00000     0.00000     0.00000     0.00000     0.00000     0.00000
  Total      -5.45589     0.00066    -0.00136     0.00000     0.00000     0.00000
  in kB     -41.45981     0.00498    -0.01032     0.00000     0.00000     0.00000

 VOLUME and BASIS-vectors are now :
  energy-cutoff  :     2000.00
  volume of cell :      210.84
      direct lattice vectors                 reciprocal lattice vectors
     4.380951700  0.000000000  0.000000000     0.228260905  0.000000000  0.000000000
     0.000000000  2.457095424  0.000000000     0.000000000  0.406984601  0.000000000
     0.000000000  0.000000000 19.586561325     0.000000000  0.000000000  0.051055414

[...]

 FORCES acting on ions
    electron-ion (+dipol)            ewald-force                    non-local-force                 convergence-correction
   0.540E+01 0.322E-15 -.249E-08   -.539E+01 0.270E-15 0.644E-19   -.531E-02 0.139E-16 0.000E+00   -.378E-06 -.208E-15 -.819E-13
   -.540E+01 -.230E-14 -.109E-07   0.539E+01 -.749E-14 -.182E-33   0.531E-02 -.694E-17 0.000E+00   0.378E-06 -.178E-14 -.808E-13
   0.540E+01 -.156E-12 -.247E-08   -.539E+01 0.274E-14 -.644E-19   -.531E-02 0.139E-16 0.103E-24   -.378E-06 0.111E-16 -.818E-13
   -.540E+01 0.178E-14 -.109E-07   0.539E+01 -.502E-14 0.193E-33   0.531E-02 -.694E-17 0.000E+00   0.378E-06 -.200E-14 -.806E-13
   -.943E-06 -.156E-12 -.268E-07   -.888E-15 -.950E-14 0.120E-34   -.867E-18 0.139E-16 0.103E-24   -.137E-12 -.398E-14 -.325E-12

 POSITION                                       TOTAL-FORCE (eV/Angst)
      4.37858      0.00000      0.00000        -0.000663      0.000000      0.000000
      0.73253      1.22855      0.00000         0.000663     -0.000000     -0.000000
      2.18810      1.22855      0.00000        -0.000663     -0.000000      0.000000
      2.92301      0.00000      0.00000         0.000663      0.000000     -0.000000
    total drift:                               -0.000001     -0.000000     -0.000000

  FREE ENERGIE OF THE ION-ELECTRON SYSTEM (eV)
  free  energy   TOTEN  =       -36.85734387 eV

  energy  without entropy=      -36.85734386  energy(sigma->0) =      -36.85734387

 Quasi-Newton relaxation of ions (Broydens 2nd method)
  g(Force)  = 0.848E-07   g(Stress)= 0.000E+00

 Reset! Starting new Quasi-Newton update for ions

[...]

WARNING in EDDRMM: call to ZHEGV failed, returncode =   6  3  1

[...]

 eigenvalue-minimisations  :  2117
 total energy-change (2. order) :-0.2117986E-09  ( 0.1198661E-14)
 number of electron      16.0000000 magnetization
 augmentation part        0.3724910 magnetization

[...]

 d Force =-0.1141536E-06[-0.313E-06, 0.848E-07]  d Energy =-0.1210972E-06 0.694E-08
 d Force = 0.6890529E-03[ 0.688E-03, 0.690E-03]  d Ewald  = 0.6890529E-03-0.250E-10

[...]

 retain information from N=  1 steps
 eigenvalues of (default step * inverse Hessian matrix)
  average eigenvalue of G=   0.2132
 eigenvalue spectrum of G is  0.2132

[...]

 d Force = 0.1233184E-06[ 0.241E-09, 0.246E-06]  d Energy = 0.1291178E-06-0.580E-08
 d Force =-0.5420393E-03[-0.542E-03,-0.542E-03]  d Ewald  =-0.5420393E-03 0.127E-10

[...]

 eigenvalue-minimisations  :  4728
 total energy-change (2. order) : 0.7914878E-09  ( 0.5347103E-09)
 number of electron      16.0000000 magnetization
 augmentation part        0.3724916 magnetization

[...]

 eigenvalue-minimisations  :  1497
 total energy-change (2. order) : 0.1552962E-09  (-0.2781725E-14)
 number of electron      16.0000000 magnetization
 augmentation part        0.3724916 magnetization

[...]

 d Force =-0.9213847E-13[-0.420E-12, 0.236E-12]  d Energy =-0.2161187E-09 0.216E-09
 d Force =-0.5313472E-06[-0.531E-06,-0.531E-06]  d Ewald  =-0.5313464E-06-0.909E-12

[...]

 FEWALD executed in parallel

[...]

 eigenvalue-minimisations  :  4472
 total energy-change (2. order) : 0.2415845E-09  ( 0.5367229E-09)
 number of electron      16.0000000 magnetization
 augmentation part        0.3724916 magnetization

[...]

 eigenvalue-minimisations  :  1110
 total energy-change (2. order) :-0.4308731E-10  ( 0.1599544E-14)
 number of electron      16.0000000 magnetization
 augmentation part        0.3724916 magnetization

 Broyden mixing:
  rms(total) = 0.69122E-09    rms(broyden)= 0.69122E-09
  rms(prec ) = 0.14006E-08
  weight for this iteration     100.00

 eigenvalues of (default mixing * dielectric matrix)
  average eigenvalue GAMMA=   2.3354
  0.9661  3.4668  2.5732

[...]

----------------------------------------- Iteration    5(   5)  ---------------------------------------

 eigenvalue-minimisations  :  1100
 total energy-change (2. order) :-0.2364686E-10  (-0.2191251E-13)
 number of electron      16.0000000 magnetization
 augmentation part        0.3724916 magnetization

 Free energy of the ion-electron system (eV)
  alpha Z        PSCENC =         6.18334092
  Ewald energy   TEWEN  =      2448.20259185
  -Hartree energ DENC   =     -2942.49075286
  -exchange      EXHF   =         0.00000000
  -V(xc)+E(xc)   XCENC  =        57.13814067
  PAW double counting   =       268.74544236     -273.85660217
  entropy T*S    EENTRO =        -0.00000002
  eigenvalues    EBANDS =      -189.40303154
  atomic energy  EATOM  =       588.62352690
  free energy    TOTEN  =       -36.85734388 eV

  energy without entropy =      -36.85734387  energy(sigma->0) =      -36.85734388

 average (electrostatic) potential at core
  the test charge radii are     0.6991
  (the norm of the test charge is              1.0000)
       1 -58.3159       2 -58.3159       3 -58.3159       4 -58.3159

 E-fermi :  -2.8248     XC(G=0):  -2.1776     alpha+bet : -1.9046

[...]

 k-point   247 :       0.5000    0.5000    0.0000
  band No.  band energies     occupation
      1     -16.8438      2.00000
      2     -16.8438      2.00000
      3     -15.8565      2.00000
      4     -15.8565      2.00000
      5      -9.3037      2.00000
      6      -9.3037      2.00000
      7      -5.0111      2.00000
      8      -5.0111      2.00000
      9      -1.1526      0.00000
     10      -1.1526      0.00000
     11       3.8898      0.00000
     12       3.8898      0.00000

 soft charge-density along one line, spin component           1
         0         1         2         3         4         5         6         7         8         9
 total charge-density along one line

------------------------ aborting loop because EDIFF is reached ----------------------------------------

  FORCE on cell =-STRESS in cart. coord.  units (eV):
  Direction    XX          YY          ZZ          XY          YZ          ZX
  Alpha Z     6.18334     6.18334     6.18334
  Ewald    2978.39793  2981.86801 -3512.06356     0.00000     0.00000     0.00000
  Hartree  2918.76945  2919.95586 -2896.23455     0.00000    -0.00000    -0.00000
  E(xc)     -57.95472   -57.98283   -60.29003    -0.00000    -0.00000    -0.00000
  Local   -6070.71349 -6074.82723  6203.05502    -0.00000    -0.00000    -0.00000
  n-local   -13.00248   -13.81647   -12.47807     0.06784    -0.00000     0.00000
  augment    -1.47761    -1.47994    -1.37127     0.00000     0.00000     0.00000
  Kinetic   234.34184   240.09963   273.19779    -4.45172     0.00000    -0.00000
  Fock        0.00000     0.00000     0.00000     0.00000     0.00000     0.00000
  Total      -5.45575     0.00037    -0.00134     0.00000     0.00000     0.00000
  in kB     -41.45874     0.00281    -0.01015     0.00000     0.00000     0.00000

 VOLUME and BASIS-vectors are now :
  energy-cutoff  :     2000.00
  volume of cell :      210.84
      direct lattice vectors                 reciprocal lattice vectors
     4.380951700  0.000000000  0.000000000     0.228260905  0.000000000  0.000000000
     0.000000000  2.457095424  0.000000000     0.000000000  0.406984601  0.000000000
     0.000000000  0.000000000 19.586561325     0.000000000  0.000000000  0.051055414

  length of vectors
     4.380951700  2.457095424 19.586561325     0.228260905  0.406984601  0.051055414

 FORCES acting on ions
    electron-ion (+dipol)            ewald-force                    non-local-force                 convergence-correction
   0.539E+01 0.141E-14 -.249E-08   -.539E+01 0.153E-14 -.204E-17   -.508E-02 0.000E+00 0.808E-27   0.639E-09 -.931E-15 0.577E-12
   -.539E+01 0.254E-13 -.109E-07   0.539E+01 -.876E-14 -.188E-18   0.508E-02 0.000E+00 -.808E-27   -.639E-09 0.369E-15 0.569E-12
   0.539E+01 -.192E-12 -.250E-08   -.539E+01 0.401E-14 0.312E-18   -.508E-02 0.000E+00 -.126E-28   0.639E-09 -.105E-14 0.517E-12
   -.539E+01 0.490E-16 -.110E-07   0.539E+01 -.628E-14 0.192E-17   0.508E-02 0.000E+00 0.000E+00   -.639E-09 0.412E-15 0.521E-12
   -.942E-06 -.165E-12 -.269E-07   0.000E+00 -.950E-14 0.000E+00   0.867E-18 0.000E+00 -.126E-28   0.295E-14 -.120E-14 0.218E-11

 POSITION                                       TOTAL-FORCE (eV/Angst)
      4.37857      0.00000      0.00000        -0.000000      0.000000      0.000000
      0.73254      1.22855     -0.00000         0.000000      0.000000     -0.000000
      2.18810      1.22855      0.00000        -0.000000      0.000000      0.000000
      2.92301      0.00000     -0.00000         0.000000     -0.000000     -0.000000
    total drift:                               -0.000001     -0.000000     -0.000000

  FREE ENERGIE OF THE ION-ELECTRON SYSTEM (eV)
  free  energy   TOTEN  =       -36.85734388 eV

  energy  without entropy=      -36.85734387  energy(sigma->0) =      -36.85734388

 d Force = 0.1441270E-12[ 0.190E-13, 0.269E-12]  d Energy = 0.3662990E-09-0.366E-09
 d Force = 0.3402362E-06[ 0.340E-06, 0.340E-06]  d Ewald  = 0.3402356E-06 0.455E-12

 Quasi-Newton relaxation of ions (Broydens 2nd method)
  g(Force)  = 0.175E-13   g(Stress)= 0.000E+00

 retain information from N=  1 steps
 eigenvalues of (default step * inverse Hessian matrix)
  average eigenvalue of G=   0.0826
 eigenvalue spectrum of G is  0.0826

 reached required accuracy - stopping structural energy minimisation