 vasp.5.3.5 31Mar14 (build Mar 02 2015 18:14:16) complex

 executed on             LinuxIFC date 2018.08.09  20:03:22

 INCAR:
 POTCAR:   PAW_PBE C 08Apr2002
 POTCAR:   PAW_PBE C 08Apr2002
   VRHFIN =C: s2p2

   TITEL  = PAW_PBE C 08Apr2002
   POMASS =   12.011; ZVAL   =    4.000    mass and valenz
   ENMAX  =  400.000; ENMIN  =  300.000 eV
   QCUT   =   -5.516; QGAM   =   11.032    optimization parameters

   Description
     l     E      TYP  RCUT    TYP  RCUT
     0   .000     23  1.200
     0   .000     23  1.200
     1   .000     23  1.500
     1  2.500     23  1.500
     2   .000      7  1.500

 PAW_PBE C 08Apr2002                    :

 POSCAR: MD-kMC export data
  positions in direct lattice
  velocities in cartesian coordinates
 exchange correlation table for  LEXCH =        8
   RHO(1)=    0.500       N(1)  =     2000
   RHO(2)=  100.500       N(2)  =     4000

 ion  position               nearest neighbor table
   1  0.000  0.000  0.000-   4 1.42   2 1.44   2 1.44
   2  0.166  0.500  0.000-   3 1.42   1 1.44   1 1.44
   3  0.500  0.500  0.000-   2 1.42   4 1.44   4 1.44
   4  0.666  0.000  0.000-   1 1.42   3 1.44   3 1.44

  LATTYP: Found a simple orthorhombic cell.
 ALAT       =     2.5043106043
 B/A-ratio  =     1.7018875328
 C/A-ratio  =     7.8877520539

  Lattice vectors:

 A1 = (   0.0000000000,  -2.5043106043,   0.0000000000)
 A2 = (  -4.2620549957,   0.0000000000,   0.0000000000)
 A3 = (   0.0000000000,   0.0000000000, -19.7533811130)

Analysis of symmetry for initial positions (statically):
 Subroutine PRICEL returns following result:

  LATTYP: Found a base centered orthorhombic cell.
 ALAT       =     2.5043106043
 B/A-ratio  =     1.7018875328
 C/A-ratio  =     7.8877520539

[...]

   2 primitive cells build up your supercell.

 Routine SETGRP: Setting up the symmetry group for a
 simple orthorhombic supercell.

 Subroutine GETGRP returns: Found  8 space group operations
 (whereof  4 operations were pure point group operations)
 out of a pool of  8 trial point group operations.

The static configuration has the point symmetry C_2v.
 The point group associated with its full space group is D_2h.

Analysis of symmetry for dynamics (positions and initial velocities):
 Subroutine PRICEL returns following result:

  LATTYP: Found a base centered orthorhombic cell.
 ALAT       =     2.5043106043
 B/A-ratio  =     1.7018875328
 C/A-ratio  =     7.8877520539

  Lattice vectors:

 A1 = (   2.1310274979,  -1.2521553022,   0.0000000000)
 A2 = (  -2.1310274979,  -1.2521553022,   0.0000000000)
 A3 = (   0.0000000000,   0.0000000000, -19.7533811130)

   2 primitive cells build up your supercell.

 Routine SETGRP: Setting up the symmetry group for a
 simple orthorhombic supercell.

 Subroutine GETGRP returns: Found  8 space group operations
 (whereof  4 operations were pure point group operations)
 out of a pool of  8 trial point group operations.

The dynamic configuration has the point symmetry C_2v.
 The point group associated with its full space group is D_2h.

 KPOINTS: Automatic mesh

Automatic generation of k-mesh.
Space group operators:
 irot       det(A)        alpha          n_x          n_y          n_z        tau_x        tau_y        tau_z
    1     1.000000     0.000001     1.000000     0.000000     0.000000     0.000000     0.000000     0.000000
    2    -1.000000   180.000000     0.000000     0.000000     1.000000     0.000000     0.000000     0.000000
    3     1.000000   180.000000     1.000000     0.000000     0.000000     0.000000     0.000000     0.000000
    4    -1.000000   179.999999     0.000000     1.000000     0.000000     0.000000     0.000000     0.000000
    5    -1.000000     0.000001     1.000000     0.000000     0.000000     0.166667    -0.500000     0.000000
    6     1.000000   180.000000     0.000000     0.000000     1.000000     0.166667    -0.500000     0.000000
    7    -1.000000   180.000000     1.000000     0.000000     0.000000     0.166667    -0.500000     0.000000
    8     1.000000   179.999999     0.000000     1.000000     0.000000     0.166667    -0.500000     0.000000

 Subroutine IBZKPT returns following result:

 Found    247 irreducible k-points:

 Following reciprocal coordinates:
            Coordinates               Weight
  0.000000  0.000000  0.000000      1.000000
  0.041667  0.000000  0.000000      2.000000
  0.083333  0.000000  0.000000      2.000000
  0.125000  0.000000  0.000000      2.000000
  0.166667  0.000000  0.000000      2.000000
  0.208333  0.000000  0.000000      2.000000
  0.250000  0.000000  0.000000      2.000000
  0.291667  0.000000  0.000000      2.000000
  0.333333  0.000000  0.000000      2.000000
  0.375000  0.000000  0.000000      2.000000
  0.416667  0.000000  0.000000      2.000000
  0.458333  0.000000  0.000000      2.000000
  0.500000  0.000000  0.000000      1.000000
  0.000000  0.027778  0.000000      2.000000
  0.041667  0.027778  0.000000      4.000000
  0.083333  0.027778  0.000000      4.000000
  0.125000  0.027778  0.000000      4.000000
  0.166667  0.027778  0.000000      4.000000
  0.208333  0.027778  0.000000      4.000000
  0.250000  0.027778  0.000000      4.000000
  0.291667  0.027778  0.000000      4.000000
  0.333333  0.027778  0.000000      4.000000
  0.375000  0.027778  0.000000      4.000000
  0.416667  0.027778  0.000000      4.000000
  0.458333  0.027778  0.000000      4.000000
  0.500000  0.027778  0.000000      2.000000
  0.000000  0.055556  0.000000      2.000000
  0.041667  0.055556  0.000000      4.000000
  0.083333  0.055556  0.000000      4.000000
  0.125000  0.055556  0.000000      4.000000
  0.166667  0.055556  0.000000      4.000000
  0.208333  0.055556  0.000000      4.000000
  0.250000  0.055556  0.000000      4.000000
  0.291667  0.055556  0.000000      4.000000
  0.333333  0.055556  0.000000      4.000000
  0.375000  0.055556  0.000000      4.000000
  0.416667  0.055556  0.000000      4.000000
  0.458333  0.055556  0.000000      4.000000
  0.500000  0.055556  0.000000      2.000000
  0.000000  0.083333  0.000000      2.000000
  0.041667  0.083333  0.000000      4.000000
  0.083333  0.083333  0.000000      4.000000
  0.125000  0.083333  0.000000      4.000000
  0.166667  0.083333  0.000000      4.000000
  0.208333  0.083333  0.000000      4.000000
  0.250000  0.083333  0.000000      4.000000
  0.291667  0.083333  0.000000      4.000000
  0.333333  0.083333  0.000000      4.000000
  0.375000  0.083333  0.000000      4.000000
  0.416667  0.083333  0.000000      4.000000
  0.458333  0.083333  0.000000      4.000000
  0.500000  0.083333  0.000000      2.000000
  0.000000  0.111111  0.000000      2.000000
  0.041667  0.111111  0.000000      4.000000
  0.083333  0.111111  0.000000      4.000000
  0.125000  0.111111  0.000000      4.000000
  0.166667  0.111111  0.000000      4.000000
  0.208333  0.111111  0.000000      4.000000
  0.250000  0.111111  0.000000      4.000000
  0.291667  0.111111  0.000000      4.000000
[...]
  0.458333  0.472222  0.000000      4.000000
  0.500000  0.472222  0.000000      2.000000
  0.000000  0.500000  0.000000      1.000000
  0.041667  0.500000  0.000000      2.000000
  0.083333  0.500000  0.000000      2.000000
  0.125000  0.500000  0.000000      2.000000
  0.166667  0.500000  0.000000      2.000000
  0.208333  0.500000  0.000000      2.000000
  0.250000  0.500000  0.000000      2.000000
  0.291667  0.500000  0.000000      2.000000
  0.333333  0.500000  0.000000      2.000000
  0.375000  0.500000  0.000000      2.000000
  0.416667  0.500000  0.000000      2.000000
  0.458333  0.500000  0.000000      2.000000
  0.500000  0.500000  0.000000      1.000000

 Following cartesian coordinates:
            Coordinates               Weight
  0.000000  0.000000  0.000000      1.000000
  0.009776  0.000000  0.000000      2.000000
  0.019552  0.000000  0.000000      2.000000
  0.029329  0.000000  0.000000      2.000000
  0.039105  0.000000  0.000000      2.000000
  0.048881  0.000000  0.000000      2.000000
  0.058657  0.000000  0.000000      2.000000
  0.068433  0.000000  0.000000      2.000000
  0.078210  0.000000  0.000000      2.000000
  0.087986  0.000000  0.000000      2.000000
  0.097762  0.000000  0.000000      2.000000
  0.107538  0.000000  0.000000      2.000000
  0.117314  0.000000  0.000000      1.000000
  0.000000  0.011092  0.000000      2.000000
  0.009776  0.011092  0.000000      4.000000
  0.019552  0.011092  0.000000      4.000000
  0.029329  0.011092  0.000000      4.000000
  0.039105  0.011092  0.000000      4.000000
  0.048881  0.011092  0.000000      4.000000
  0.058657  0.011092  0.000000      4.000000
  0.068433  0.011092  0.000000      4.000000
  0.078210  0.011092  0.000000      4.000000
  0.087986  0.011092  0.000000      4.000000
  0.097762  0.011092  0.000000      4.000000
  0.107538  0.011092  0.000000      4.000000
  0.117314  0.011092  0.000000      2.000000
  0.000000  0.022184  0.000000      2.000000
  0.009776  0.022184  0.000000      4.000000
  0.019552  0.022184  0.000000      4.000000
  0.029329  0.022184  0.000000      4.000000
  0.039105  0.022184  0.000000      4.000000
  0.048881  0.022184  0.000000      4.000000
  0.058657  0.022184  0.000000      4.000000
  0.068433  0.022184  0.000000      4.000000
  0.078210  0.022184  0.000000      4.000000
  0.087986  0.022184  0.000000      4.000000
  0.097762  0.022184  0.000000      4.000000
  0.107538  0.022184  0.000000      4.000000
  0.117314  0.022184  0.000000      2.000000
  0.000000  0.033276  0.000000      2.000000
  0.009776  0.033276  0.000000      4.000000
  0.019552  0.033276  0.000000      4.000000
  0.029329  0.033276  0.000000      4.000000
  0.039105  0.033276  0.000000      4.000000
  0.048881  0.033276  0.000000      4.000000
  0.058657  0.033276  0.000000      4.000000
  0.068433  0.033276  0.000000      4.000000
  0.078210  0.033276  0.000000      4.000000
  0.087986  0.033276  0.000000      4.000000
  0.097762  0.033276  0.000000      4.000000
  0.107538  0.033276  0.000000      4.000000
  0.117314  0.033276  0.000000      2.000000
  0.000000  0.044368  0.000000      2.000000
  0.009776  0.044368  0.000000      4.000000
  0.019552  0.044368  0.000000      4.000000
  0.029329  0.044368  0.000000      4.000000
  0.039105  0.044368  0.000000      4.000000
  0.048881  0.044368  0.000000      4.000000
  0.058657  0.044368  0.000000      4.000000
  0.068433  0.044368  0.000000      4.000000
[...]
  0.107538  0.188564  0.000000      4.000000
  0.117314  0.188564  0.000000      2.000000
  0.000000  0.199656  0.000000      1.000000
  0.009776  0.199656  0.000000      2.000000
  0.019552  0.199656  0.000000      2.000000
  0.029329  0.199656  0.000000      2.000000
  0.039105  0.199656  0.000000      2.000000
  0.048881  0.199656  0.000000      2.000000
  0.058657  0.199656  0.000000      2.000000
  0.068433  0.199656  0.000000      2.000000
  0.078210  0.199656  0.000000      2.000000
  0.087986  0.199656  0.000000      2.000000
  0.097762  0.199656  0.000000      2.000000
  0.107538  0.199656  0.000000      2.000000
  0.117314  0.199656  0.000000      1.000000

 I would recommend the setting:
   dimension x,y,z NGX =    62 NGY =   37 NGZ =  288
[...]
 k-point ** :   0.2500 0.2778 0.0000  plane waves:   42846
 k-point ** :   0.2917 0.2778 0.0000  plane waves:   42809
 k-point ** :   0.3333 0.2778 0.0000  plane waves:   42792
 k-point ** :   0.3750 0.2778 0.0000  plane waves:   42770
 k-point ** :   0.4167 0.2778 0.0000  plane waves:   42775
 k-point ** :   0.4583 0.2778 0.0000  plane waves:   42760
 k-point ** :   0.5000 0.2778 0.0000  plane waves:   42738
 k-point ** :   0.0000 0.3056 0.0000  plane waves:   42892
 k-point ** :   0.0417 0.3056 0.0000  plane waves:   42893
 k-point ** :   0.0833 0.3056 0.0000  plane waves:   42909
 k-point ** :   0.1250 0.3056 0.0000  plane waves:   42893
 k-point ** :   0.1667 0.3056 0.0000  plane waves:   42873
 k-point ** :   0.2083 0.3056 0.0000  plane waves:   42851
 k-point ** :   0.2500 0.3056 0.0000  plane waves:   42834
 k-point ** :   0.2917 0.3056 0.0000  plane waves:   42815
 k-point ** :   0.3333 0.3056 0.0000  plane waves:   42780
 k-point ** :   0.3750 0.3056 0.0000  plane waves:   42782
 k-point ** :   0.4167 0.3056 0.0000  plane waves:   42781
 k-point ** :   0.4583 0.3056 0.0000  plane waves:   42756
 k-point ** :   0.5000 0.3056 0.0000  plane waves:   42746
 k-point ** :   0.0000 0.3333 0.0000  plane waves:   42900
 k-point ** :   0.0417 0.3333 0.0000  plane waves:   42885
 k-point ** :   0.0833 0.3333 0.0000  plane waves:   42899
[...]
 k-point ** :   0.4583 0.4722 0.0000  plane waves:   42837
 k-point ** :   0.5000 0.4722 0.0000  plane waves:   42810
 k-point ** :   0.0000 0.5000 0.0000  plane waves:   42854
 k-point ** :   0.0417 0.5000 0.0000  plane waves:   42838
 k-point ** :   0.0833 0.5000 0.0000  plane waves:   42872
 k-point ** :   0.1250 0.5000 0.0000  plane waves:   42874
 k-point ** :   0.1667 0.5000 0.0000  plane waves:   42904
 k-point ** :   0.2083 0.5000 0.0000  plane waves:   42880
 k-point ** :   0.2500 0.5000 0.0000  plane waves:   42884
 k-point ** :   0.2917 0.5000 0.0000  plane waves:   42888
 k-point ** :   0.3333 0.5000 0.0000  plane waves:   42904
 k-point ** :   0.3750 0.5000 0.0000  plane waves:   42874
 k-point ** :   0.4167 0.5000 0.0000  plane waves:   42860
 k-point ** :   0.4583 0.5000 0.0000  plane waves:   42884
 k-point ** :   0.5000 0.5000 0.0000  plane waves:   42784

 maximum and minimum number of plane-waves per node :     21494    21316

 maximum number of plane-waves:     42922
 maximum index in each direction:
   IXMAX=   15   IYMAX=    9   IZMAX=   72
   IXMIN=  -16   IYMIN=   -9   IZMIN=  -72

 NGX is ok and might be reduce to  64
 NGY is ok and might be reduce to  38
 WARNING: aliasing errors must be expected set NGZ to 290 to avoid them
 aliasing errors are usually negligible using standard VASP settings
 and one can safely disregard these warnings

 parallel 3D FFT for wavefunctions:
    minimum data exchange during FFTs selected (reduces bandwidth)
 parallel 3D FFT for charge:
    minimum data exchange during FFTs selected (reduces bandwidth)

 Broyden mixing: mesh for mixing (old mesh)
   NGX = 31   NGY = 19   NGZ =145
  (NGX  =128   NGY  = 80   NGZ  =576)
  gives a total of  85405 points

 initial charge density was supplied:
 charge density of overlapping atoms calculated
 number of electron      16.0000000 magnetization
 keeping initial charge density in first step

 Maximum index for augmentation-charges         5073 (set IRDMAX)

 First call to EWALD:  gamma=   0.298
 Maximum number of real-space cells 4x 6x 1
 Maximum number of reciprocal cells 2x 1x 8

 FEWALD executed in parallel

----------------------------------------- Iteration    1(   1)  ---------------------------------------

 eigenvalue-minimisations  :  5928
 total energy-change (2. order) : 0.1880862E+03  (-0.1062119E+04)
 number of electron      16.0000000 magnetization
 augmentation part       16.0000000 magnetization

 Free energy of the ion-electron system (eV)
  alpha Z        PSCENC =         6.18334092
  Ewald energy   TEWEN  =      2503.75838626
  -Hartree energ DENC   =     -2931.62614621
  -exchange      EXHF   =         0.00000000
  -V(xc)+E(xc)   XCENC  =        54.92898934
  PAW double counting   =       151.32577238     -155.92769107
  entropy T*S    EENTRO =        -0.00123318
  eigenvalues    EBANDS =       -29.17877931
  atomic energy  EATOM  =       588.62352690
  free energy    TOTEN  =       188.08616605 eV

  energy without entropy =      188.08739923  energy(sigma->0) =      188.08678264

[...]

 eigenvalue-minimisations  : 10448
 total energy-change (2. order) :-0.1976478E+03  (-0.1752986E+03)
 number of electron      16.0000000 magnetization
 augmentation part       16.0000000 magnetization

[...]

 Broyden mixing:
  rms(total) = 0.71966E+00    rms(broyden)= 0.71966E+00
  rms(prec ) = 0.78357E+00
  weight for this iteration     100.00

[...]

 eigenvalues of (default mixing * dielectric matrix)
  average eigenvalue GAMMA=   2.3166
  2.3166

[...]

 average (electrostatic) potential at core
  the test charge radii are     0.6991
  (the norm of the test charge is              1.0000)
       1 -58.2645       2 -58.2645       3 -58.2645       4 -58.2645

 E-fermi :  -2.7966     XC(G=0):  -2.1631     alpha+bet : -1.9046

 k-point     1 :       0.0000    0.0000    0.0000
  band No.  band energies     occupation
      1     -22.1501      2.00000
      2     -16.8297      2.00000
      3     -15.9064      2.00000
      4     -10.2789      2.00000
      5      -9.3555      2.00000
      6      -5.9166      2.00000
      7      -5.7544      2.00000
      8      -4.9863      2.00000
      9      -1.1123      0.00000
     10       0.5363      0.00000
     11       1.3356      0.00000
     12       1.7247      0.00000

[...]

 soft charge-density along one line, spin component           1
         0         1         2         3         4         5         6         7         8         9
 total charge-density along one line

------------------------ aborting loop because EDIFF is reached ----------------------------------------

  FORCE on cell =-STRESS in cart. coord.  units (eV):
  Direction    XX          YY          ZZ          XY          YZ          ZX
  Alpha Z     6.18334     6.18334     6.18334
  Ewald    3038.87326  3037.02808 -3572.14320    -0.00000     0.00000     0.00000
  Hartree  2975.28402  2974.67044 -2952.04440     0.00000    -0.00000    -0.00000
  E(xc)     -58.12843   -58.11024   -60.44775     0.00000    -0.00000    -0.00000
  Local   -6186.93665 -6184.81683  6318.57526    -0.00000     0.00000    -0.00000
  n-local   -13.87655   -13.37945   -12.59556     0.07596    -0.00000    -0.00000
  augment    -1.50505    -1.50303    -1.38874     0.00000    -0.00000    -0.00000
  Kinetic   240.10551   236.64979   273.85970    -4.62730     0.00000     0.00000
  Fock        0.00000     0.00000     0.00000     0.00000     0.00000     0.00000
  Total      -0.00055    -3.27790    -0.00135     0.00000     0.00000     0.00000
  in kB      -0.00417   -24.90908    -0.01025     0.00000     0.00000     0.00000

 VOLUME and BASIS-vectors are now :
  energy-cutoff  :     2000.00
  volume of cell :      210.84
      direct lattice vectors                 reciprocal lattice vectors
     4.262054996  0.000000000  0.000000000     0.234628601  0.000000000  0.000000000
     0.000000000  2.504310604  0.000000000     0.000000000  0.399311490  0.000000000
     0.000000000  0.000000000 19.753381113     0.000000000  0.000000000  0.050624245

[...]

 FORCES acting on ions
    electron-ion (+dipol)            ewald-force                    non-local-force                 convergence-correction
   -.322E+01 -.196E-15 0.664E-09   0.322E+01 -.681E-14 -.679E-18   0.130E-03 -.694E-17 0.310E-24   -.618E-07 -.240E-14 -.834E-13
   0.322E+01 0.193E-12 -.327E-08   -.322E+01 0.582E-14 -.202E-33   -.130E-03 0.139E-16 -.207E-24   0.618E-07 0.292E-15 -.822E-13
   -.322E+01 -.150E-12 0.664E-09   0.322E+01 -.970E-14 0.679E-18   0.130E-03 -.694E-17 0.207E-24   -.618E-07 -.137E-14 -.833E-13
   0.322E+01 -.119E-14 -.325E-08   -.322E+01 0.292E-14 0.193E-33   -.130E-03 0.000E+00 -.207E-24   0.618E-07 -.756E-15 -.821E-13
   -.211E-06 0.415E-13 -.519E-08   0.888E-15 -.777E-14 0.000E+00   0.000E+00 0.000E+00 0.103E-24   0.282E-13 -.423E-14 -.331E-12

 POSITION                                       TOTAL-FORCE (eV/Angst)
      0.00168      0.00000      0.00000        -0.000572     -0.000000      0.000000
      0.70866      1.25216      0.00000         0.000572      0.000000     -0.000000
      2.13271      1.25216      0.00000        -0.000572      0.000000      0.000000
      2.83969      0.00000      0.00000         0.000572      0.000000     -0.000000
    total drift:                               -0.000000      0.000000     -0.000000

  FREE ENERGIE OF THE ION-ELECTRON SYSTEM (eV)
  free  energy   TOTEN  =       -36.90096177 eV

  energy  without entropy=      -36.90095709  energy(sigma->0) =      -36.90095943

 Quasi-Newton relaxation of ions (Broydens 2nd method)
  g(Force)  = 0.632E-07   g(Stress)= 0.000E+00

 Reset! Starting new Quasi-Newton update for ions

[...]

WARNING in EDDRMM: call to ZHEGV failed, returncode =   6  3  1

[...]

 d Force =-0.9708993E-07[-0.257E-06, 0.632E-07]  d Energy =-0.9324617E-07-0.384E-08
 d Force =-0.3562733E-03[-0.357E-03,-0.356E-03]  d Ewald  =-0.3562732E-03-0.223E-10

[...]

 retain information from N=  1 steps
 eigenvalues of (default step * inverse Hessian matrix)
  average eigenvalue of G=   0.1971
 eigenvalue spectrum of G is  0.1971

[...]

WARNING in EDDRMM: call to ZHEGV failed, returncode =   6  3  1
WARNING in EDDRMM: call to ZHEGV failed, returncode =   6  3  1

[...]

 d Force = 0.1034105E-06[ 0.182E-09, 0.207E-06]  d Energy = 0.9999553E-07 0.341E-08
 d Force = 0.2861218E-03[ 0.286E-03, 0.286E-03]  d Ewald  = 0.2861218E-03 0.819E-11

[...]

 eigenvalue-minimisations  :  4588
 total energy-change (2. order) : 0.1419949E-09  ( 0.6122912E-09)
 number of electron      16.0000000 magnetization
 augmentation part        0.3762801 magnetization

[...]

 eigenvalue-minimisations  :  1596
 total energy-change (2. order) :-0.4774847E-09  ( 0.5472988E-14)
 number of electron      16.0000000 magnetization
 augmentation part        0.3762801 magnetization

[...]

 eigenvalue-minimisations  :  1464
 total energy-change (2. order) : 0.2390834E-09  (-0.3835204E-13)
 number of electron      16.0000000 magnetization
 augmentation part        0.3762801 magnetization

[...]

 d Force =-0.1164399E-13[-0.184E-12, 0.161E-12]  d Energy = 0.1950866E-09-0.195E-09
 d Force = 0.2520252E-06[ 0.252E-06, 0.252E-06]  d Ewald  = 0.2520251E-06 0.000E+00

[...]

 FEWALD executed in parallel

[...]

 eigenvalue-minimisations  :  1166
 total energy-change (2. order) :-0.3983587E-09  (-0.1246328E-13)
 number of electron      16.0000000 magnetization
 augmentation part        0.3762801 magnetization

[...]

 eigenvalue-minimisations  :  1235
 total energy-change (2. order) :-0.1305125E-09  ( 0.2092976E-14)
 number of electron      16.0000000 magnetization
 augmentation part        0.3762801 magnetization

[...]

 Broyden mixing:
  rms(total) = 0.13636E-09    rms(broyden)= 0.13635E-09
  rms(prec ) = 0.20992E-09
  weight for this iteration     100.00

 eigenvalues of (default mixing * dielectric matrix)
  average eigenvalue GAMMA=   1.9393
  1.0449  2.6120  2.1611

[...]

----------------------------------------- Iteration    5(   5)  ---------------------------------------

 eigenvalue-minimisations  :  1133
 total energy-change (2. order) : 0.3183231E-10  ( 0.1106111E-14)
 number of electron      16.0000000 magnetization
 augmentation part        0.3762801 magnetization

 Free energy of the ion-electron system (eV)
  alpha Z        PSCENC =         6.18334092
  Ewald energy   TEWEN  =      2503.75845630
  -Hartree energ DENC   =     -2997.91011074
  -exchange      EXHF   =         0.00000000
  -V(xc)+E(xc)   XCENC  =        57.29362760
  PAW double counting   =       272.08040622     -277.20658156
  entropy T*S    EENTRO =        -0.00000466
  eigenvalues    EBANDS =      -189.72362277
  atomic energy  EATOM  =       588.62352690
  free energy    TOTEN  =       -36.90096178 eV

  energy without entropy =      -36.90095712  energy(sigma->0) =      -36.90095945

 average (electrostatic) potential at core
  the test charge radii are     0.6991
  (the norm of the test charge is              1.0000)
       1 -58.2645       2 -58.2645       3 -58.2645       4 -58.2645

 E-fermi :  -2.7966     XC(G=0):  -2.1631     alpha+bet : -1.9046

[...]

 k-point   247 :       0.5000    0.5000    0.0000
  band No.  band energies     occupation
      1     -17.0833      2.00000
      2     -17.0833      2.00000
      3     -15.8956      2.00000
      4     -15.8956      2.00000
      5      -9.0440      2.00000
      6      -9.0440      2.00000
      7      -5.1821      2.00000
      8      -5.1821      2.00000
      9      -1.1356      0.00000
     10      -1.1356      0.00000
     11       4.5994      0.00000
     12       4.5994      0.00000

 soft charge-density along one line, spin component           1
         0         1         2         3         4         5         6         7         8         9
 total charge-density along one line

------------------------ aborting loop because EDIFF is reached ----------------------------------------

  FORCE on cell =-STRESS in cart. coord.  units (eV):
  Direction    XX          YY          ZZ          XY          YZ          ZX
  Alpha Z     6.18334     6.18334     6.18334
  Ewald    3038.87799  3037.02343 -3572.14320     0.00000     0.00000     0.00000
  Hartree  2975.28468  2974.66983 -2952.04440    -0.00000    -0.00000    -0.00000
  E(xc)     -58.12842   -58.11026   -60.44776     0.00000    -0.00000    -0.00000
  Local   -6186.94111 -6184.81245  6318.57524     0.00000     0.00000    -0.00000
  n-local   -13.87651   -13.37949   -12.59556     0.07595    -0.00000    -0.00000
  augment    -1.50506    -1.50302    -1.38874     0.00000     0.00000     0.00000
  Kinetic   240.10482   236.65052   273.85972    -4.62727     0.00000     0.00000
  Fock        0.00000     0.00000     0.00000     0.00000     0.00000     0.00000
  Total      -0.00027    -3.27811    -0.00135     0.00000     0.00000     0.00000
  in kB      -0.00203   -24.91066    -0.01025     0.00000     0.00000     0.00000

 VOLUME and BASIS-vectors are now :
  energy-cutoff  :     2000.00
  volume of cell :      210.84
      direct lattice vectors                 reciprocal lattice vectors
     4.262054996  0.000000000  0.000000000     0.234628601  0.000000000  0.000000000
     0.000000000  2.504310604  0.000000000     0.000000000  0.399311490  0.000000000
     0.000000000  0.000000000 19.753381113     0.000000000  0.000000000  0.050624245

  length of vectors
     4.262054996  2.504310604 19.753381113     0.234628601  0.399311490  0.050624245

 FORCES acting on ions
    electron-ion (+dipol)            ewald-force                    non-local-force                 convergence-correction
   -.322E+01 -.444E-15 0.663E-09   0.322E+01 0.249E-14 0.144E-33   0.331E-03 -.173E-16 0.000E+00   0.256E-11 -.525E-15 0.456E-12
   0.322E+01 -.194E-12 -.328E-08   -.322E+01 -.505E-14 -.557E-18   -.331E-03 0.139E-16 0.000E+00   -.260E-11 -.743E-15 0.453E-12
   -.322E+01 0.690E-12 0.654E-09   0.322E+01 0.117E-14 -.963E-34   0.331E-03 -.347E-17 0.000E+00   0.260E-11 0.278E-15 0.455E-12
   0.322E+01 -.242E-16 -.330E-08   -.322E+01 -.637E-14 0.557E-18   -.331E-03 0.694E-17 0.000E+00   -.257E-11 -.158E-14 0.458E-12
   -.211E-06 0.495E-12 -.525E-08   0.888E-15 -.777E-14 0.963E-34   0.000E+00 0.000E+00 0.000E+00   -.251E-14 -.257E-14 0.182E-11

 POSITION                                       TOTAL-FORCE (eV/Angst)
      0.00167      0.00000      0.00000         0.000000      0.000000      0.000000
      0.70867      1.25216     -0.00000        -0.000000     -0.000000     -0.000000
      2.13270      1.25216      0.00000         0.000000     -0.000000      0.000000
      2.83970      0.00000     -0.00000        -0.000000      0.000000     -0.000000
    total drift:                               -0.000000      0.000000     -0.000000

  FREE ENERGIE OF THE ION-ELECTRON SYSTEM (eV)
  free  energy   TOTEN  =       -36.90096178 eV

  energy  without entropy=      -36.90095712  energy(sigma->0) =      -36.90095945

 d Force = 0.4266165E-13[-0.128E-13, 0.981E-13]  d Energy = 0.9526957E-10-0.952E-10
 d Force =-0.1345328E-06[-0.135E-06,-0.135E-06]  d Ewald  =-0.1345334E-06 0.455E-12

 Quasi-Newton relaxation of ions (Broydens 2nd method)
  g(Force)  = 0.182E-13   g(Stress)= 0.000E+00

 retain information from N=  1 steps
 eigenvalues of (default step * inverse Hessian matrix)
  average eigenvalue of G=   0.0814
 eigenvalue spectrum of G is  0.0814

 reached required accuracy - stopping structural energy minimisation