 vasp.5.3.5 31Mar14 (build Mar 02 2015 18:14:16) complex

 executed on             LinuxIFC date 2018.08.09  14:11:07

 INCAR:
 POTCAR:   PAW_PBE C 08Apr2002
 POTCAR:   PAW_PBE C 08Apr2002
   VRHFIN =C: s2p2

   TITEL  = PAW_PBE C 08Apr2002
   POMASS =   12.011; ZVAL   =    4.000    mass and valenz
   ENMAX  =  400.000; ENMIN  =  300.000 eV
   QCUT   =   -5.516; QGAM   =   11.032    optimization parameters

   Description
     l     E      TYP  RCUT    TYP  RCUT
     0   .000     23  1.200
     0   .000     23  1.200
     1   .000     23  1.500
     1  2.500     23  1.500
     2   .000      7  1.500

 PAW_PBE C 08Apr2002                    :

 POSCAR: MD-kMC export data
  positions in direct lattice
  velocities in cartesian coordinates
 exchange correlation table for  LEXCH =        8
   RHO(1)=    0.500       N(1)  =     2000
   RHO(2)=  100.500       N(2)  =     4000

 ion  position               nearest neighbor table
   1  0.999  0.000  0.000-   2 1.43   2 1.43   4 1.46
   2  0.167  0.500  0.000-   1 1.43   1 1.43   3 1.46
   3  0.499  0.500  0.000-   4 1.43   4 1.43   2 1.46
   4  0.667  0.000  0.000-   3 1.43   3 1.43   1 1.46

  LATTYP: Found a simple orthorhombic cell.
 ALAT       =     2.4571777121
 B/A-ratio  =     1.7825723153
 C/A-ratio  =     7.9724503874

  Lattice vectors:

 A1 = (   0.0000000000,  -2.4571777121,   0.0000000000)
 A2 = (  -4.3800969633,   0.0000000000,   0.0000000000)
 A3 = (   0.0000000000,   0.0000000000, -19.5897274026)

Analysis of symmetry for initial positions (statically):
 Subroutine PRICEL returns following result:

  LATTYP: Found a base centered orthorhombic cell.
 ALAT       =     2.4571777121
 B/A-ratio  =     1.7825723153
 C/A-ratio  =     7.9724503874

[...]

   2 primitive cells build up your supercell.

 Routine SETGRP: Setting up the symmetry group for a
 simple orthorhombic supercell.

 Subroutine GETGRP returns: Found  8 space group operations
 (whereof  4 operations were pure point group operations)
 out of a pool of  8 trial point group operations.

The static configuration has the point symmetry C_2v.
 The point group associated with its full space group is D_2h.

Analysis of symmetry for dynamics (positions and initial velocities):
 Subroutine PRICEL returns following result:

  LATTYP: Found a base centered orthorhombic cell.
 ALAT       =     2.4571777121
 B/A-ratio  =     1.7825723153
 C/A-ratio  =     7.9724503874

  Lattice vectors:

 A1 = (   2.1900484817,  -1.2285888560,   0.0000000000)
 A2 = (  -2.1900484817,  -1.2285888560,   0.0000000000)
 A3 = (   0.0000000000,   0.0000000000, -19.5897274026)

   2 primitive cells build up your supercell.

 Routine SETGRP: Setting up the symmetry group for a
 simple orthorhombic supercell.

 Subroutine GETGRP returns: Found  8 space group operations
 (whereof  4 operations were pure point group operations)
 out of a pool of  8 trial point group operations.

The dynamic configuration has the point symmetry C_2v.
 The point group associated with its full space group is D_2h.

 KPOINTS: Automatic mesh

Automatic generation of k-mesh.
Space group operators:
 irot       det(A)        alpha          n_x          n_y          n_z        tau_x        tau_y        tau_z
    1     1.000000     0.000000     1.000000     0.000000     0.000000     0.000000     0.000000     0.000000
    2    -1.000000   180.000000     0.000000     0.000000     1.000000     0.000000     0.000000     0.000000
    3     1.000000   180.000000     1.000000     0.000000     0.000000     0.000000     0.000000     0.000000
    4    -1.000000   180.000000     0.000000     1.000000     0.000000     0.000000     0.000000     0.000000
    5    -1.000000     0.000000     1.000000     0.000000     0.000000     0.166667    -0.500000     0.000000
    6     1.000000   180.000000     0.000000     0.000000     1.000000     0.166667    -0.500000     0.000000
    7    -1.000000   180.000000     1.000000     0.000000     0.000000     0.166667    -0.500000     0.000000
    8     1.000000   180.000000     0.000000     1.000000     0.000000     0.166667    -0.500000     0.000000

 Subroutine IBZKPT returns following result:

 Found    247 irreducible k-points:

 Following reciprocal coordinates:
            Coordinates               Weight
  0.000000  0.000000  0.000000      1.000000
  0.041667  0.000000  0.000000      2.000000
  0.083333  0.000000  0.000000      2.000000
  0.125000  0.000000  0.000000      2.000000
  0.166667  0.000000  0.000000      2.000000
  0.208333  0.000000  0.000000      2.000000
  0.250000  0.000000  0.000000      2.000000
  0.291667  0.000000  0.000000      2.000000
  0.333333  0.000000  0.000000      2.000000
  0.375000  0.000000  0.000000      2.000000
  0.416667  0.000000  0.000000      2.000000
  0.458333  0.000000  0.000000      2.000000
  0.500000  0.000000  0.000000      1.000000
  0.000000  0.027778  0.000000      2.000000
  0.041667  0.027778  0.000000      4.000000
  0.083333  0.027778  0.000000      4.000000
  0.125000  0.027778  0.000000      4.000000
  0.166667  0.027778  0.000000      4.000000
  0.208333  0.027778  0.000000      4.000000
  0.250000  0.027778  0.000000      4.000000
  0.291667  0.027778  0.000000      4.000000
  0.333333  0.027778  0.000000      4.000000
  0.375000  0.027778  0.000000      4.000000
  0.416667  0.027778  0.000000      4.000000
  0.458333  0.027778  0.000000      4.000000
  0.500000  0.027778  0.000000      2.000000
  0.000000  0.055556  0.000000      2.000000
  0.041667  0.055556  0.000000      4.000000
  0.083333  0.055556  0.000000      4.000000
  0.125000  0.055556  0.000000      4.000000
  0.166667  0.055556  0.000000      4.000000
  0.208333  0.055556  0.000000      4.000000
  0.250000  0.055556  0.000000      4.000000
  0.291667  0.055556  0.000000      4.000000
  0.333333  0.055556  0.000000      4.000000
  0.375000  0.055556  0.000000      4.000000
  0.416667  0.055556  0.000000      4.000000
  0.458333  0.055556  0.000000      4.000000
  0.500000  0.055556  0.000000      2.000000
  0.000000  0.083333  0.000000      2.000000
  0.041667  0.083333  0.000000      4.000000
  0.083333  0.083333  0.000000      4.000000
  0.125000  0.083333  0.000000      4.000000
  0.166667  0.083333  0.000000      4.000000
  0.208333  0.083333  0.000000      4.000000
  0.250000  0.083333  0.000000      4.000000
  0.291667  0.083333  0.000000      4.000000
  0.333333  0.083333  0.000000      4.000000
  0.375000  0.083333  0.000000      4.000000
  0.416667  0.083333  0.000000      4.000000
  0.458333  0.083333  0.000000      4.000000
  0.500000  0.083333  0.000000      2.000000
  0.000000  0.111111  0.000000      2.000000
  0.041667  0.111111  0.000000      4.000000
  0.083333  0.111111  0.000000      4.000000
  0.125000  0.111111  0.000000      4.000000
  0.166667  0.111111  0.000000      4.000000
  0.208333  0.111111  0.000000      4.000000
  0.250000  0.111111  0.000000      4.000000
  0.291667  0.111111  0.000000      4.000000
[...]
  0.458333  0.472222  0.000000      4.000000
  0.500000  0.472222  0.000000      2.000000
  0.000000  0.500000  0.000000      1.000000
  0.041667  0.500000  0.000000      2.000000
  0.083333  0.500000  0.000000      2.000000
  0.125000  0.500000  0.000000      2.000000
  0.166667  0.500000  0.000000      2.000000
  0.208333  0.500000  0.000000      2.000000
  0.250000  0.500000  0.000000      2.000000
  0.291667  0.500000  0.000000      2.000000
  0.333333  0.500000  0.000000      2.000000
  0.375000  0.500000  0.000000      2.000000
  0.416667  0.500000  0.000000      2.000000
  0.458333  0.500000  0.000000      2.000000
  0.500000  0.500000  0.000000      1.000000

 Following cartesian coordinates:
            Coordinates               Weight
  0.000000  0.000000  0.000000      1.000000
  0.009513  0.000000  0.000000      2.000000
  0.019025  0.000000  0.000000      2.000000
  0.028538  0.000000  0.000000      2.000000
  0.038051  0.000000  0.000000      2.000000
  0.047564  0.000000  0.000000      2.000000
  0.057076  0.000000  0.000000      2.000000
  0.066589  0.000000  0.000000      2.000000
  0.076102  0.000000  0.000000      2.000000
  0.085615  0.000000  0.000000      2.000000
  0.095127  0.000000  0.000000      2.000000
  0.104640  0.000000  0.000000      2.000000
  0.114153  0.000000  0.000000      1.000000
  0.000000  0.011305  0.000000      2.000000
  0.009513  0.011305  0.000000      4.000000
  0.019025  0.011305  0.000000      4.000000
  0.028538  0.011305  0.000000      4.000000
  0.038051  0.011305  0.000000      4.000000
  0.047564  0.011305  0.000000      4.000000
  0.057076  0.011305  0.000000      4.000000
  0.066589  0.011305  0.000000      4.000000
  0.076102  0.011305  0.000000      4.000000
  0.085615  0.011305  0.000000      4.000000
  0.095127  0.011305  0.000000      4.000000
  0.104640  0.011305  0.000000      4.000000
  0.114153  0.011305  0.000000      2.000000
  0.000000  0.022609  0.000000      2.000000
  0.009513  0.022609  0.000000      4.000000
  0.019025  0.022609  0.000000      4.000000
  0.028538  0.022609  0.000000      4.000000
  0.038051  0.022609  0.000000      4.000000
  0.047564  0.022609  0.000000      4.000000
  0.057076  0.022609  0.000000      4.000000
  0.066589  0.022609  0.000000      4.000000
  0.076102  0.022609  0.000000      4.000000
  0.085615  0.022609  0.000000      4.000000
  0.095127  0.022609  0.000000      4.000000
  0.104640  0.022609  0.000000      4.000000
  0.114153  0.022609  0.000000      2.000000
  0.000000  0.033914  0.000000      2.000000
  0.009513  0.033914  0.000000      4.000000
  0.019025  0.033914  0.000000      4.000000
  0.028538  0.033914  0.000000      4.000000
  0.038051  0.033914  0.000000      4.000000
  0.047564  0.033914  0.000000      4.000000
  0.057076  0.033914  0.000000      4.000000
  0.066589  0.033914  0.000000      4.000000
  0.076102  0.033914  0.000000      4.000000
  0.085615  0.033914  0.000000      4.000000
  0.095127  0.033914  0.000000      4.000000
  0.104640  0.033914  0.000000      4.000000
  0.114153  0.033914  0.000000      2.000000
  0.000000  0.045219  0.000000      2.000000
  0.009513  0.045219  0.000000      4.000000
  0.019025  0.045219  0.000000      4.000000
  0.028538  0.045219  0.000000      4.000000
  0.038051  0.045219  0.000000      4.000000
  0.047564  0.045219  0.000000      4.000000
  0.057076  0.045219  0.000000      4.000000
  0.066589  0.045219  0.000000      4.000000
[...]
  0.104640  0.192181  0.000000      4.000000
  0.114153  0.192181  0.000000      2.000000
  0.000000  0.203485  0.000000      1.000000
  0.009513  0.203485  0.000000      2.000000
  0.019025  0.203485  0.000000      2.000000
  0.028538  0.203485  0.000000      2.000000
  0.038051  0.203485  0.000000      2.000000
  0.047564  0.203485  0.000000      2.000000
  0.057076  0.203485  0.000000      2.000000
  0.066589  0.203485  0.000000      2.000000
  0.076102  0.203485  0.000000      2.000000
  0.085615  0.203485  0.000000      2.000000
  0.095127  0.203485  0.000000      2.000000
  0.104640  0.203485  0.000000      2.000000
  0.114153  0.203485  0.000000      1.000000

 I would recommend the setting:
   dimension x,y,z NGX =    64 NGY =   36 NGZ =  286
[...]
 k-point ** :   0.2083 0.2778 0.0000  plane waves:   42856
 k-point ** :   0.2500 0.2778 0.0000  plane waves:   42871
 k-point ** :   0.2917 0.2778 0.0000  plane waves:   42856
 k-point ** :   0.3333 0.2778 0.0000  plane waves:   42852
 k-point ** :   0.3750 0.2778 0.0000  plane waves:   42843
 k-point ** :   0.4167 0.2778 0.0000  plane waves:   42842
 k-point ** :   0.4583 0.2778 0.0000  plane waves:   42855
 k-point ** :   0.5000 0.2778 0.0000  plane waves:   42868
 k-point ** :   0.0000 0.3056 0.0000  plane waves:   42798
 k-point ** :   0.0417 0.3056 0.0000  plane waves:   42821
 k-point ** :   0.0833 0.3056 0.0000  plane waves:   42836
 k-point ** :   0.1250 0.3056 0.0000  plane waves:   42842
 k-point ** :   0.1667 0.3056 0.0000  plane waves:   42865
 k-point ** :   0.2083 0.3056 0.0000  plane waves:   42865
 k-point ** :   0.2500 0.3056 0.0000  plane waves:   42859
 k-point ** :   0.2917 0.3056 0.0000  plane waves:   42871
 k-point ** :   0.3333 0.3056 0.0000  plane waves:   42871
 k-point ** :   0.3750 0.3056 0.0000  plane waves:   42880
 k-point ** :   0.4167 0.3056 0.0000  plane waves:   42884
 k-point ** :   0.4583 0.3056 0.0000  plane waves:   42880
 k-point ** :   0.5000 0.3056 0.0000  plane waves:   42896
 k-point ** :   0.0000 0.3333 0.0000  plane waves:   42814
 k-point ** :   0.0417 0.3333 0.0000  plane waves:   42820
 k-point ** :   0.0833 0.3333 0.0000  plane waves:   42838
[...]
 k-point ** :   0.4583 0.4722 0.0000  plane waves:   42978
 k-point ** :   0.5000 0.4722 0.0000  plane waves:   42940
 k-point ** :   0.0000 0.5000 0.0000  plane waves:   42834
 k-point ** :   0.0417 0.5000 0.0000  plane waves:   42832
 k-point ** :   0.0833 0.5000 0.0000  plane waves:   42824
 k-point ** :   0.1250 0.5000 0.0000  plane waves:   42872
 k-point ** :   0.1667 0.5000 0.0000  plane waves:   42864
 k-point ** :   0.2083 0.5000 0.0000  plane waves:   42890
 k-point ** :   0.2500 0.5000 0.0000  plane waves:   42878
 k-point ** :   0.2917 0.5000 0.0000  plane waves:   42926
 k-point ** :   0.3333 0.5000 0.0000  plane waves:   42916
 k-point ** :   0.3750 0.5000 0.0000  plane waves:   42922
 k-point ** :   0.4167 0.5000 0.0000  plane waves:   42940
 k-point ** :   0.4583 0.5000 0.0000  plane waves:   42952
 k-point ** :   0.5000 0.5000 0.0000  plane waves:   42976

 maximum and minimum number of plane-waves per node :     21502    21317

 maximum number of plane-waves:     42978
 maximum index in each direction:
   IXMAX=   15   IYMAX=    8   IZMAX=   71
   IXMIN=  -16   IYMIN=   -9   IZMIN=  -71

 NGX is ok and might be reduce to  64
 NGY is ok and might be reduce to  36
 NGZ is ok and might be reduce to 286

 parallel 3D FFT for wavefunctions:
    minimum data exchange during FFTs selected (reduces bandwidth)
 parallel 3D FFT for charge:
    minimum data exchange during FFTs selected (reduces bandwidth)

 Broyden mixing: mesh for mixing (old mesh)
   NGX = 31   NGY = 17   NGZ =143
  (NGX  =128   NGY  = 72   NGZ  =576)
  gives a total of  75361 points

 initial charge density was supplied:
 charge density of overlapping atoms calculated
 number of electron      16.0000000 magnetization
 keeping initial charge density in first step

 Maximum index for augmentation-charges         4565 (set IRDMAX)

 First call to EWALD:  gamma=   0.298
 Maximum number of real-space cells 4x 6x 1
 Maximum number of reciprocal cells 2x 1x 8

 FEWALD executed in parallel

----------------------------------------- Iteration    1(   1)  ---------------------------------------

 eigenvalue-minimisations  :  5928
 total energy-change (2. order) : 0.1873843E+03  (-0.1061673E+04)
 number of electron      16.0000000 magnetization
 augmentation part       16.0000000 magnetization

 Free energy of the ion-electron system (eV)
  alpha Z        PSCENC =         6.18334092
  Ewald energy   TEWEN  =      2449.25187296
  -Hartree energ DENC   =     -2878.75192250
  -exchange      EXHF   =         0.00000000
  -V(xc)+E(xc)   XCENC  =        54.81668512
  PAW double counting   =       151.32577238     -155.92769107
  entropy T*S    EENTRO =        -0.00115805
  eigenvalues    EBANDS =       -28.13613762
  atomic energy  EATOM  =       588.62352690
  free energy    TOTEN  =       187.38428904 eV

  energy without entropy =      187.38544709  energy(sigma->0) =      187.38486807

[...]

 eigenvalue-minimisations  : 10448
 total energy-change (2. order) :-0.1968709E+03  (-0.1746770E+03)
 number of electron      16.0000000 magnetization
 augmentation part       16.0000000 magnetization

[...]

 Broyden mixing:
  rms(total) = 0.70924E+00    rms(broyden)= 0.70924E+00
  rms(prec ) = 0.77272E+00
  weight for this iteration     100.00

[...]

 eigenvalues of (default mixing * dielectric matrix)
  average eigenvalue GAMMA=   2.3128
  2.3128

[...]

WARNING in EDDRMM: call to ZHEGV failed, returncode =   6  3  1
WARNING in EDDRMM: call to ZHEGV failed, returncode =   6  3  1
WARNING in EDDRMM: call to ZHEGV failed, returncode =   6  3  1

[...]

 average (electrostatic) potential at core
  the test charge radii are     0.6991
  (the norm of the test charge is              1.0000)
       1 -58.3149       2 -58.3149       3 -58.3149       4 -58.3149

 E-fermi :  -2.8242     XC(G=0):  -2.1776     alpha+bet : -1.9046

 k-point     1 :       0.0000    0.0000    0.0000
  band No.  band energies     occupation
      1     -22.0806      2.00000
      2     -17.2575      2.00000
      3     -15.8326      2.00000
      4     -10.2253      2.00000
      5      -8.8045      2.00000
      6      -6.0068      2.00000
      7      -5.7269      2.00000
      8      -5.3353      2.00000
      9      -1.1862      0.00000
     10       0.5448      0.00000
     11       1.3428      0.00000
     12       1.7355      0.00000

[...]

 soft charge-density along one line, spin component           1
         0         1         2         3         4         5         6         7         8         9
 total charge-density along one line

------------------------ aborting loop because EDIFF is reached ----------------------------------------

  FORCE on cell =-STRESS in cart. coord.  units (eV):
  Direction    XX          YY          ZZ          XY          YZ          ZX
  Alpha Z     6.18334     6.18334     6.18334
  Ewald    2979.51337  2982.93737 -3513.19907    -0.00000     0.00000    -0.00000
  Hartree  2919.82634  2921.00015 -2897.28901    -0.00000    -0.00000    -0.00000
  E(xc)     -57.95766   -57.98561   -60.29302     0.00000    -0.00000    -0.00000
  Local   -6072.87629 -6076.93839  6205.23804    -0.00000     0.00000     0.00000
  n-local   -13.00970   -13.81756   -12.48030     0.06774    -0.00000    -0.00000
  augment    -1.47810    -1.48040    -1.37161    -0.00000     0.00000    -0.00000
  Kinetic   234.38490   240.10010   273.21029    -4.45279     0.00000    -0.00000
  Fock        0.00000     0.00000     0.00000     0.00000     0.00000     0.00000
  Total      -5.41379    -0.00100    -0.00134     0.00000     0.00000     0.00000
  in kB     -41.13994    -0.00762    -0.01020     0.00000     0.00000     0.00000

 VOLUME and BASIS-vectors are now :
  energy-cutoff  :     2000.00
  volume of cell :      210.84
      direct lattice vectors                 reciprocal lattice vectors
     4.380096963  0.000000000  0.000000000     0.228305448  0.000000000  0.000000000
     0.000000000  2.457177712  0.000000000     0.000000000  0.406970971  0.000000000
     0.000000000  0.000000000 19.589727403     0.000000000  0.000000000  0.051047163

[...]

 FORCES acting on ions
    electron-ion (+dipol)            ewald-force                    non-local-force                 convergence-correction
   0.535E+01 0.780E-16 -.248E-08   -.534E+01 -.383E-14 0.644E-19   -.466E-02 0.694E-17 0.000E+00   0.977E-09 0.120E-14 -.838E-13
   -.535E+01 -.381E-14 -.109E-07   0.534E+01 0.907E-14 0.291E-33   0.466E-02 0.000E+00 0.000E+00   -.977E-09 -.668E-15 -.840E-13
   0.535E+01 -.156E-12 -.247E-08   -.534E+01 -.232E-14 -.644E-19   -.466E-02 0.694E-17 0.000E+00   0.977E-09 0.107E-14 -.836E-13
   -.535E+01 0.692E-15 -.109E-07   0.534E+01 0.106E-13 -.289E-33   0.466E-02 0.000E+00 0.000E+00   -.977E-09 -.477E-15 -.839E-13
   -.952E-06 -.159E-12 -.268E-07   0.000E+00 0.135E-13 0.000E+00   0.000E+00 0.139E-16 0.000E+00   -.235E-12 0.112E-14 -.335E-12

 POSITION                                       TOTAL-FORCE (eV/Angst)
      4.37773      0.00000      0.00000         0.000693      0.000000      0.000000
      0.73239      1.22859      0.00000        -0.000693     -0.000000      0.000000
      2.18768      1.22859      0.00000         0.000693      0.000000      0.000000
      2.92244      0.00000      0.00000        -0.000693     -0.000000      0.000000
    total drift:                               -0.000001     -0.000000     -0.000000

  FREE ENERGIE OF THE ION-ELECTRON SYSTEM (eV)
  free  energy   TOTEN  =       -36.85840433 eV

  energy  without entropy=      -36.85840431  energy(sigma->0) =      -36.85840432

 Quasi-Newton relaxation of ions (Broydens 2nd method)
  g(Force)  = 0.926E-07   g(Stress)= 0.000E+00

 Reset! Starting new Quasi-Newton update for ions

[...]

WARNING in EDDRMM: call to ZHEGV failed, returncode =   6  3  1

[...]

 d Force =-0.1244421E-06[-0.342E-06, 0.926E-07]  d Energy =-0.1176528E-06-0.679E-08
 d Force =-0.7151113E-03[-0.716E-03,-0.714E-03]  d Ewald  =-0.7151114E-03 0.273E-10

[...]

 retain information from N=  1 steps
 eigenvalues of (default step * inverse Hessian matrix)
  average eigenvalue of G=   0.2134
 eigenvalue spectrum of G is  0.2134

[...]

 d Force = 0.1345397E-06[ 0.427E-09, 0.269E-06]  d Energy = 0.1289035E-06 0.564E-08
 d Force = 0.5626492E-03[ 0.562E-03, 0.563E-03]  d Ewald  = 0.5626492E-03-0.132E-10

[...]

 eigenvalue-minimisations  :  4760
 total energy-change (2. order) : 0.3885816E-09  ( 0.5344105E-09)
 number of electron      16.0000000 magnetization
 augmentation part        0.3725635 magnetization

[...]

 d Force =-0.9591785E-13[-0.871E-12, 0.679E-12]  d Energy = 0.1136868E-10-0.115E-10
 d Force = 0.8944099E-06[ 0.894E-06, 0.894E-06]  d Ewald  = 0.8944098E-06 0.000E+00

[...]

 FEWALD executed in parallel

[...]

 eigenvalue-minimisations  :  4592
 total energy-change (2. order) : 0.5030643E-09  ( 0.5369026E-09)
 number of electron      16.0000000 magnetization
 augmentation part        0.3725635 magnetization

[...]

 eigenvalue-minimisations  :  1353
 total energy-change (2. order) :-0.3143441E-09  ( 0.4263256E-13)
 number of electron      16.0000000 magnetization
 augmentation part        0.3725635 magnetization

[...]

 eigenvalue-minimisations  :  1321
 total energy-change (2. order) :-0.2848992E-09  ( 0.1283336E-13)
 number of electron      16.0000000 magnetization
 augmentation part        0.3725635 magnetization

[...]

 eigenvalue-minimisations  :  1306
 total energy-change (2. order) : 0.1202807E-09  (-0.3305997E-14)
 number of electron      16.0000000 magnetization
 augmentation part        0.3725635 magnetization

 Broyden mixing:
  rms(total) = 0.44679E-09    rms(broyden)= 0.44678E-09
  rms(prec ) = 0.49018E-09
  weight for this iteration     100.00

 eigenvalues of (default mixing * dielectric matrix)
  average eigenvalue GAMMA=   2.0185
  4.2536  3.3686  2.5186  0.9576  0.5063  0.5063

[...]

----------------------------------------- Iteration    5(   8)  ---------------------------------------

 eigenvalue-minimisations  :  1043
 total energy-change (2. order) :-0.5456968E-11  (-0.3176883E-13)
 number of electron      16.0000000 magnetization
 augmentation part        0.3725635 magnetization

 Free energy of the ion-electron system (eV)
  alpha Z        PSCENC =         6.18334092
  Ewald energy   TEWEN  =      2449.25202503
  -Hartree energ DENC   =     -2943.53761825
  -exchange      EXHF   =         0.00000000
  -V(xc)+E(xc)   XCENC  =        57.14109610
  PAW double counting   =       268.80835005     -273.91979196
  entropy T*S    EENTRO =        -0.00000002
  eigenvalues    EBANDS =      -189.40933312
  atomic energy  EATOM  =       588.62352690
  free energy    TOTEN  =       -36.85840434 eV

  energy without entropy =      -36.85840432  energy(sigma->0) =      -36.85840433

 average (electrostatic) potential at core
  the test charge radii are     0.6991
  (the norm of the test charge is              1.0000)
       1 -58.3149       2 -58.3149       3 -58.3149       4 -58.3149

 E-fermi :  -2.8242     XC(G=0):  -2.1773     alpha+bet : -1.9046

[...]

 k-point   247 :       0.5000    0.5000    0.0000
  band No.  band energies     occupation
      1     -16.8452      2.00000
      2     -16.8452      2.00000
      3     -15.8574      2.00000
      4     -15.8574      2.00000
      5      -9.3027      2.00000
      6      -9.3027      2.00000
      7      -5.0119      2.00000
      8      -5.0119      2.00000
      9      -1.1519      0.00000
     10      -1.1519      0.00000
     11       3.8953      0.00000
     12       3.8953      0.00000

 soft charge-density along one line, spin component           1
         0         1         2         3         4         5         6         7         8         9
 total charge-density along one line

------------------------ aborting loop because EDIFF is reached ----------------------------------------

  FORCE on cell =-STRESS in cart. coord.  units (eV):
  Direction    XX          YY          ZZ          XY          YZ          ZX
  Alpha Z     6.18334     6.18334     6.18334
  Ewald    2979.50730  2982.94359 -3513.19907    -0.00000     0.00000    -0.00000
  Hartree  2919.82552  2921.00109 -2897.28900    -0.00000    -0.00000    -0.00000
  E(xc)     -57.95769   -57.98559   -60.29303     0.00000    -0.00000    -0.00000
  Local   -6072.87047 -6076.94439  6205.23799     0.00000    -0.00000     0.00000
  n-local   -13.00975   -13.81751   -12.48030     0.06775    -0.00000    -0.00000
  augment    -1.47809    -1.48041    -1.37161     0.00000     0.00000     0.00000
  Kinetic   234.38590   240.09919   273.21034    -4.45282     0.00000     0.00000
  Fock        0.00000     0.00000     0.00000     0.00000     0.00000     0.00000
  Total      -5.41394    -0.00070    -0.00134     0.00000     0.00000     0.00000
  in kB     -41.14104    -0.00530    -0.01018     0.00000     0.00000     0.00000

 VOLUME and BASIS-vectors are now :
  energy-cutoff  :     2000.00
  volume of cell :      210.84
      direct lattice vectors                 reciprocal lattice vectors
     4.380096963  0.000000000  0.000000000     0.228305448  0.000000000  0.000000000
     0.000000000  2.457177712  0.000000000     0.000000000  0.406970971  0.000000000
     0.000000000  0.000000000 19.589727403     0.000000000  0.000000000  0.051047163

  length of vectors
     4.380096963  2.457177712 19.589727403     0.228305448  0.406970971  0.051047163

 FORCES acting on ions
    electron-ion (+dipol)            ewald-force                    non-local-force                 convergence-correction
   0.535E+01 0.135E-16 -.244E-08   -.535E+01 0.614E-14 0.481E-34   -.491E-02 0.347E-17 0.646E-26   0.439E-08 -.121E-14 -.376E-12
   -.535E+01 -.183E-12 -.109E-07   0.535E+01 -.152E-14 0.130E-33   0.491E-02 -.347E-17 0.000E+00   -.439E-08 -.536E-15 -.368E-12
   0.535E+01 -.140E-12 -.247E-08   -.535E+01 0.827E-14 -.481E-34   -.491E-02 0.347E-17 0.646E-26   0.439E-08 -.393E-15 -.362E-12
   -.535E+01 0.360E-15 -.109E-07   0.535E+01 0.603E-15 -.120E-33   0.491E-02 -.104E-16 0.000E+00   -.439E-08 -.150E-14 -.367E-12
   -.952E-06 -.323E-12 -.267E-07   0.000E+00 0.135E-13 0.940E-35   0.260E-17 -.694E-17 0.129E-25   0.505E-14 -.365E-14 -.147E-11

 POSITION                                       TOTAL-FORCE (eV/Angst)
      4.37773      0.00000     -0.00000        -0.000000      0.000000      0.000000
      0.73238      1.22859      0.00000         0.000000     -0.000000     -0.000000
      2.18768      1.22859     -0.00000        -0.000000      0.000000      0.000000
      2.92243     -0.00000      0.00000         0.000000     -0.000000     -0.000000
    total drift:                               -0.000001     -0.000000     -0.000000

  FREE ENERGIE OF THE ION-ELECTRON SYSTEM (eV)
  free  energy   TOTEN  =       -36.85840434 eV

  energy  without entropy=      -36.85840432  energy(sigma->0) =      -36.85840433

 d Force = 0.2295727E-12[-0.301E-13, 0.489E-12]  d Energy =-0.4047251E-10 0.407E-10
 d Force =-0.5025631E-06[-0.503E-06,-0.503E-06]  d Ewald  =-0.5025631E-06 0.000E+00

 Quasi-Newton relaxation of ions (Broydens 2nd method)
  g(Force)  = 0.198E-13   g(Stress)= 0.000E+00

 retain information from N=  1 steps
 eigenvalues of (default step * inverse Hessian matrix)
  average eigenvalue of G=   0.0882
 eigenvalue spectrum of G is  0.0882

 reached required accuracy - stopping structural energy minimisation